   243
 Tv_1:  11.152900   0.000000   0.000000 Tv_2:   0.000000   9.658700   0.000000 Tv_3:   0.000000   0.000000  26.829700
Pt      5.30767013      7.87276534      2.33759058
Pt      6.72521962      0.57302042      2.51882658
Pt     10.84966652      7.78569869      2.58201059
Pt      8.02021973      7.80575077      2.38794830
Pt      7.97448865      2.88313945      2.57897583
Pt      2.52034213      7.66437742      2.57223444
Pt      9.45402488      5.41409872      2.59629553
Pt      6.64205860      5.36595003      2.47549110
Pt      5.23333586      2.94478270      2.50506135
Pt      3.88304752      5.27868227      2.55556381
Pt      9.46434777      0.46199258      2.44080564
Pt      1.12320239      5.22027606      2.61906833
Pt      1.05235945      0.49707265      2.52007029
Pt      2.47991673      2.78367362      2.50267762
Pt      3.87555036      0.55679592      2.47765139
Pt     10.79759648      2.86837097      2.46285439
Pt      5.66651974      6.40855448      4.76455361
Pt      8.43794402      6.46064563      4.75437922
Pt      7.04006583      8.78591295      4.70632488
Pt      7.10811628      4.09639258      4.81109407
Pt      8.39553118      1.49710299      4.83813513
Pt      5.75894622      1.60336592      4.95711540
Pt      9.87297831      3.96579889      4.79182968
Pt      9.86794573      8.80438270      4.93763649
Pt      1.47181580      8.78660063      4.92597365
Pt      0.07412441      6.33326656      4.83360542
Pt      2.91667242      1.50054391      4.91778754
Pt      2.84071764      6.27699172      4.96595618
Pt      4.17443480      8.73037170      4.68814747
Pt      4.31346828      3.97834743      5.01444457
Pt      0.04426921      1.44174637      4.83326042
Pt      1.58933626      3.83139255      4.82483836
Pt      7.92539110      2.67147323      7.20445780
Pt     10.44924684      7.57685709      7.14234438
Pt      9.09345311      5.19079247      7.11531955
Pt      8.90755749      0.17092335      7.27001862
Pt      6.27399919      0.35545332      7.22683269
Pt      3.70198007      4.98903161      7.32306845
Pt      3.54445201      0.36332610      7.29891673
Pt      7.65036429      7.54067714      7.13735342
Pt      5.04145230      2.77024227      7.46298956
Pt      2.23027979      2.65858974      7.31453237
Pt      0.77718980      5.12699502      7.04387077
Pt     10.56975093      2.67879814      7.11757933
Pt      6.40679052      5.14111844      7.27767437
Pt      0.61167319      0.25675527      7.25050008
Pt      1.96553792      7.59804255      7.20672320
Pt      4.71869285      7.43999570      6.99741343
O       6.36109490      5.44755539      9.23301016
O       2.28628655      7.44394957      9.32751332
O       0.67485571      5.28037817      9.22432755
H       5.25999516      3.70794223      9.63267490
H       7.70091308      6.62247740     10.49808329
O       0.71949103      0.39265240      9.39762129
H       2.91848961      8.29116417      9.38929171
O       9.04044195      0.25773910      9.26698853
H      10.92446780      0.63132629      9.68508605
H       0.17306854      4.52480834      9.65146005
H       6.78638532      2.75836241      9.40574419
H       1.95756201      3.49631814      9.81638695
H       8.65989339      9.17154368      9.73665342
C       7.67178175      5.55491412      9.78848973
H       2.94191189      6.39548852      9.50486427
O       7.91774527      2.64762528      9.40841917
H       6.56055961      7.94587837     11.75227184
H       8.41923561      5.96590557      9.01151929
O       5.41661266      2.75725409      9.49149793
O       2.08589213      2.61863882      9.34521857
H       1.33298785      1.25043678      9.41350218
H      11.24433776      7.91379914      9.42486885
O      10.57298866      7.30690994      9.17414582
H       4.80232326      2.26650001     10.96890391
O       5.62432514      1.09074488     13.86253816
O       3.56007885      5.30694753      9.51586787
H       7.98615894      4.67805976     10.29409093
H       5.86197058      7.36568223     17.68321914
H       5.17066384      0.37245480     14.44917251
H       0.05826027      6.17477753      9.44726740
H       8.16414664      8.34502919     11.69207034
H       6.63558363      0.90053564     14.02455360
O       7.34941205      8.04809730     11.08752594
O       6.23915302      6.95138036     16.91177557
H       4.39013962      5.74107011      9.70893506
H       6.07017897      6.11981030     13.01641176
H       7.04947751      6.49623928     17.13841608
H       8.45961263      9.96061463     15.44235260
H      -0.91087074      8.47787642     12.25483866
H       6.30233016      4.71791615     13.65429211
O      -1.77246144      8.26184069     12.65193760
O       8.11880222     10.22509872     14.50096697
O       6.75115204      5.40833276     13.09604592
Cl      4.66407945      7.51640237     12.35307215
H       3.46451264      1.77706822     11.96866285
O       9.37302415      6.04861006     13.90213563
H       8.43671120      5.74742078     13.69713771
Cl      0.40323405      4.31337994     12.28999110
O       5.67417598      3.50009502     15.12420375
H      -1.75559065      7.34088760     13.06538227
O       4.48496529      2.17750502     11.94054039
H      -1.09683673      5.44696052     13.52685101
H       4.76865234      3.78173255     14.77831645
H       5.76392344      2.57648925     14.73799086
H       8.50561449      9.44003692     14.02564210
H       1.60401010      2.34268605     11.76014701
O       3.30717659      5.10842390     13.78453029
H       3.83294412      5.75477354     13.33227267
H       3.20926643      0.71286949      9.87523424
H       5.09864161      1.62854593     12.60336907
H       5.46376695      7.93048890     15.62789883
H       1.90212400      2.03691679     15.66456155
H       2.45323721      4.99050889     13.32399850
H      10.17473917      2.96827590     13.32859409
H       4.25159869      8.20440325     14.55248675
O       2.15930725      1.54531653     12.01752894
H       1.88136536      1.43309125     13.01513135
O       2.34785501      2.12155413     16.53295945
O       3.64483024     -0.04510770      9.37185046
O       4.75241624      8.60645716     15.27905564
H       2.47850431      3.10176185     16.47534069
H       1.37128198      7.58985192     15.03532847
O       9.85506189      2.43786941     14.13106950
O       1.17170250      1.11628239     14.26923099
O       1.68114357      8.27316767     14.36504186
H       0.24511051      1.46445653     14.30934158
H       9.02148781      3.19299539     15.93721117
O       9.18855939      3.52177696     16.87101394
H       5.10076829      9.51327582      9.42328784
H       9.09171396     11.44645739     14.04843059
H       3.76091898      9.04491840     16.93028050
H       3.11133141      0.79853191     17.30599397
H       1.33214551      9.80192070     14.45405681
H       8.37666540      3.30944513     17.36875768
H       8.84101887      5.20876718     16.83045716
O       3.46239670     -0.08474533     17.71331360
H       1.60497227      7.83020169     13.45909821
H       5.69557603      3.54744316     16.80842498
H       5.17361296      0.68882826     18.42638561
O       8.75558679      6.17221536     17.01098642
O       6.06172639      1.10982058     18.81117637
O       1.03765219      7.35176884     11.97491183
H       8.80744227      6.39248509     16.08580937
O       5.94050984      3.49283804     17.79104191
H       1.51571134      7.58605761     11.12083507
H       5.96818407      2.07066445     18.39608968
H       0.71615729      6.40387267     11.89289775
H       7.57650407     10.32673564     17.51727086
H      -0.22830906      6.47059327     16.72881576
H       4.42985443      8.43859397     19.43016346
O       8.41279216     10.11462530     17.07581361
H       5.29830507      4.08004287     18.28591224
O       0.70806106      6.66952144     16.47382618
O       4.82746932      7.52499721     19.38677397
H       4.94744830      7.31389890     20.38052312
H       9.09834056      9.99196655     17.82998623
O      11.41443764      2.67026708     18.27840743
H       0.98942536      7.38629830     17.14312492
H       1.27548746      3.41979352     19.62390418
H       1.70115612      5.28525620     16.32735599
O       9.00339471      6.04005812     19.65754438
H      12.17507636      2.52031773     17.57676836
H       2.58409444      4.40921335     19.52396444
O       1.79271047      4.10694814     20.09904737
H       8.43710442      6.38497662     20.45286703
H       8.17057120      1.34763273     21.22576864
H       2.97569252      5.00024938     15.47248946
H       8.74420471      6.69479499     19.03260215
H      10.69683912      3.11130242     17.72498620
O       2.52025700      4.70846863     16.30413696
O      10.22566625     10.12834014     18.81536204
O       7.69005205      2.25584250     21.30794900
H       2.13744665      8.87358660     18.28359508
H      10.74129739      6.38619437     20.00593054
H      10.99893891      9.50447066     18.60043983
O       8.96952940      9.67916845     21.16407369
H      10.49709450     11.01535382     18.60573901
H       9.57921100      9.85744906     20.31871637
O       1.17492949      8.45407864     18.35135162
O      11.66632481      6.64966430     20.16576844
H       6.74780545      2.08212554     21.25642864
H       9.52882360      9.62539563     21.96344740
H       7.51318993      8.16435361     21.21210967
H       2.07837154      3.96731951     21.62299372
H       0.90119396      5.74959301     20.09689324
O       7.34229155      7.24171340     21.55915224
H       1.17819159      7.79569701     19.08765744
H       5.57851592      7.65296062     22.18912415
H       7.97240092      7.11112034     22.30958061
O       2.06957841      3.73771337     22.63910652
O      10.35723741      9.26303876     23.41435691
O       4.66664583      7.98218078     22.29055978
O       6.75881835      2.06052861     24.76344137
H       8.07583901      3.15848665     22.66945993
H       1.14992143      3.43991006     22.83780670
H       4.23987845      7.05954219     22.41397853
H      11.05145386      8.54974433     23.25538544
H       5.88456412      2.18035543     24.27421929
H       7.36405894      2.85232277     24.57206657
H       3.16662012      2.48675666     23.32351001
H      10.81930861     10.10002350     23.64623534
H       2.82685029      5.04438163     23.39828139
O      11.89335712      7.12043347     22.81341863
H       1.60872395      6.85814372     23.26443321
O       3.24697584      5.94805120     23.50412072
O       3.89970167      2.12943472     23.91724924
O       8.52695272      3.42676968     23.50351439
O      -0.11176409      2.22204147     23.68311120
O       8.97937370      6.18510174     23.52859853
H       7.52155546      0.36714697     24.49609852
H       4.73950532      8.72308594     23.79444289
H      -0.93869248      2.57926769     23.27891551
H       8.98579432      6.41068103     24.46695121
H      11.97144368      6.92397645     21.82726262
H       8.55906026      4.41718091     23.38061631
H       4.53063773      0.52596302     24.29683454
H       9.10735335      9.21408353     24.25474854
H       3.68417225      2.51855882     24.84605426
H       3.76736143      5.84297580     24.33503721
O       8.14049102      9.34864256     24.72257721
O       4.96037413      9.34280662     24.53259880
H      -0.04966756      2.61315020     24.68243321
H       9.91182881      6.25969547     23.21601369
Pt      2.45426356      9.16461526      0.17638033
Pt      5.10361222      8.95085107     -0.09309001
Pt      8.00823889      9.06190064     26.81758611
Pt     10.78523239      9.05272685      0.06471126
Pt      8.00923445      4.31046258      0.33135131
Pt      3.78558583      6.78651849      0.17512084
Pt      9.58089069      6.72045207      0.18926775
Pt      6.58911386      6.72126427      0.05711196
Pt     10.67278562      4.28346159      0.16395243
Pt      1.04232274      6.71305748     -0.01804480
Pt      9.42823797      1.94434353      0.08020068
Pt      6.68395422      1.78698571      0.15268590
Pt      2.47160126      4.44725945      0.22463354
Pt      5.28882930      4.33699688      0.15757247
Pt      1.00722227      1.85491657      0.01651618
Pt      3.75398290      2.01680693      0.20380995
H       8.22713664      1.68217010      9.46533998
O       3.69906862      5.25591815     18.55446586
H       3.39750937      5.19294122     17.56119619
H       4.16902373      6.07943807     18.88250157
O       6.12249646      0.00167316      9.37712850
H       6.68838365      8.97110347      9.84544233
