   243
 Tv_1:  11.152900   0.000000   0.000000 Tv_2:   0.000000   9.658700   0.000000 Tv_3:   0.000000   0.000000  26.829700
Pt      5.20500294      7.84480796      2.53157462
Pt      6.66251912      0.60962800      2.52863126
Pt     10.70768369      7.78312589      2.48695792
Pt      7.96088126      7.87846023      2.42665103
Pt      8.04554219      2.88602082      2.58899124
Pt      2.43920285      7.72221167      2.38935775
Pt      9.26606521      5.46389739      2.32566786
Pt      6.55559022      5.31290745      2.59959020
Pt      5.10034656      2.91599695      2.47967531
Pt      3.88607913      5.26882631      2.47128618
Pt      9.51648656      0.59165480      2.65144187
Pt      1.02372261      5.42583784      2.51747674
Pt      0.92679122      0.43609798      2.38438143
Pt      2.43477183      2.82974053      2.49753294
Pt      3.80310320      0.47173017      2.50181685
Pt     10.81879296      2.96966333      2.41771726
Pt      5.49202953      6.36302656      4.84186923
Pt      8.34557625      6.42543441      4.70071303
Pt      7.07645788      8.84083325      4.85838305
Pt      6.96913011      3.96492488      4.85897094
Pt      8.44522304      1.54348056      4.87134613
Pt      5.68403616      1.61430397      4.85473488
Pt      9.77317574      3.99052262      4.66393036
Pt      9.88045077      8.80693667      4.93894640
Pt      1.59840137      8.74616244      4.94448721
Pt      0.01125019      6.40364366      4.89794500
Pt      2.89989833      1.55379434      4.92395014
Pt      2.78530917      6.29047988      4.84075744
Pt      4.29336430      8.73557842      4.94007066
Pt      4.18256635      3.87566376      4.90127123
Pt      0.12896028      1.52360927      4.83956890
Pt      1.39972496      3.91474534      4.82891616
Pt      7.64193280      2.76968396      7.19719785
Pt     10.47074336      7.45454983      7.29906188
Pt      9.14511710      5.11898568      7.00215126
Pt      9.05950444      0.37654902      7.19025514
Pt      6.23064701      0.31562089      7.21726040
Pt      3.53618379      5.29746546      7.33049501
Pt      3.50711576      0.37222724      7.21639020
Pt      7.79027613      7.62059530      7.06488885
Pt      4.84612900      2.78093152      7.31471685
Pt      2.14274890      2.80644753      7.14758068
Pt      0.65959783      5.19623362      7.20947077
Pt     10.37252024      2.78035448      7.17021661
Pt      6.37758872      5.15867589      7.21182215
Pt      0.78974336      0.35458832      7.21714167
Pt      2.12286335      7.64632123      7.25318609
Pt      5.07025719      7.52155665      7.23802648
O       6.20597275      5.31326059      9.25241234
O       2.13646471      7.54323482      9.40563755
O       0.19820683      4.86889471      9.30437505
H       5.58949231      3.91748691      9.48791529
H       7.58364844      6.55456092     10.14307957
O       0.60285669      0.74986144      9.29946782
H       2.72970112      8.28262352      9.75157813
O       9.26658612      0.40808769      9.23478677
H      10.80043659      0.77097567      9.43128710
H       0.98473464      4.97262399      9.97367485
H       6.96587803      2.27518792      9.53687415
H       2.55565741      3.57456430      9.60192385
H       9.15075673      9.21013326      9.71697148
C       7.40528460      5.45225338     10.01111420
H       2.65863783      6.65747506      9.55914495
O       7.92890124      2.58239364      9.32750321
H       6.44936564      7.91027792     11.09896189
H       8.29714118      4.95649917      9.50004377
O       5.22781741      2.96003862      9.47180846
O       2.23335989      2.71947050      9.20130671
H       1.06816084      1.56522190      9.50958046
H      11.22462016      7.64231912      9.65251244
O      10.37679175      7.30294486      9.32324730
H       4.65549661      2.69012591     10.43968741
O       5.84638280      0.47590443     12.46499611
O       3.37588768      5.30079667      9.46030470
H       7.19623380      4.91358197     10.94238540
H       7.58150066      9.55250552     16.41478342
H       6.75863372      0.37847490     12.87748487
H      -0.35705455      5.62621938      9.54099254
H       7.70937973      8.77485231     11.40831850
H       5.44267567     -0.44580018     12.54825564
O       7.35230370      8.16743025     10.70764979
O       7.44387940      8.97274259     15.63758644
H       4.23467937      5.41597446      9.87608785
H       7.99897132      2.17438095     12.85688570
H       7.89946045      8.20315907     15.97855218
H       8.15264745      9.40885900     14.17914478
H       0.09175929      8.36523914     11.90618194
H       7.03648710      3.00760860     13.68615700
O      -0.92575024      8.39573302     11.86461482
O       8.36038118      9.79893198     13.25644258
O       7.95366408      3.02414177     13.32422624
Cl      4.72301647      7.34643937     12.03498091
H       3.44277110      2.40040327     11.90328344
O       9.70708411      5.83710662     12.61597796
H       9.10810735      5.11115165     12.82253403
Cl      1.49713263      5.07181386     12.12216191
O       5.43256857      2.84329350     15.23750077
H      -1.22254894      7.42962699     12.12884313
O       4.42188384      2.50970254     11.69665961
H      -0.64169643      5.34123896     12.26030780
H       4.77135106      3.28748626     14.68732095
H       5.20408680      1.89720372     15.25692635
H       9.25679888      9.47345881     12.87622298
H       1.34599693      2.88871995     11.81182898
O       3.93200539      4.82580369     13.95118163
H       4.55147323      5.44313162     13.45587985
H       3.20868424      1.04736765      9.67176918
H       5.04306264      1.79007426     12.04207415
H       5.44903381      9.21829880     15.70096211
H       1.50391849      2.51268983     16.21560741
H       3.07221041      4.84716616     13.48099026
H       8.95636359      2.34281001     14.78433947
H       3.85711335      9.57591052     15.44730896
O       1.84305530      2.08572759     12.18185725
H       1.71040101      2.16377015     13.13332821
O       1.92703933      2.97635729     17.10894736
O       3.68013006      0.21647961      9.28869927
O       4.73948473      9.89564811     15.78070551
H       1.98660415      3.92057489     16.77633166
H       1.53608605      8.69347945     15.42990453
O       9.45327897      2.35806222     15.65703617
O       0.92376132      2.04067333     15.01738713
O       2.26721226      9.22840049     14.99532950
H      -0.05677388      1.93721071     15.17060893
H       8.97440249      3.71590537     16.50734140
O       9.01738719      4.54788982     17.12743818
H       4.95022037      9.81271529      9.39372342
H       8.97944951     11.27746401     16.25331077
H       4.20794032     10.12363804     17.28191810
H       2.98191460      1.32771965     17.93483030
H       1.43226525     10.88555018     15.22401499
H       8.12279877      4.66045971     17.54167524
H       9.29552058      5.94037451     16.23370209
O       3.72479166      0.63095035     18.17645729
H       2.32467965      8.95143172     14.03245307
H       5.87349716      3.61696657     16.65662729
H       4.92650345      1.49360953     19.16470216
O       9.36535391      6.76286772     15.63363527
O       5.61995656      2.15144921     19.29415572
O       2.00863549      9.06919572     12.11907815
H       9.44519837      6.38644079     14.70247126
O       6.17018746      4.14268132     17.46739311
H       2.14854305     10.00821873     11.90743372
H       5.41859228      2.89534444     18.78768987
H       2.90472002      8.58818207     11.81445854
H       6.96355688     10.90651215     18.24645266
H      -0.39405958      7.58787146     16.14277817
H       3.54001091      9.09791901     19.27561924
O       7.78556772     10.63431891     17.68537452
H       5.43468852      4.73344533     17.62508537
O       0.45300978      7.95561278     16.37999838
O       3.30576429      8.34557974     19.88703175
H       3.58077524      8.47615732     20.83993939
H       8.55327173     10.44211503     18.30817447
O      10.87865830      3.51974635     18.74280954
H       0.32548195      8.28477311     17.33918299
H       1.08465360      4.26793396     19.48306156
H       1.73619381      6.56574258     16.03176872
O       8.27053566      5.22352332     20.07872288
H      10.11477552      3.81213574     18.15059614
H       2.54382219      4.94403886     19.52273269
O       1.73460932      4.68620878     20.05388007
H       7.66623531      5.99584379     20.28545114
H       7.64877372      2.21502810     21.54487150
H       2.71964358      5.84784572     15.15918213
H       7.77738561      4.47393722     20.58469379
H      11.53150885      3.20886186     18.06211298
O       2.48884485      5.93063586     16.14024813
O      10.07830331     10.65457675     19.14207999
O       7.09742704      2.96483058     21.55230819
H       1.42026066      8.50975577     19.49196421
H       9.87345155      6.02982460     20.56593501
H      10.77733473      9.96984077     18.97177788
O       8.72521376     10.25972688     21.27613406
H      10.43814380     11.52380395     18.88695003
H       9.41596133     10.34690089     20.52728974
O       0.47249489      8.61107019     19.21178555
O      10.73378245      6.48375445     20.69052537
H       6.46480186      2.63516206     20.87912375
H       9.19048360     10.18803710     22.12177424
H       7.63636292      8.43027254     21.20320356
H       1.79220291      4.04816417     21.63918792
H       0.34173610      5.88117435     20.39680693
O       7.12379210      7.60483952     21.32711411
H      -0.00547405      7.89539250     19.69356308
H       5.30777913      7.70535800     22.12421414
H       7.57470934      7.24997940     22.10223134
O       2.06799055      3.92940708     22.58931300
O      10.40723365      9.71185490     23.80839472
O       4.47761952      8.05617642     22.61199627
O       6.75814988      2.03670405     24.37565717
H       8.36494242      3.79000224     22.93526109
H       1.32521083      3.41424723     23.03851418
H       4.00803283      7.23645945     22.87193245
H      10.90816688      8.80966454     23.42781033
H       5.90022490      2.40826886     23.99001467
H       7.38652771      2.80614623     24.31428552
H       3.63115054      2.63203389     23.26564720
H      10.81143064     10.52925798     23.47087612
H       2.45203425      5.32846007     23.33688514
O      11.22938406      7.15596139     23.28008555
H       1.03175178      6.90687054     23.49972825
O       2.70591761      6.23432258     23.73079468
O       4.23475695      2.36730193     23.99273342
O       8.85390933      3.85330738     23.77097099
O       0.14696511      2.80034565     23.89344127
O       8.61482817      6.67820104     23.86086239
H       7.66842425      0.75115859     24.37234377
H       4.84330880      8.80615021     24.02689957
H      -0.66694701      3.34353488     23.79862515
H       8.15328977      7.38309743     24.38286365
H      11.10188556      7.07295652     22.28605550
H       8.65135381      4.79263769     24.04407393
H       4.46283144      0.53211742     24.56171368
H       9.08353098      9.65678721     24.35674257
H       3.87163466      2.93150496     24.72114549
H       2.94727059      5.99904114     24.66368213
O       8.13241475      9.56985084     24.63980280
O       5.10123019      9.50398920     24.76336298
H       0.35584675      2.94329324     24.86544280
H       9.57404424      7.00344072     23.73198936
Pt      2.30180878      9.10978642      0.05758010
Pt      4.95524459      9.01502123     -0.01141105
Pt      7.85950264      9.00926551     26.71254875
Pt     10.79921216      9.07102590      0.04763345
Pt      8.10407797      4.28583030      0.16893760
Pt      3.82108542      6.65099510      0.23357853
Pt      9.37387462      6.59907436     -0.12476577
Pt      6.49850914      6.72450693      0.21128638
Pt     10.85557923      4.37299985      0.16022773
Pt      1.02615161      6.68365658      0.01899595
Pt      9.25507309      1.80370179      0.18388145
Pt      6.53115198      1.85075472      0.22638527
Pt      2.44613515      4.25589399      0.15539326
Pt      5.19951054      4.21740843      0.05376671
Pt      0.97775377      1.86330309      0.05051529
Pt      3.79008865      1.81574198      0.10821404
H       8.41987348      1.73446613      9.47030906
O       3.73927202      5.77627115     18.68468368
H       3.41410720      5.98808430     17.77910941
H       3.72936746      6.63685082     19.14407958
O       6.05172033      0.15778309      9.25662421
H       6.58961760      9.11310341      9.78162405
