   243
 Tv_1:  11.152900   0.000000   0.000000 Tv_2:   0.000000   9.658700   0.000000 Tv_3:   0.000000   0.000000  26.829700
Pt      5.33199611      7.79687343      2.34276472
Pt      6.71365190      0.51322473      2.53865095
Pt     10.78305890      7.72696762      2.68570332
Pt      8.02296839      7.81606185      2.43377389
Pt      7.97350247      2.85563771      2.56825919
Pt      2.56742062      7.76841756      2.69927513
Pt      9.41820338      5.23782898      2.55486693
Pt      6.69001694      5.41679662      2.54310799
Pt      5.12850247      2.89596685      2.68450952
Pt      3.88119639      5.39795206      2.65840862
Pt      9.40122777      0.48116675      2.64329938
Pt      0.94553965      5.26730284      2.62290562
Pt      1.06954839      0.41049199      2.52360048
Pt      2.38800208      2.88465602      2.71313355
Pt      3.85897447      0.55906990      2.66721779
Pt     10.77511057      2.87491535      2.47683640
Pt      5.81356625      6.36246375      4.90754285
Pt      8.65583642      6.48937672      4.85134907
Pt      7.06431765      8.82498330      4.83853390
Pt      7.22299810      4.06669207      4.91541900
Pt      8.46680702      1.52790369      4.95210482
Pt      5.68359993      1.58786636      4.96956720
Pt      9.97167111      3.87350043      4.83807146
Pt      9.91239852      8.75763192      5.02824629
Pt      1.52339122      8.81726484      5.04164241
Pt      0.25892447      6.45507132      5.00577375
Pt      2.93818383      1.55161005      5.08644487
Pt      2.97625958      6.34881412      5.05376706
Pt      4.21049927      8.77727311      4.89946802
Pt      4.38948868      4.05644032      4.98714906
Pt      0.15286734      1.43134900      4.90178161
Pt      1.57077360      3.96913687      5.00875014
Pt      7.83883919      2.74296638      7.30367556
Pt     10.52401390      7.51382111      7.39530938
Pt      9.08750242      5.06335955      7.34723370
Pt      9.14079442      0.32466380      7.33545670
Pt      6.40056346      0.26967489      7.44080524
Pt      3.60234066      5.26738236      7.30063776
Pt      3.57392110      0.44570140      7.36135557
Pt      7.74533125      7.57356510      7.10690266
Pt      5.04772307      2.78265604      7.37057720
Pt      2.26757421      2.73954286      7.34724149
Pt      0.78476540      4.94553707      7.45624718
Pt     10.59708006      2.63873247      7.29441622
Pt      6.39924750      5.32941605      7.35051382
Pt      0.78523597      0.34305194      7.43510112
Pt      2.05666185      7.61179412      7.34287972
Pt      4.81681468      7.65641188      7.24783172
O       6.09551788      5.31823053      9.48321696
O       2.14274599      7.44184880      9.35533698
O       0.61399806      5.13750118      9.51030552
H       5.26681333      3.95506716      9.71325521
H       7.49251788      6.63949618     10.46979584
O       0.82107147      0.53236952      9.62696206
H       2.62765671      8.21076744      9.66999967
O       9.38135038      0.48782965      9.31311177
H      11.03256412      0.82949518      9.76541608
H      -0.09079938      4.48626152      9.78952230
H       7.18231870      1.79997247      9.67655889
H       1.85026182      3.69764898      9.82580910
H       9.01081236      9.38070521      9.79598774
C       7.27588886      5.57548595     10.36375319
H       2.94020142      6.40278811      9.47041897
O       7.64212166      2.66902906      9.50227830
H       6.38761861      8.05173570     11.73219878
H       8.19733737      5.09175697      9.96851645
O       4.82594520      3.04855724      9.48338676
O       2.15992742      2.77524666      9.44813564
H       1.35562456      1.44236396      9.73965758
H      10.92041947      7.92851831      9.98625387
O      10.51904645      7.18971944      9.48878635
H       3.80584778      3.08070234      9.50600390
O       5.41449709      1.76963326     14.04076897
O       3.58322639      5.45639313      9.51040209
H       7.01222088      5.15437662     11.41596558
H       7.71602218      9.69370501     15.51419138
H       5.16504870      1.05359798     14.68856191
H       0.00647245      6.35740415      9.63957587
H       7.44307856      9.25545792     11.84731901
H       6.02324351      1.46684126     13.35596161
O       7.26525094      8.42840565     11.31374699
O       7.70864133      9.22344089     14.63898125
H       4.51482601      5.84978552      9.80453380
H       7.92207358      3.02790345     13.30308528
H       8.25016717      8.39475134     14.86872665
H       8.24464627     10.33059046     13.34139692
H       0.33029880      9.01067931     12.06769004
H       7.32463233      4.44351852     13.99152924
O      -0.61128766      8.85249858     11.68645089
O       8.30668754     10.83282816     12.52917627
O       8.13727229      3.86700556     13.79793473
Cl      4.33371860      7.83299219     11.93626765
H       2.53347029      2.84527174     12.27356892
O       9.96983778      6.08645641     12.94871242
H       9.40507876      5.28688391     12.91235694
Cl     -0.73455959      3.06786451     10.90617617
O       5.82320445      4.46373168     14.85043021
H      -1.00239540      8.11759704     12.16111804
O       3.02548809      1.94580279     12.24945327
H      -0.26656419      5.75781975     13.00645491
H       4.99105532      4.81371360     14.42157780
H       5.74401608      3.50431845     14.86440147
H       9.18636493     10.59714933     12.17451256
H       0.57241885      4.03377209     12.43374185
O       3.74139645      5.61511177     13.60277410
H       3.95197169      6.31330141     12.91453974
H       3.41311270      1.07597276      9.88295954
H       3.88016034      2.10630013     12.71118850
H       4.85409046      8.64851663     15.57316018
H       1.65649917      3.30296408     16.57249057
H       2.91351325      5.17481617     13.34212073
H       8.76973738      3.39003468     15.22112790
H       3.40808271      9.45480369     15.38766258
O       1.16180783      4.40252949     13.13255093
H       0.96728930      3.81508741     13.91766596
O       2.45342064      3.52317212     17.15959104
O       3.74229300      0.33203316      9.40678191
O       4.46655309      9.53997820     15.69159826
H       2.83017106      4.31205047     16.70255487
H       1.47815997      8.83340789     15.56268584
O       9.24025008      3.16197762     16.12465437
O       0.75456558      2.59247411     15.29156584
O       1.94242995      9.63800184     15.14156448
H      -0.22293245      2.67145677     15.40228806
H       9.11067390      4.47405488     16.89892857
O       8.95679995      5.28369881     17.58773949
H       5.06033601     10.07432065      9.66464841
H       8.86816396     11.94233137     16.54214718
H       3.94960868     10.11027475     17.26815642
H       3.41944628      1.86289293     17.71761470
H       0.98401485     11.30634111     15.31252701
H       7.98127784      5.22180813     17.73146492
H       9.06567126      6.55923890     16.07099628
O       3.87084114      1.09872334     18.11625848
H       1.59597654      9.58330071     14.07611881
H       5.82214620      4.78766251     16.72303478
H       5.36755295      2.07993785     18.75891837
O       9.37196306      7.24269491     15.35518253
O       6.29319323      2.53483567     18.86148803
O       1.82504748      9.48294492     12.49183852
H       9.56990192      6.71346733     14.53776167
O       5.97525309      5.03203803     17.68624249
H       2.14585329     10.42275079     12.32860678
H       6.08787292      3.47858071     18.55436136
H       2.64730877      8.91988535     12.53399134
H       7.47401327     11.13115586     17.91477460
H      -0.28969665      7.41305718     16.26782988
H       3.65211198      9.79544304     20.91668593
O       8.06539241     10.60406146     17.36426254
H       5.39219881      5.82789334     17.93493019
O       0.65311246      7.44813341     16.63721575
O       3.68202711      8.98405547     20.41013805
H       3.67630617      8.32049672     21.18142195
H       8.90492415     10.38086859     17.83195428
O      10.15175248      3.18447041     20.02889913
H       0.79184768      7.78060111     17.54832228
H       2.16553910      4.30926596     18.75982126
H       2.14253639      6.60728863     16.00993489
O       9.51684563      6.73461946     19.89723768
H       9.20962887      3.30261244     20.25350945
H       3.12616979      5.20944436     19.58368851
O       2.36150763      4.60985709     19.68807279
H       8.59049377      6.77010746     20.29042214
H       7.96844013      1.24468263     21.17308005
H       3.20091184      6.13118008     15.07530894
H       9.32014361      6.42158982     18.97457521
H      10.29366541      3.76627939     19.29035125
O       3.05894889      6.34793541     16.05698407
O      10.10093511     10.20140683     19.19267172
O       7.68383935      2.23046745     21.26849689
H       2.33006800      8.68339365     19.45675291
H      10.83015281      6.23711932     20.82778531
H      10.96435691      9.80411016     18.95445253
O       8.79139911      9.57642236     21.34797569
H      10.22816577     11.21506530     19.38715220
H       9.37399896      9.62528720     20.55987395
O       1.38507978      8.38267988     19.10062263
O      11.73179507      6.31962915     21.19500065
H       7.06833943      2.41575299     20.54928375
H       9.29066452      9.36948831     22.21795766
H       7.03878409      7.96460689     21.40492014
H       2.42104283      3.67911763     21.04273474
H       1.11590392      5.76592842     20.56502561
O       6.54022506      7.24357121     21.81414262
H       0.96816991      7.90599835     19.80535539
H       5.00426318      7.42701307     22.38659488
H       7.09712610      6.90100881     22.57473113
O       2.17311352      3.34066770     21.98799414
O      10.38598075      9.29674251     23.90566908
O       4.13585096      7.68502657     22.83455884
O       6.43605075      2.01140807     24.80150212
H       8.07658999      2.94482065     22.72537382
H       1.24348628      3.02644716     21.88002892
H       3.64981873      6.80336586     22.98911306
H      11.12402234      8.62365825     23.98724042
H       5.65412412      2.31679968     24.26310671
H       7.17566840      2.61881929     24.57581313
H       3.51222767      2.72985507     22.90328358
H      10.79681931     10.22307293     23.94735032
H       2.23998647      4.77818071     23.04346560
O      10.88409530      6.45387897     23.93667693
H       0.10543960      5.84717153     24.58035990
O       2.65497930      5.60663666     23.36763745
O       4.04632372      2.39825833     23.73171336
O       8.43944028      3.23796462     23.64416459
O      -0.01361582      2.29724516     23.71662372
O       8.07870224      6.04502895     23.79366131
H       7.27005406      0.43825890     24.58985182
H       4.28777879      8.68033229     24.07268637
H      -0.84124290      2.86973349     23.88688472
H       7.78580708      6.04736105     24.72479444
H      11.50190201      6.49374211     23.14714428
H       8.48190522      4.21156149     23.65792329
H       4.31210895      0.65823675     24.38590554
H       8.75290428      9.48726094     24.50530971
H       3.54149310      2.80211427     24.45388041
H       2.71983628      5.58038181     24.33884622
O       7.78956091      9.23577200     24.74012140
O       4.67876411      9.45402233     24.62486015
H       0.48839679      2.38422116     24.55760617
H       9.06697603      6.38862236     23.81934605
Pt      2.31749415      9.13569996      0.29812278
Pt      5.01572955      8.88111912     -0.07938129
Pt      7.81131978      8.95034948     26.94520315
Pt     10.66153508      9.00952453      0.35844335
Pt      7.87539568      4.11396251      0.13793451
Pt      3.69456476      6.48181027      0.21828651
Pt      9.23838866      6.51494656      0.13760219
Pt      6.46971730      6.42866522      0.06512358
Pt     10.70589992      4.17234561      0.08767187
Pt      0.92847493      6.67395113      0.25218028
Pt      9.21274235      1.72784924      0.26726233
Pt      6.40999393      1.90843151      0.32933235
Pt      2.19895435      4.20484533      0.20471341
Pt      4.96425083      4.15288692      0.18633340
Pt      0.96982600      1.87121775      0.18441557
Pt      3.66822630      1.85108541      0.36966757
H       8.52236929      2.55468949      9.94540487
O       4.50773970      7.06595413     18.27691297
H       3.84656902      7.21827510     17.57087883
H       4.56621522      7.94810487     18.75278139
O       6.26893355      0.32083477      9.49273801
H       6.67736666      9.22081868     10.08683078
