   243
 Tv_1:  11.152900   0.000000   0.000000 Tv_2:   0.000000   9.658700   0.000000 Tv_3:   0.000000   0.000000  26.829700
Pt      5.28143040      7.90212387      2.50251596
Pt      6.78383725      0.49449645      2.46209720
Pt     10.86476670      7.70090337      2.62792819
Pt      8.12185068      7.78822832      2.45943803
Pt      8.12757536      2.95096302      2.53271751
Pt      2.47479713      7.79206885      2.58271088
Pt      9.44054248      5.33962206      2.48796389
Pt      6.61170356      5.44079740      2.59584139
Pt      5.30952507      3.13448283      2.63212214
Pt      3.87888216      5.49210814      2.74926278
Pt      9.54552138      0.45225431      2.52445169
Pt      1.01875309      5.31848221      2.55472252
Pt      1.18810978      0.51542676      2.63634382
Pt      2.53169128      3.02314642      2.52779842
Pt      3.99309944      0.59856333      2.62042511
Pt     10.90861839      2.81573861      2.69873548
Pt      5.63269523      6.42200679      4.95506638
Pt      8.44447871      6.34494802      4.71659714
Pt      7.03249874      8.84598371      4.79112177
Pt      7.09633096      3.94192785      4.85933994
Pt      8.49652853      1.44568868      4.93936323
Pt      5.65701821      1.60046950      4.91788323
Pt      9.75934135      3.88802073      4.83938445
Pt      9.90768788      8.69447538      5.03985056
Pt      1.46012022      8.73468361      4.98499579
Pt      0.18703470      6.33611627      4.97002096
Pt      2.93348665      1.66440222      4.94577222
Pt      2.90847981      6.41610219      4.99202590
Pt      4.22257532      8.89004153      4.76396847
Pt      4.49133728      4.08094725      5.07407880
Pt      0.21350918      1.54697085      4.91882016
Pt      1.47491860      3.99459008      4.90147095
Pt      7.67657992      2.52389797      7.12553122
Pt     10.32632967      7.39953871      7.37509876
Pt      8.80597833      5.04580059      7.10100135
Pt      9.01793665      0.13882736      7.29078843
Pt      6.14357055      0.05078692      7.17093532
Pt      3.38011943      5.08322873      7.34628470
Pt      3.38580844      0.23271181      7.21801731
Pt      7.52200364      7.50810254      7.09612057
Pt      4.79848800      2.62892763      7.25533450
Pt      1.99379916      2.74197322      7.44264836
Pt      0.61784929      5.00935846      7.31355224
Pt     10.49371893      2.57084664      7.30042153
Pt      6.20731269      5.06163223      7.22757485
Pt      0.70789221      0.19131318      7.28443796
Pt      1.95781747      7.43968137      7.34496330
Pt      4.72119475      7.41465978      7.16136767
O       6.44416536      5.09776794      9.31579808
O       2.10445745      7.57522336      9.51732939
O       0.26954246      4.95613973      9.30693562
H       4.28125453      3.82547086      9.43408111
H       8.02645424      6.49697051      9.39264672
O       0.39399978      0.29199200      9.34357345
H       2.34036941      8.60390205      9.47475727
O       9.09149796      0.23029017      9.35286513
H      10.43617130      0.33506142      9.53595788
H       0.96953032      5.03944165     10.00185019
H       6.57518307      2.49614173      9.43381444
H       1.59033393      3.30855520      9.95574285
H       8.77362321      9.06826835      9.87938619
C       7.75797083      5.41968551      9.56710433
H       3.00173547      7.19565557      9.92586302
O       7.62470758      2.55219571      9.29048332
H       6.95678862      7.78507159     10.77973738
H       8.66429882      4.76805210      9.00576798
O       5.08775069      2.69965439      9.37435846
O       1.86911608      2.45622479      9.55027580
H       0.76991008      1.22034446      9.52947772
H      10.73745499      7.74765938      9.99448218
O      10.18822716      7.11057687      9.44802176
H       4.81471286      1.91855794      9.91884460
O       5.66015934      0.43437718     14.28395327
O       3.66786834      4.66850382      9.45569426
H       7.96311427      5.13018259     10.64379634
H       9.05893097      8.72151938     16.31951319
H       4.68855563      0.32016844     14.63171939
H      -0.27587882      6.00128396      9.43120685
H       7.89330321      8.55898892     11.76921402
H       6.10530682     -0.09916518     14.94397836
O       7.81496280      8.33876098     10.79386164
O       8.65517039      8.00051019     15.71341863
H       4.20437377      5.39551548      9.96091135
H       8.84703989      1.44397567     12.91364274
H       9.10255874      7.19293917     15.95581793
H       8.62308873      8.84541592     14.04835804
H       0.75449619      8.29860616     11.94824790
H       7.97463363      2.65693617     13.46049642
O      -0.17868510      7.93485835     12.03631965
O       8.85070574      9.17343491     13.10602503
O       8.92141586      2.40981837     13.15602440
Cl      4.84678225      7.20349847     10.94118335
H       3.90608489      2.02613124     12.00688312
O       9.97242884      5.08568316     13.28481555
H       9.41586064      4.37235041     12.89962535
Cl      1.58752314      5.35946812     11.87063384
O       6.62482848      2.92229140     14.43009382
H      -0.10976082      6.98180467     12.06138189
O       4.51090196      1.25858384     11.78967989
H      -0.31142429      5.03722702     12.89045952
H       6.09569999      3.67094984     14.06054104
H       6.08249714      2.09181630     14.42153693
H       9.70952057      8.71668108     12.86247307
H       2.77333034      3.91148998     12.99001529
O       5.14674762      5.25168458     13.60642860
H       5.28798537      5.80659033     12.84631631
H       2.95879552      1.05720484      9.43616225
H       5.20411305      1.20568573     12.45455768
H       7.18596593      8.19709581     16.56256789
H       2.87879568      2.66828323     17.01158275
H       4.42799830      4.60568510     13.37122420
H       9.83578715      2.11918181     14.67656547
H       5.69297687      7.99750824     16.25048963
O       3.35513578      3.17700166     13.42351765
H       2.77690976      2.95886640     14.19772183
O       3.38221564      2.63128970     17.85782312
O       3.19665011      0.14842846      9.22318719
O       6.33877349      8.76042747     16.45156815
H       4.06768817      3.29433457     17.72974508
H       2.51692857      8.82105037     15.49316069
O      10.31276522      2.25349521     15.63165371
O       2.00064222      2.44723280     15.62426445
O       2.88829501      9.64657397     14.94282046
H       1.04899656      2.53549567     15.53030043
H      10.07338468      3.34004627     16.56032782
O       9.90313803      4.13664755     17.27289576
H       5.05586219      9.16302811      9.49552116
H      10.10780925     11.07915209     16.17589663
H       5.52521106      9.55313467     17.51741019
H       4.66330755      1.10406584     18.25030566
H       2.17458220     11.15129966     15.50265257
H       8.88617006      4.30823893     17.26523532
H      10.42312975      5.35662684     16.31830252
O       5.15233070      0.32371966     18.39595963
H       2.70266062      9.24192456     13.99683280
H       6.84787854      3.73840829     16.24776770
H       6.67605779      1.03643279     18.69659093
O      10.63913934      6.17529420     15.68919594
O       7.45009974      1.71868242     18.68616006
O       2.65672066      8.88571498     12.33244880
H      10.43567286      6.00150379     14.75448524
O       7.03934017      4.19222786     17.11821985
H       3.38460375      9.50444176     12.16010395
H       7.16740301      2.60721053     18.31729515
H       3.08975089      8.02981466     12.13455816
H       8.42773014     10.44161872     17.50421884
H       0.91505181      7.00407065     16.06051276
H       4.72195742      8.95799345     19.60976058
O       9.29220352     10.06874224     17.25748743
H       6.26250249      4.63180373     17.53051178
O       1.84399593      7.40544096     16.09431118
O       4.51097315      8.09684205     20.17522749
H       4.53351733      8.43295878     21.12686709
H       9.94525135     10.17127245     18.02599763
O      10.92814046      3.00859020     19.41177129
H       1.86078966      7.61178017     17.02764110
H       1.28880015      3.43657398     19.91949991
H       3.59096911      6.86357809     15.85141164
O       9.38729173      5.55841562     19.45994434
H      10.59234817      3.50270170     18.68065284
H       2.82189101      3.76257341     19.52680733
O       2.11133436      3.90190160     20.17000042
H       8.89284149      6.07178719     20.06646850
H       8.98417288      1.39835538     21.17696006
H       4.74469283      6.17128090     15.01366933
H       9.38263363      6.07629800     18.65240981
H      10.16623772      2.73392082     20.07239546
O       4.58744935      6.83522984     15.78611139
O      11.24232945      9.68105328     19.15715296
O       8.80975700      2.35661972     20.86966314
H       2.79408379      8.18144326     19.48210767
H      11.10489053      5.90447961     19.89115406
H      11.99757860      9.03113161     19.11713015
O       9.32861017      9.13800742     21.05241120
H      11.55792321     10.58521546     19.47141976
H      10.01270274      9.21463121     20.34324624
O       1.97976001      7.92958819     18.98355433
O      11.97616168      6.13294447     20.39705785
H       8.43935115      2.21304911     19.92146142
H       9.90413675      9.16669406     21.88817424
H       8.28454452      7.81455004     21.53672071
H       2.16037288      3.41876902     21.83248679
H       1.38558818      5.31135275     20.34582155
O       7.91104812      6.94289671     21.86025474
H       1.56081635      7.24016944     19.54181707
H       6.51062568      7.25087440     22.68105503
H       8.43440468      6.52058348     22.60377786
O       2.25311612      3.23801545     22.82063206
O      10.67845271      9.29102920     23.64559289
O       5.61803655      7.42074817     23.12754295
O       6.92904718      2.10743989     24.62652353
H       8.84725255      3.27362159     22.40263204
H       1.45218281      2.81008416     23.15940729
H       5.04123159      6.55495806     23.11266612
H      11.40485766      8.56149101     23.61212591
H       6.24626216      1.80343059     23.98100283
H       7.50285160      2.78423409     24.19310181
H       3.33878360      2.14013708     23.37261527
H      11.14863091     10.08977916     23.94778231
H       2.72856355      4.74498725     23.62891937
O      11.81852197      6.98305624     23.08042420
H       1.44253716      6.48040904     23.59252466
O       2.90618409      5.68540875     23.98639130
O       4.05581330      1.70409706     23.86827784
O       8.99027947      3.33659673     23.41716551
O       0.21898224      2.34065074     24.24394698
O       9.45824795      5.85791185     23.77959190
H       7.72914418      0.68909299     24.66394054
H       5.47667892      8.29981984     24.20258740
H      -0.66549379      2.75469761     24.03481370
H       9.17939132      6.01227474     24.72775599
H      11.80920540      6.51885313     22.16815439
H       9.10850399      4.29038685     23.62492936
H       4.53821376     -0.02739163     24.38224402
H       9.13542783      9.37034916     24.31214999
H       3.93919865      2.00883672     24.78947312
H       2.88938406      5.64917598     24.99388246
O       8.14868889      9.40533763     24.58262458
O       5.20074967      9.08935016     24.85792812
H       0.41950226      2.44911814     25.16210862
H      10.37570856      6.24932776     23.75494638
Pt      2.36062520      9.38229483      0.33389762
Pt      5.14883449      9.08179360      0.07547331
Pt      7.98934112      8.96809834     26.83387500
Pt     10.81602957      9.09845004      0.15018579
Pt      8.06845072      4.36623391      0.15461522
Pt      3.76151625      6.74471138      0.34817279
Pt      9.61106731      6.76000811      0.10643987
Pt      6.54004907      6.69222953      0.23303254
Pt     10.80164795      4.36636534      0.13258420
Pt      1.08634755      6.92705464      0.11219161
Pt      9.52401409      1.84676620      0.25370818
Pt      6.55824549      1.88957576      0.24842143
Pt      2.43484972      4.48550020      0.24257707
Pt      5.35240935      4.38492973      0.18095742
Pt      0.91510500      1.98843510      0.34421324
Pt      3.78890718      2.09263971      0.25236845
H       8.17240675      1.72220392      9.46856599
O       5.11551737      5.63523576     18.24755620
H       4.87547774      6.18445673     17.46961827
H       4.86574862      6.21967414     18.97268588
O       5.90515352     -0.02362882      9.36402624
H       6.56131139      9.03513452      9.88000568
