   243
 Tv_1:  11.152900   0.000000   0.000000 Tv_2:   0.000000   9.658700   0.000000 Tv_3:   0.000000   0.000000  26.829700
Pt      5.39563454      7.82165664      2.36737376
Pt      6.57907410      0.62879020      2.44770969
Pt     10.91814436      7.85976657      2.64459920
Pt      8.23122869      7.82026982      2.50018802
Pt      8.10645179      2.99839810      2.67127005
Pt      2.62723793      7.69544032      2.52421032
Pt      9.59025197      5.35374536      2.52621352
Pt      6.70712483      5.39019603      2.69803430
Pt      5.29641268      3.01152953      2.62619685
Pt      4.01874622      5.38208713      2.72712553
Pt      9.41429687      0.51550564      2.51390991
Pt      1.24753614      5.44536848      2.74564881
Pt      1.19279254      0.59852618      2.58280482
Pt      2.44447281      3.08015217      2.70907724
Pt      3.77178951      0.53308863      2.64511892
Pt     10.76362251      2.96849143      2.64940011
Pt      5.70833605      6.37178471      4.86276046
Pt      8.43937462      6.43456422      4.74346175
Pt      6.86637855      8.81668911      4.75490923
Pt      7.06490673      3.96428455      5.04400287
Pt      8.34720457      1.53305445      4.92372526
Pt      5.67705873      1.49064303      4.95811140
Pt      9.76221589      4.00025378      4.87272395
Pt      9.80655233      8.91711177      4.88809301
Pt      1.51033315      8.83645200      4.94757339
Pt      0.03192965      6.48605066      4.94144873
Pt      2.88070418      1.51510526      4.95828105
Pt      2.80626892      6.24050527      5.02190410
Pt      4.23133609      8.65500347      4.81096592
Pt      4.34071974      3.96206235      5.04661765
Pt      0.01757492      1.58494764      4.85829081
Pt      1.39428144      3.95231612      4.88912209
Pt      7.82258918      2.65222223      7.31613226
Pt     10.37333366      7.49941546      7.20797234
Pt      8.93272371      5.12852311      7.11622651
Pt      9.12265269      0.30351447      7.23061566
Pt      6.28932970      0.18307249      7.31785582
Pt      3.40342148      5.10619074      7.39511910
Pt      3.51927039      0.24620981      7.28750131
Pt      7.66045917      7.50298048      7.21001817
Pt      4.87363514      2.58768127      7.34968510
Pt      2.06386897      2.82292883      7.25921774
Pt      0.66621213      5.18135633      7.23978759
Pt     10.50436373      2.79763952      7.20820946
Pt      6.07447784      5.16466975      7.26050354
Pt      0.82323984      0.40757983      7.23688530
Pt      2.01114192      7.59966256      7.26816206
Pt      4.88214651      7.46775737      7.16187880
O       5.95159900      5.05970125      9.38981792
O       1.96005283      7.55935889      9.24447585
O      -0.15246669      5.05444294      9.23633319
H       5.67327355      3.70322729      9.71160231
H       7.12766750      6.74636828     10.02471923
O       0.77134272      0.66128412      9.35270875
H       2.50032484      8.40058693      9.54542563
O       9.28204467      0.44092351      9.35001179
H      10.93143892      0.80226943      9.51262169
H       0.41950656      4.88752020     10.02530220
H       6.99188174      2.20354899      9.64347717
H       2.48686536      3.26032088      9.99397430
H       9.60561640      9.18141472      9.62146680
C       7.07014926      5.63349929     10.14840036
H       3.00635536      6.39169251      9.68466984
O       7.96155352      2.45141763      9.44309638
H       6.23148806      7.84717733     12.00306559
H       7.90394069      5.00602857      9.90052201
O       5.43163882      2.64131414      9.56311853
O       2.40669298      2.55554786      9.30637008
H       1.42137256      1.44175358      9.60001622
H      11.21441646      7.73796627      9.43794930
O      10.21682812      7.64800855      9.23010423
H       4.71771168      2.32652433     10.30380230
O       6.16045682      1.21078073     13.12169045
O       3.35666814      5.41812658      9.45041053
H       6.72651914      5.43785633     11.21797858
H       7.88942486      8.91910922     16.16097498
H       5.75631705      1.11742569     14.01885768
H      -0.53212866      5.97867362      9.49146221
H       7.76760791      8.65454385     12.07106095
H       6.34047357      0.26704745     12.63320544
O       6.77574414      8.65814030     11.78311335
O       7.58091016      8.36584697     15.41066194
H       4.34294395      5.50836469      9.60416077
H       9.11941411      1.52750155     12.98722793
H       8.08725564      7.49895032     15.47315287
H       8.99679719      8.70360424     13.54104089
H       0.98715763      8.70913624     12.06287236
H       7.77149758      2.14532044     13.13728282
O       0.17301553      8.26095339     11.64719122
O       9.14466992      9.09187560     12.62219117
O       8.69235827      2.34968770     13.27855160
Cl      4.58724061      6.81769507     12.15069263
H       3.54131114      2.42038729     12.22637591
O       9.29013257      4.89268406     13.01415951
H       9.03322424      3.93873316     13.14051518
Cl      0.98256400      4.99782897     11.92102418
O       6.47665839      3.50704262     16.01517323
H       0.45637071      7.29341344     11.82948656
O       4.06438225      1.82984976     11.59937339
H      -0.92260977      4.85219079     12.60123673
H       5.90026460      3.97968481     15.35345255
H       6.13029407      2.53842649     15.99470598
H      10.01580963      8.67687288     12.19640279
H       2.02514350      3.79991329     12.98187466
O       4.47537152      4.62859696     14.51340596
H       4.36172490      5.21635439     13.74894761
H       3.34484005      1.00243533      9.58390922
H       4.90965875      1.60389450     12.07655304
H       5.89714312      9.21771042     15.47885628
H       2.02603331      1.91058688     17.17440544
H       3.83540685      3.87099753     14.15081844
H       9.34505931      2.10634438     14.95487639
H       4.37740416      9.46635288     15.36691826
O       2.67637107      3.07436849     13.37171137
H       2.19090290      2.60325161     14.10130976
O       2.49864122      2.51574295     17.80861797
O       3.49480977      0.08778465      9.42456794
O       5.28995383      9.95045652     15.43452137
H       2.61295782      3.35377083     17.25965092
H       1.96983212      8.27834273     15.34723100
O       9.88387593      1.87985524     15.69073912
O       1.50836079      1.79650480     15.40208469
O       2.44089169      9.14984912     15.00863715
H       0.54384049      2.01959071     15.42317627
H       9.60389822      3.30076851     16.74343107
O       9.37566177      4.16867753     17.21249455
H       4.89242229      9.56294371      9.64224886
H       9.39991819     10.90772502     16.24655823
H       4.88566147     10.24353475     17.40186490
H       3.77380098      1.53879852     18.15310876
H       1.75687553     10.44161786     15.26555871
H       8.42084004      4.25276626     17.03129497
H       9.87478795      5.69714474     16.05956539
O       4.62104663      1.08000075     18.22508551
H       2.61126745      9.01260549     14.03539656
H       6.34259635      4.34042679     17.50040311
H       5.82119730      1.57120588     18.95854274
O       9.89438317      6.20323025     15.23074955
O       6.77583965      1.91567902     18.99149386
O       2.77732091      9.09082366     12.26649154
H       9.68891021      5.51351855     14.44161243
O       6.67787501      4.52786638     18.38399137
H       3.25074371      9.87652443     11.99944885
H       6.78872112      2.84562868     18.64932518
H       3.46976449      8.34466543     12.21953508
H       7.86623023     10.75493321     17.81452823
H       0.10671525      6.93801157     15.76653384
H       4.09916822      9.39579469     19.52826361
O       8.43043425     10.04157016     17.36139837
H       5.97333895      4.99348461     18.93497297
O       0.98107064      7.17251965     16.15832199
O       3.82669028      8.50749498     19.88728965
H       3.95279120      8.38193445     20.83532324
H       9.06524616      9.79332296     18.10350139
O       9.89009890      2.60082991     19.48525414
H       0.82714032      7.47256904     17.13478035
H       2.02733709      3.51130063     19.58611343
H       2.13059008      5.55544731     16.53897123
O       8.66763145      5.90890185     19.88371306
H       9.48090132      3.10424853     18.76328258
H       2.83747155      4.83044319     19.76022688
O       2.24104043      4.19305927     20.27076947
H       8.05633840      6.39526328     20.49405958
H       8.07308813      1.33893755     21.54399875
H       3.52925573      5.00358988     16.04918057
H       7.98957184      5.55547118     19.28305461
H       9.21652368      2.73552496     20.22970771
O       2.83415668      4.89728365     16.76963477
O      10.15813892      9.57324858     19.48492256
O       7.81907914      2.32797225     21.34599224
H       2.07414093      8.45185092     19.20704255
H      10.37686454      5.64584922     20.13859870
H      10.97049023      9.03473033     19.22215948
O       8.76995825      9.24199909     21.45744802
H      10.31326115     10.53267426     19.29155047
H       9.48219776      9.21916486     20.65785829
O       1.15721713      8.05836942     18.95982020
O      11.27526188      5.99013856     20.40074922
H       7.30169212      2.19033040     20.49609745
H       9.35256923      9.24307831     22.27384515
H       7.71872905      7.88856104     21.73050472
H       2.43181250      3.27759126     21.79834739
H       0.73555944      5.20593704     20.46985048
O       7.20439362      7.08867863     21.84839640
H       0.98089822      7.25102446     19.51996404
H       5.39260010      7.54779441     22.25582368
H       7.80510971      6.80622854     22.56528417
O       2.44644780      3.25126228     22.75607962
O      10.43793414      9.40268825     23.70064703
O       4.46207885      7.76167040     22.49591762
O       6.92219651      2.16641922     24.84847808
H       8.18691515      3.59281774     22.71168908
H       1.58275153      2.95458933     23.15731456
H       4.05411440      6.96460045     22.94328000
H      11.04220815      8.74343156     23.25490932
H       5.98260109      2.27638582     24.44474976
H       7.47003411      2.99869434     24.50887773
H       3.68070441      2.47281572     23.41320771
H      10.80541618     10.30708473     23.67591939
H       2.89390741      4.80533426     23.38835992
O      11.40434941      7.19166654     22.70386462
H       1.05285516      6.78050501     23.13996633
O       2.88689032      5.78808196     23.75942757
O       4.30526341      1.96561733     23.97104384
O       8.80804452      3.71852106     23.50598706
O       0.11372887      2.31690947     23.88070583
O       9.01888990      6.25186153     23.86460384
H       7.40339616      0.50604884     24.63990908
H       4.66745274      8.40382864     24.04973603
H      -0.61810306      2.80951350     23.53182957
H       8.93799184      6.46399712     24.77589674
H      11.30350148      6.65030492     21.84875306
H       8.95956543      4.67295923     23.61386193
H       4.62138763      0.32880503     24.21025727
H       8.87393057      9.47984940     24.35921577
H       3.95799830      2.26184497     24.89120469
H       3.05109722      5.80046778     24.78325084
O       8.00882901      9.44776730     24.87956811
O       5.06095883      9.18918377     24.61262699
H       0.04316695      2.32100551     24.88217635
H       9.98062491      6.50250390     23.70891610
Pt      2.34672335      9.12729296      0.09261435
Pt      5.06069042      9.08808724      0.01519792
Pt      8.09731979      9.21202105     27.04330375
Pt     10.83860679      9.13480199      0.24583833
Pt      8.07683181      4.35048506      0.28709571
Pt      3.89124618      6.57597184      0.22064387
Pt      9.33912895      6.76277133      0.23197316
Pt      6.57647961      6.72818164      0.15935521
Pt     10.88257178      4.38618480      0.30756118
Pt      1.13795330      6.72812036      0.20396662
Pt      9.41120732      1.87071121      0.16325763
Pt      6.52852974      1.95220794      0.19299467
Pt      2.39830242      4.23687745      0.16013679
Pt      5.24611292      4.25621196      0.18759768
Pt      1.02798107      1.95209348      0.27928702
Pt      3.76569960      1.82745897      0.30142422
H       8.50034213      1.53243114      9.56540031
O       4.08821789      5.87740572     19.03501132
H       3.72827622      5.64554004     18.09296815
H       4.12844655      6.86753549     19.27988431
O       5.92370912     -0.20121899      9.47598873
H       6.43598037      9.23954594     10.36261822
