   243
 Tv_1:  11.152900   0.000000   0.000000 Tv_2:   0.000000   9.658700   0.000000 Tv_3:   0.000000   0.000000  26.829700
Pt      5.27627449      7.79846150      2.35494706
Pt      6.54726248      0.51139328      2.65350602
Pt     10.67970692      7.75069077      2.50438480
Pt      7.96978002      7.77536664      2.29670667
Pt      7.94504989      2.85569788      2.58384523
Pt      2.42683637      7.74671116      2.51612933
Pt      9.28908941      5.28688774      2.55467141
Pt      6.59770928      5.16250141      2.51853756
Pt      5.06180710      2.80263331      2.56011839
Pt      3.66253051      5.26562786      2.65744671
Pt      9.22466830      0.37673804      2.69227499
Pt      0.89686413      5.30588134      2.65112834
Pt      1.00440109      0.52183860      2.71057265
Pt      2.37095665      2.83933714      2.64862327
Pt      3.69969130      0.45835226      2.63121380
Pt     10.67501223      2.76600164      2.77475981
Pt      5.70235599      6.46579826      4.72373255
Pt      8.45004510      6.46748336      4.72894271
Pt      7.09814739      8.85963955      4.90363041
Pt      7.10937279      3.97533094      4.89930605
Pt      8.61833675      1.54120397      5.03656093
Pt      5.67502160      1.55683775      4.94498385
Pt      9.94680367      4.05385489      5.03976192
Pt      9.93486346      8.74175044      4.99839600
Pt      1.64398040      8.81728063      5.03087774
Pt      0.13930893      6.49018403      5.05867412
Pt      2.92816662      1.51499851      5.03097425
Pt      2.92974713      6.44780792      4.84079132
Pt      4.31873805      8.85893481      4.86894860
Pt      4.28657793      3.97181006      5.09942713
Pt      0.15332892      1.44561653      4.96971517
Pt      1.56623992      3.99414341      5.00226629
Pt      7.89810148      2.64065984      7.30793908
Pt     10.72014557      7.58705578      7.42475054
Pt      9.17974043      5.16430700      7.27599701
Pt      9.21175519      0.34962885      7.53404053
Pt      6.55668624      0.25704704      7.42612118
Pt      3.85128841      5.25055968      7.36179568
Pt      3.77206451      0.30267008      7.28986855
Pt      7.90659324      7.63716673      7.09594141
Pt      5.03804601      2.70694604      7.31111907
Pt      2.32257764      2.74283666      7.34579227
Pt      0.89621933      5.18359064      7.32892381
Pt     10.65166963      2.77717284      7.25451357
Pt      6.50562060      5.15867695      7.27503913
Pt      0.84281545      0.28283217      7.38575041
Pt      2.33112336      7.53237364      7.37877939
Pt      5.12534165      7.62259282      7.17792615
O       6.73390219      5.67151220      9.44106894
O       2.46985338      7.70673638      9.52813092
O       0.34445044      5.37165664      9.57166364
H       4.87281116      4.14986201      9.69557795
H       7.89497908      7.21798184     10.46524235
O       0.73875419      0.45271136      9.54153763
H       3.02423079      8.58041197      9.61412669
O       9.27493355      0.56254121      9.62401391
H      10.97459947      0.73361093      9.75780186
H       1.07189103      5.17812467     10.32803878
H       6.87207749      2.84435527      9.63938863
H       2.14422827      3.20363141     10.16100935
H       9.30650551      9.26056940      9.92301681
C       7.85974312      6.31638119      9.48118748
H       3.14656326      6.84603284      9.64995447
O       7.86478470      2.70555506      9.47034357
H       7.04895290      7.70311237     11.79285322
H       8.01270441      7.31804190      8.90626793
O       5.21864012      3.20550013      9.55978565
O       2.15197791      2.43634372      9.46154965
H       1.31506651      1.34172721      9.61746251
H      11.26090712      8.16460146      9.70001108
O      10.49175830      7.64497471      9.49633757
H       4.87265128      2.65546920     10.35986070
O       5.58778514      0.45441658     13.45464884
O       3.93701615      5.58764691      9.41393420
H       8.80723041      5.69871193      9.53989136
H       7.51850131      7.83142694     16.53540031
H       5.45121664      0.07246990     14.39989926
H       0.01064564      6.30739765      9.65160195
H       8.53518091      8.16385393     12.29068290
H       5.16909028     -0.24215261     12.84477681
O       7.91932897      8.06931651     11.49340788
O       7.05437053      7.87915760     15.65900998
H       4.83465449      5.96928393      9.70013761
H       8.77861189      1.23294798     12.61777448
H       7.03396220      6.95755175     15.26450875
H       9.29319011      8.26646296     14.34770085
H       0.09653514      5.00696274     13.20645939
H       7.35532709      1.03834062     13.37525796
O      -0.77807188      5.41546218     13.20289050
O       9.69000461      8.04981602     13.48146547
O       8.08225196      1.66370342     13.15589016
Cl      4.96284926      7.55709749     11.67490584
H       3.73691213      2.68122537     12.07407775
O       8.09777216      4.26641488     12.29986695
H       8.18392935      3.28221135     12.61643986
Cl      1.82558434      4.23422525     12.07261696
O       6.70960468      5.27350167     14.67199284
H      -1.51016582      5.04935620     12.60606577
O       4.37723465      2.04433116     11.62676581
H      -3.75296756      4.27559168     11.64917775
H       5.78042704      5.08373244     14.33137439
H       7.27862792      5.09685847     13.86950960
H      10.02821007      7.10231393     13.41304270
H      -0.00055879      2.22019698     11.67980076
O       4.29888722      5.40843585     13.62073697
H       4.22847427      6.26906286     13.08241480
H       3.33053085      1.10298138      9.63568352
H       4.91610389      1.73923418     12.36129944
H       5.36327651      8.52424890     16.13722184
H       1.79884818      2.45063903     16.56807515
H       3.49048711      4.90189798     13.34117817
H       9.13488825      1.63094979     14.74915504
H       3.80277295      8.92258950     15.72333116
O      -0.19212394      1.55157726     12.33289302
H       0.29795393      1.84938225     13.10891663
O       2.40827424      2.89993464     17.19619017
O       3.80855885      0.23473535      9.39033113
O       4.76379909      9.26099663     15.91604425
H       2.64419731      3.73385701     16.85284685
H       1.84396747      8.25917522     15.65530993
O       9.53345452      1.43896801     15.62389472
O       0.91724425      1.73643212     15.01824192
O       2.32313916      8.89878641     15.07663891
H      -0.02331534      1.66177938     15.30806352
H       9.69732715      2.70236283     16.62564719
O       9.78431133      3.48608609     17.30890325
H       5.16646803      9.83727833      9.61635315
H       9.01823130     10.39754930     16.18858938
H       4.68957310      9.64779829     17.54193354
H       3.64775860      1.02601086     18.17445988
H       1.22316987     10.50646995     15.00628586
H       8.88501692      3.75158098     17.49294288
H       9.87360562      4.98866109     16.49450225
O       4.49467953      0.54535377     18.35807655
H       2.13143692      8.71073978     14.09509017
H       7.27653374      4.68588549     16.36523912
H       5.97542230      1.58202182     18.54670376
O      10.08254825      5.79878134     15.91981866
O       6.98132490      1.81617018     18.50561248
O       1.67348074      8.53636891     12.53590384
H      10.20596701      5.67185140     14.96484307
O       7.18700613      4.45591477     17.28282616
H       1.21039869      9.30150924     12.31296960
H       6.98816034      2.68031342     18.05699100
H       2.58408217      8.62727996     12.08369940
H       7.92747134     10.23483390     17.71409290
H       0.17593554      6.55728178     16.20148097
H       4.13875828      8.58589201     19.38232577
O       8.42370329      9.38799510     17.39900929
H       6.43164259      4.96758079     17.65726557
O       1.02056244      6.95174632     16.60189035
O       4.00224824      7.68506623     19.80656130
H       4.06425729      7.85016215     20.74152899
H       9.21659496      9.32715420     18.10033182
O      10.80270938      2.30468758     19.64733436
H       0.74226479      7.41330108     17.45062042
H       2.13629260      3.56888552     18.84907939
H       2.53640072      6.09886453     16.43377812
O       8.54791188      5.25372827     19.89319478
H      10.56665098      2.75998814     18.81684171
H       3.25458611      4.47056352     19.61904083
O       2.37011199      4.01933553     19.71976359
H       7.85921861      5.83334546     20.33692858
H       8.64856310      1.05789837     21.04799272
H       3.32330745      5.40448869     15.30343561
H       8.38088609      5.44923909     18.92310306
H       9.88349586      2.37206810     20.13076243
O       3.26478002      5.38642423     16.29970061
O      10.45405635      9.48872823     19.17325077
O       8.48717329      2.10371946     20.88982344
H       2.25662393      7.80806426     19.53081525
H      10.10023367      5.45030601     20.53536388
H      11.37090700      9.14778883     19.23417849
O       9.10350892      9.26795200     21.45809249
H      10.72218290     10.47711977     19.39925256
H       9.72869323      9.23206793     20.55926332
O       1.28985391      7.91461487     19.33993636
O      11.01451558      5.93675324     20.62074234
H       7.84158835      2.15390357     20.19735610
H       9.79437170      9.55812771     22.21167085
H       7.93555800      8.08194478     21.65048836
H       2.35507900      3.48987283     21.32792938
H       0.50114390      5.24080922     20.59998876
O       7.35049708      7.28487527     21.76569669
H       0.71635850      7.27368424     19.87220493
H       5.64091743      7.84564827     22.27485911
H       7.78002193      6.90540619     22.56384930
O       2.34809446      3.40671188     22.37472609
O      10.51628850      9.54504064     23.67276999
O       4.69909244      8.16415733     22.59004487
O       6.68591933      1.88981470     24.37661476
H       8.80591003      2.99259316     22.26247297
H       1.43089771      3.13352870     22.74190809
H       4.32630546      7.27535962     22.92756570
H      11.03133703      8.73849641     23.44503796
H       5.87453550      2.19675405     23.89526420
H       7.42095305      2.53934056     24.01657332
H       3.52559168      2.68527605     23.08289288
H      11.13771703     10.31762942     23.74814476
H       2.76467154      4.95656955     23.07804751
O      11.57828565      7.12295856     23.11821804
H       1.16491481      6.58576346     23.54379687
O       2.94398096      5.91091851     23.47917086
O       4.19247164      2.36305184     23.72975509
O       9.02685954      3.22267425     23.26130562
O       0.33035828      2.46022668     23.76175311
O       8.86753236      5.98961110     23.86230102
H       7.45337110      0.68544136     24.38258537
H       4.73349588      8.92094294     23.99973653
H      -0.59566939      2.81789996     23.63555961
H       8.59326553      6.35980380     24.71153973
H      11.31875019      6.61210213     22.24023796
H       8.84617755      4.18630735     23.55444690
H       4.31586958      0.82240205     24.33577583
H       8.95985586      9.58372541     24.29154905
H       3.92384855      2.94897485     24.53410187
H       3.11410502      5.79820043     24.41143174
O       8.02576951      9.49353081     24.62939327
O       4.63102646      9.60735760     24.72648116
H       0.47034443      2.46892986     24.72709514
H       9.71914077      6.47124174     23.67425406
Pt      2.25983352      9.11831389      0.23082524
Pt      4.95026743      9.12360159     -0.00976967
Pt      7.82170578      8.96821043     26.81287884
Pt     10.70714416      9.10565807      0.21192366
Pt      7.82537992      4.17279488      0.12255047
Pt      3.65986955      6.62195712      0.26822337
Pt      9.21396831      6.52843031      0.09004298
Pt      6.45486650      6.63240847      0.18295661
Pt     10.69360764      4.16877878      0.33614399
Pt      0.96354000      6.77249347      0.23534454
Pt      9.22300672      1.73344978      0.27238327
Pt      6.49979486      1.88035414      0.18605260
Pt      2.27316208      4.22468829      0.15672560
Pt      5.05769373      4.24206358      0.19387213
Pt      0.91364883      1.80561817      0.34373809
Pt      3.53721097      1.83083959      0.30870769
H       8.12901851      1.66740800      9.58651671
O       4.99673606      5.36335259     18.46189909
H       4.31332455      5.36790721     17.68876108
H       4.93036943      6.21367673     18.98730972
O       6.25817566      0.25080823      9.67520386
H       6.41555448      9.11750054     10.19617404
