   243
 Tv_1:  11.152900   0.000000   0.000000 Tv_2:   0.000000   9.658700   0.000000 Tv_3:   0.000000   0.000000  26.829700
Pt      5.21074185      7.81984017      2.47859094
Pt      6.47598569      0.54956195      2.65210402
Pt     10.52459249      7.77906727      2.53251459
Pt      7.78281481      7.97025167      2.33991153
Pt      7.88850900      2.80690435      2.62633733
Pt      2.23093912      7.64332060      2.50356508
Pt      9.30937117      5.17872382      2.54502789
Pt      6.29728867      5.23762766      2.64017868
Pt      5.09389785      2.75741175      2.59984739
Pt      3.62357832      5.32899982      2.65724207
Pt      9.30288630      0.50330328      2.82516101
Pt      0.89648043      5.25501143      2.68424107
Pt      0.79365340      0.45021172      2.71076593
Pt      2.32464432      2.86652753      2.54225081
Pt      3.47924809      0.43250723      2.59165395
Pt     10.65998439      2.91928264      2.54781821
Pt      5.79283649      6.48229437      4.94566056
Pt      8.43169998      6.56674204      4.76448138
Pt      7.03789719      8.93947287      4.92987583
Pt      7.13789909      4.07659079      4.95062923
Pt      8.58433539      1.77518122      5.00779361
Pt      5.71297206      1.66861680      4.97344468
Pt     10.04760866      4.19257036      4.93623734
Pt      9.89464658      8.89559378      5.08660524
Pt      1.52882577      8.95040021      4.97947756
Pt      0.05035803      6.59099580      5.02199248
Pt      2.95046680      1.63173994      5.01406690
Pt      2.96810375      6.52375741      4.86323432
Pt      4.31527783      8.94143547      4.84482571
Pt      4.32109268      4.09461610      4.91470398
Pt      0.28045084      1.76954244      4.88037041
Pt      1.66935944      4.22720571      5.09387603
Pt      7.91898999      3.02039656      7.27215190
Pt     10.74774150      7.81297524      7.42888593
Pt      9.41604107      5.39422041      7.36972117
Pt      9.12663162      0.69800062      7.32583707
Pt      6.40643015      0.54727971      7.32231232
Pt      4.00068388      5.44084225      7.23061428
Pt      3.67386268      0.45096163      7.31186409
Pt      7.99990810      7.87467647      7.25437812
Pt      5.12999113      2.96596672      7.27870857
Pt      2.39318061      2.84627905      7.28564702
Pt      1.10682958      5.23854627      7.37771836
Pt     10.84811563      3.01078519      7.29849833
Pt      6.78538235      5.42988306      7.31397191
Pt      0.86302701      0.58763095      7.28599250
Pt      2.29999140      7.68808009      7.17321602
Pt      5.12656871      7.88345397      7.17750828
O       7.36693589      5.55866118      9.26062253
O       2.44778146      7.85841053      9.33138811
O       0.69057242      5.38201229      9.44057873
H       4.49886363      4.25910212      9.56377793
H       8.71730211      5.56193840     10.80684200
O       0.62201864      0.60601291      9.61967880
H       3.00928984      8.72391091      9.49300702
O       9.17357867      0.62119866      9.38343977
H      10.75597704      0.57998618      9.61353380
H       1.46362895      5.52286989     10.02287576
H       6.99188570      2.76421311      9.85922491
H       2.37553774      3.27454642     10.01725451
H       8.77073191      9.45319163      9.61884532
C       8.71612201      5.55378691      9.37284583
H       3.06085630      7.09403983      9.53156944
O       7.92198062      2.81910711      9.52505429
H       7.34928103      6.09331736     11.52271405
H       9.15541266      6.50390368      9.61733217
O       5.03514765      3.37322499      9.43889178
O       2.16880153      2.49609074      9.41791628
H       1.08001853      1.50414850      9.74890060
H      11.49901121      8.24351032      9.87516897
O      10.82433125      7.66697806      9.51882391
H       4.68871317      2.83342751     10.19208689
O       6.86222182      0.80330359     12.69474656
O       3.98497704      5.77522821      9.26711615
H       9.20760187      4.58776411      9.66118311
H       8.85893118      8.03400875     16.04569462
H       6.64020499      0.39739022     13.53918410
H       0.11677833      6.33861531      9.52760465
H       9.06029891      7.11467279     12.21393544
H       6.87667737      0.03230334     11.94145824
O       8.29967631      5.89706796     11.80648026
O       8.61149669      7.69451666     15.09329043
H       4.87367446      6.21903251      9.49442245
H       9.95287848      1.10657532     12.28991448
H       8.15054704      6.74221822     15.18996925
H       9.39208509      7.73460555     13.59219904
H       1.62304733      7.52124244     11.95589086
H       8.36929903      1.24173574     12.58226014
O       0.86851865      7.04450639     12.37513585
O       9.70207217      7.82023587     12.67620821
O       9.34516860      1.44861266     12.94431255
Cl      5.90674628      7.80029782     11.07856488
H       3.97685072      2.41560904     12.30175293
O       9.34610414      4.34238091     13.71924741
H       9.54545261      3.49395201     13.32922304
Cl      2.21855452      4.34628789     11.86401138
O       7.37577905      5.22105704     15.00513259
H       1.12512599      6.04998773     12.39979140
O       4.81275997      2.54290733     11.90196423
H      -2.14753430      4.86264154     12.96123265
H       6.47526834      5.02537782     14.66757386
H       7.98805705      4.54587407     14.60717255
H      10.72358020      7.43568291     12.68348655
H       1.86819409      2.24460794     12.54876955
O       4.94631552      4.77870262     14.02064159
H       4.49918902      5.63845865     13.76089355
H       3.11453323      1.23940726      9.60455419
H       5.43599757      1.84327548     12.32285065
H       7.11913757      8.64993630     15.04150784
H       2.74946528      1.31416202     16.46810178
H       4.82677619      4.15890348     13.22407763
H       9.76626911      0.92573699     14.57752050
H       5.58502390      8.43390153     14.86612724
O       2.12849817      1.31251884     12.49019480
H       2.02365732      1.09449590     13.45325050
O       3.09451868      1.71581144     17.32770903
O       3.68886733      0.35734637      9.43306389
O       6.22592047      9.06901225     15.24086222
H       2.99383614      2.67300087     17.23075944
H       3.33629897      7.33295215     14.66187782
O      10.45412261      0.69860748     15.23597512
O       1.95669058      0.71380257     15.10527857
O       4.15998084      7.44453112     14.17250951
H       0.94954115      0.58494811     15.12089963
H      10.67598591      2.41894493     16.28674273
O      10.53314565      3.28215392     16.84443152
H       4.98880802     10.03604685      9.67586026
H      10.03085861      9.82929848     16.01686332
H       5.64123542      9.69947514     16.82016619
H       4.63612470      1.11734608     17.57142422
H       2.24454034      9.41239956     15.16093016
H       9.57682076      3.38409939     17.05717767
H      11.06007970      4.65395800     15.80363540
O       5.37997594      0.43883060     17.70139270
H       3.91436713      7.83067169     13.35596830
H       7.94211693      4.74943304     16.64276174
H       6.60556334      1.23798362     18.25575223
O      11.38578086      5.30813956     15.13868699
O       7.53452727      1.64199394     18.38319901
O       2.93241372      8.55575832     11.87933415
H      10.74892770      5.06624184     14.44158500
O       8.10033642      4.34525370     17.53037558
H       2.61252307      9.46247745     11.81593634
H       7.48633674      2.60695828     18.04573478
H       3.81645758      8.59774562     11.39800381
H       8.62990748     10.06355171     17.54329407
H       1.10144973      6.87520911     15.30417745
H       4.80219911      8.83994434     18.64145516
O       9.08283061      9.23348585     17.21319346
H       8.35537662      4.97794211     18.27194413
O       1.78144690      7.53464845     15.63172644
O       4.35879357      8.05561639     19.15224431
H       4.07172648      8.26578871     20.05366155
H       9.69834917      8.99500820     17.91304958
O      10.99139864      2.13892887     19.29104568
H       1.69051328      7.37737070     16.60764272
H       1.41560754      3.38984414     19.46484510
H       2.12310439      4.79022714     16.12029388
O       8.86675130      5.20670258     20.18063405
H      10.68763561      2.76219763     18.54054786
H       2.62167717      4.34181042     19.76628675
O       1.75235882      4.06954885     20.06048192
H       8.55480602      5.90069091     20.87042370
H       7.84738294      2.08396823     21.50602688
H       3.53296463      4.22781864     15.58292601
H       8.72042053      4.38235564     20.75235955
H      10.32672584      2.22210304     19.99262060
O       2.97807573      4.40920667     16.42400645
O      10.96462598      9.04268453     19.31607881
O       8.55674693      2.32633127     20.84625861
H       2.74407448      7.85358094     18.49403952
H      10.50491051      5.87122786     20.27977345
H      11.77530771      8.54922508     18.95413198
O       9.51431298      9.22450640     21.51213343
H      11.25251766     10.01584376     19.19933703
H      10.27247869      9.22886602     20.86926224
O       1.84242410      7.48237706     18.33034951
O      11.41161421      6.15919162     20.63364160
H       8.10033426      2.21767614     19.96883168
H       8.88241307      9.95670528     21.22623719
H       8.49251886      7.80094109     21.56868548
H       2.05226688      3.41813989     21.65810725
H       0.77170919      5.29987159     20.57041430
O       7.87458493      7.13366315     21.76939199
H       1.84113636      6.63884761     18.83785444
H       6.10205635      7.40769704     22.68839545
H       8.31749676      6.70186934     22.60644248
O       2.40443408      3.38828216     22.59166068
O      10.66047222      9.26847392     24.52690764
O       5.22211572      7.64172870     23.04563822
O       7.17976754      1.52425045     23.22621685
H       8.97990059      4.27952006     23.79292684
H       1.67350220      3.10645950     23.18191211
H       4.89557216      6.83795871     23.48931493
H      11.06377156      8.62136653     23.85618150
H       6.27927515      1.96253774     23.53711305
H       7.76866434      2.27732335     23.55955802
H       3.87154404      2.64970049     23.44687536
H      11.09815668     10.10745406     24.39031903
H       2.81333862      5.06624917     23.54927608
O      11.41642150      7.05154018     23.15296021
H       1.17858876      6.75031877     23.53210997
O       2.91629831      5.98581279     23.88939303
O       4.61326748      2.25461497     23.96821600
O       8.88691186      3.28472682     24.10169776
O       0.43001443      2.40028754     24.11650752
O       9.08896998      5.93310802     24.03439470
H       7.58261466      0.16425666     24.05315986
H       5.20281113      8.75833841     24.18587494
H      -0.50505141      2.71758436     23.82663087
H       9.04681229      6.21697450     25.01537514
H      11.42067348      6.73487999     22.20144209
H       8.93641105      3.31929121     25.12967765
H       4.75159758      0.64117288     24.60139840
H       8.91704184      9.25996051     24.32464759
H       4.53455456      2.51320902     24.91152302
H       2.86061874      5.86769257     24.85386028
O       7.96448023      9.04361438     24.48373580
O       5.31019056      9.53593255     24.86903975
H       0.46462136      2.68769520     25.07408328
H       9.98079054      6.32953129     23.67491616
Pt      2.21144518      8.83492849      0.07499395
Pt      5.01841482      8.90486736      0.07738692
Pt      7.71246180      8.82743904     26.64507703
Pt     10.57951973      8.80855378     -0.03122192
Pt      7.64560638      4.02259996      0.20770151
Pt      3.59475348      6.53989287      0.32679021
Pt      9.18005148      6.49667502      0.25057995
Pt      6.43437316      6.41648535      0.24884702
Pt     10.45165077      4.13840759      0.07616486
Pt      0.76155015      6.44523718      0.27506602
Pt      9.06728252      1.59935430      0.36256896
Pt      6.37991508      1.65765120      0.25984320
Pt      2.11355257      4.06403714      0.21473870
Pt      4.90846341      4.09104474      0.14718952
Pt      0.71639216      1.60811843      0.29873546
Pt      3.47962014      1.64178544      0.17616554
H       8.34591363      1.87429690      9.64447516
O       3.65533002      5.29722877     18.92335494
H       3.57141329      5.24407672     17.92293468
H       3.94541206      6.18488324     19.18762862
O       6.05966622      0.54883324      9.54004433
H       6.38736398      9.28285226      9.73935121
