   243
 Tv_1:  11.152900   0.000000   0.000000 Tv_2:   0.000000   9.658700   0.000000 Tv_3:   0.000000   0.000000  26.829700
Pt      4.85477895      7.67019307      2.55899389
Pt      6.32695928      0.39391579      2.46652276
Pt     10.65591113      7.48444096      2.58163678
Pt      7.70961605      7.55116387      2.36016484
Pt      7.62723288      2.71147439      2.58909046
Pt      2.30814440      7.61771716      2.72217190
Pt      9.14006927      5.06017168      2.59885355
Pt      6.31615947      5.12434585      2.62006602
Pt      4.85658606      2.76179564      2.55902797
Pt      3.47171467      5.27765266      2.75834020
Pt      9.10173654      0.23357029      2.62169223
Pt      0.72177042      5.19034446      2.59093467
Pt      0.80519887      0.25535213      2.60993658
Pt      2.07542130      2.68835150      2.65782034
Pt      3.54980907      0.44867191      2.71291512
Pt     10.54304414      2.63183864      2.67096082
Pt      5.95857122      6.47891385      4.87146212
Pt      8.67964066      6.47739027      4.71391544
Pt      7.30065807      8.89724909      4.75027350
Pt      7.28502660      4.14694488      4.88074866
Pt      8.75254177      1.57171119      5.01240424
Pt      5.86872681      1.56649755      5.08918369
Pt     10.09392473      4.13010714      4.95151224
Pt     10.11698839      8.81703734      5.06573283
Pt      1.69657969      8.92230060      5.13586897
Pt      0.38459098      6.42913605      4.98429451
Pt      3.11644815      1.65319002      5.04710818
Pt      3.12943644      6.43255186      5.11602768
Pt      4.41947227      8.82677376      4.90068242
Pt      4.47138545      3.99337217      5.14475553
Pt      0.27508552      1.61859831      5.02891217
Pt      1.68501924      4.01127791      5.12017650
Pt      8.17859499      2.94351270      7.16287168
Pt     11.00783848      7.72183460      7.43608648
Pt      9.57913986      5.43176587      7.31812215
Pt      9.46971840      0.52171726      7.47241065
Pt      6.61250115      0.42630498      7.40415048
Pt      4.23218936      5.30138110      7.56252757
Pt      3.94462117      0.38786589      7.38535284
Pt      8.15666730      7.86793906      7.01575235
Pt      5.30791597      2.85619551      7.49775352
Pt      2.52544786      2.94144532      7.49611354
Pt      1.24215051      5.31921602      7.50094027
Pt     10.92467850      2.94618980      7.30440173
Pt      6.89385960      5.32367403      7.27492343
Pt      1.12769807      0.44826321      7.36975088
Pt      2.55977474      7.77860808      7.49194022
Pt      5.27035089      7.64143122      7.19598536
O       7.40685845      5.52445263      9.26231303
O       2.84060589      7.76300259      9.53001289
O       0.78368832      5.29852975      9.52693138
H       5.38589156      4.23661172      9.87926247
H       8.57883952      5.49347490     10.89733654
O       0.75790905      0.67971421      9.57992305
H       3.40864279      8.70285968      9.71622459
O       9.28543323      0.47910717      9.57288931
H      10.94452070      0.76937116      9.74521041
H       1.60067386      5.44061249     10.08467783
H       7.28581550      2.92882700      9.73935829
H       2.53592138      3.20292355     10.13857349
H       9.24496744      9.17568525      9.78345174
C       8.76252050      5.65774156      9.27185612
H       3.56448208      6.98713774      9.58050568
O       8.20997919      2.80612670      9.38156956
H       7.43835994      5.79563287     11.82674485
H       9.12478572      6.71019781      9.36391935
O       5.69899215      3.28480964      9.75814805
O       2.55103526      2.42965690      9.46885183
H       1.34330523      1.50787529      9.59004770
H      11.79935372      8.17465007      9.90430594
O      10.99820030      7.65932554      9.76419273
H       5.16793680      2.77396496     10.38447213
O       6.20298416      1.94605897     13.89790660
O       4.48967790      5.66452325      9.58855299
H       9.34967874      4.81601673      9.74844448
H       8.57024184     10.03636012     16.31727242
H       6.25393758      2.83147938     14.37609918
H      11.40699126      6.61367181      9.78741792
H       8.55799444     10.66185938     12.87533231
H       5.65806905      1.27368870     14.46877670
O       8.32395905      5.27259831     11.88541362
O       8.08267083      9.38728147     15.63638821
H       5.33414705      6.07599747      9.88855154
H       9.93244140      2.41461503     12.63208328
H       8.55114639      8.49425165     15.57798999
H       8.21856921      9.79558212     14.11575222
H       0.02188088      9.00257757     12.89135200
H       8.55532799      3.26741080     12.51611009
O      10.39737294      8.61860066     12.39027408
O       8.28341382      9.71336274     13.03847666
O       9.00661652      2.51775969     12.97121488
Cl      6.22097625      7.26684482     11.35206818
H       4.10685815      3.11280196     12.07040561
O      10.66507253      5.84917818     13.15728322
H       9.90443146      5.38115087     12.66416492
Cl      2.34345286      4.52046826     12.17467031
O       6.49599021      4.40875656     14.88382179
H      10.40402155      7.67232117     12.66915633
O       4.55714095      2.30252425     11.90112325
H      11.48449256      5.41369010     12.84977414
H       5.83018716      4.84899613     14.33154027
H       7.39022911      4.82943400     14.63826615
H       9.15398250      9.14678086     12.70304141
H       0.86465329      2.95645272     12.08038312
O       4.49830532      5.93450048     13.61557878
H       5.19705896      6.36376160     13.03001504
H       3.52651139      1.27213653      9.65510652
H       5.26691277      2.26780497     12.60690472
H       4.03691711      9.36375320     15.57243415
H       2.11397871      3.07415646     17.53409499
H       3.69738606      5.63244341     13.04329543
H       9.50773054      3.09433144     14.62072198
H       3.25128862     10.72784814     15.69290861
O      11.45984472      2.08507450     12.05127435
H      11.97029400      1.49769561     12.75327622
O       2.23015999      2.59289543     18.34447844
O       4.02910390      0.35126634      9.57597954
O       4.16267348     10.35714675     15.79193633
H       2.01313471      3.33671223     19.00266918
H       1.41136605      9.28758540     14.49682716
O       9.67479934      3.39353467     15.53429047
O      12.36156622      3.84542729     15.99225021
O       1.37975751      9.62485154     13.56001038
H      11.42746505      3.58973309     15.91635304
H       9.13132197      4.59028883     16.58697946
O       9.02483085      5.32599905     17.29058082
H       5.38547567      0.30756058      9.70311483
H       9.21071227      2.66027301     16.08940985
H       4.55235463      0.56966375     17.89432226
H       3.75508846      1.50175211     18.86734264
H      12.60824888      4.19162392     15.09817845
H       8.03244490      5.31998719     17.51077401
H       9.70314155      6.67632994     16.19758220
O       4.64998252      1.03236171     18.74462234
H       2.21497925      9.40194684     13.10195842
H       6.27703587      4.96878082     16.53969165
H       5.89939000      2.05131723     18.90494593
O      10.01024190      7.19379811     15.38164086
O       6.74232585      2.61463395     18.98748381
O       3.79001955      9.27339058     12.43130932
H      10.23889152      6.53460324     14.69357379
O       6.42748634      4.98310267     17.50711590
H       4.10425982      0.51960401     12.46136758
H       6.45420561      3.45890139     18.50768661
H       4.52884955      8.69020280     12.09455463
H       8.20527437      1.79400214     17.89629504
H      11.52926579      7.92690218     15.81521891
H       4.25561026      9.29354329     19.79306567
O       8.87403756      1.46508690     17.28818168
H       5.69910840      5.62126290     17.87286930
O       1.14104810      8.50420964     16.16634623
O       3.51981596      8.57758635     19.93358976
H       3.51126495      8.31072887     20.89888417
H       9.73260611      1.54737592     17.80911603
O      10.29878614      4.76840397     19.76830124
H       1.11618328      8.51388058     17.18518210
H       1.00676533      4.91211433     19.96686795
H       2.73572255      7.79866493     15.95320755
O       8.12023651      8.36207271     20.51859581
H      10.00389492      4.72368957     18.81885471
H       2.36579554      5.64911054     19.72205426
O       1.96772636      4.81388551     19.99616509
H       7.49856729      8.21108345     21.24028914
H       8.59201264      2.37417472     21.14804605
H       3.87682452      6.95435062     15.04025211
H       8.29539534      9.36805735     20.54377001
H       9.50572237      4.51347392     20.21761622
O       3.73931178      7.61111841     15.80351787
O      11.14512288      1.29634512     18.73847491
O       7.94489016      3.10361682     21.26101023
H       1.91551863      8.59984944     19.29215347
H       9.76987974      7.71239763     20.73126509
H      11.44384894      0.32249703     18.74614047
O       9.60215857     10.75242335     20.78983980
H      11.93258727      1.84785998     18.65761096
H      10.31489872      1.24291572     20.08580191
O       1.07319394      8.56109155     18.75303591
O      10.67470387      7.33000158     20.60391462
H       7.34246437      2.95808661     20.47865951
H       9.94879388     10.44626030     21.68329001
H       6.72154426      8.30391739     23.35094962
H       2.00838493      3.87005370     21.48263395
H      10.51565713      6.40181166     20.30724831
O       6.56059708      7.78885561     22.47281775
H       0.43221287      8.05375064     19.31629292
H       4.92559041      7.40811993     22.41935620
H       6.87877138      6.87722192     22.71619999
O       2.19762112      3.48816860     22.37574169
O       9.92465947      9.71158349     23.42592436
O       3.92811774      7.52643449     22.50303931
O       6.42025335      1.94004558     24.72775387
H       8.30594650      3.86690642     22.80238954
H       1.28997547      3.23790563     22.76396787
H       3.57643551      6.83052428     23.10079910
H      10.50386906      8.89681338     23.50800124
H       5.60612760      2.20754679     24.29137720
H       7.12176367      2.64843320     24.62524867
H       3.28643722      2.71475572     23.35384451
H      10.29061718      0.93382826     23.63929599
H       2.51164591      4.99321000     23.35665873
O      11.29938970      7.44146287     23.22911901
H       1.01157803      6.96608072     23.39971693
O       2.53021675      5.90534493     23.76245621
O       4.02597481      2.41584291     23.97467122
O       8.68508919      3.81261120     23.72702736
O       0.04742387      2.55333810     23.86965313
O       8.72821370      6.37552497     24.13274467
H       7.17910630      0.33267171     24.58093558
H       3.64647198      8.91644216     24.18818429
H      10.38188692      3.13283048     23.79673701
H       8.57117412      6.90233861     24.95061377
H      11.17127202      7.52590671     22.25366478
H       8.83609354      4.65386143     24.23759693
H       3.87551518      0.73654851     24.78068275
H       8.48492333      9.30795463     24.18357787
H       3.73261756      2.71742129     24.95293137
H       2.62804557      5.68205700     24.73696203
O       7.53974643      9.09881889     24.61850441
O       4.30541253      9.47883679     24.69451005
H       0.29427010      2.60761112     24.86920168
H       9.61328447      6.76471136     23.80229314
Pt      1.96567699      8.69848086      0.32280824
Pt      4.65690083      8.85322693      0.09036549
Pt      7.55242921      8.84067909     -0.02294336
Pt     10.38684928      8.76497667      0.21843596
Pt      7.46939778      4.02247709      0.17366479
Pt      3.29188095      6.38339336      0.27164703
Pt      9.02476608      6.25376288      0.18849323
Pt      5.97933080      6.30484555      0.26302729
Pt     10.27035090      4.01520542      0.34456924
Pt      0.40381542      6.38924429      0.20119027
Pt      9.20649290      1.59504033      0.24242521
Pt      6.17583112      1.62025002      0.15652872
Pt      2.11115322      4.02476214      0.27022981
Pt      4.75852756      4.05790203      0.23730270
Pt      0.67072773      1.65840466      0.19010248
Pt      3.39096556      1.62478095      0.25050488
H       8.50440591      1.89364664      9.61741516
O       4.13000546      6.43309763     18.22467422
H       3.95507966      6.72437643     17.27116958
H       4.29503413      7.27992791     18.71360525
O       6.44249517      0.18000447      9.53313923
H       6.62559016      8.91445279      9.82328784
