   243
 Tv_1:  11.152900   0.000000   0.000000 Tv_2:   0.000000   9.658700   0.000000 Tv_3:   0.000000   0.000000  26.829700
Pt      5.14963230      7.85615423      2.53297132
Pt      6.54091277      0.44810388      2.65099239
Pt     10.73810439      7.77322347      2.54585838
Pt      7.97838816      7.95463577      2.58648440
Pt      8.03018564      2.94816665      2.62860575
Pt      2.20493648      7.65712922      2.51535389
Pt      9.32965635      5.43678909      2.63639444
Pt      6.66276525      5.54523393      2.63618196
Pt      5.19890372      2.97945236      2.55871870
Pt      3.90933739      5.43207579      2.57105560
Pt      9.40215402      0.47009491      2.62012397
Pt      0.90174474      5.19593763      2.54168843
Pt      1.03912064      0.50796139      2.59682913
Pt      2.58699939      3.08034892      2.60466469
Pt      3.93738518      0.59890846      2.58492901
Pt     10.88763170      2.81642097      2.57742225
Pt      5.82036483      6.49282330      4.92675467
Pt      8.56505038      6.58295716      4.98642299
Pt      7.12653699      8.95091971      4.97952558
Pt      7.27500271      4.10897588      4.90121372
Pt      8.54707126      1.61953948      5.03678712
Pt      5.82618924      1.80903170      4.94478961
Pt     10.02911537      4.11303745      4.88181500
Pt      9.99330875      8.88269538      4.93496208
Pt      1.59829641      8.91806845      4.86815607
Pt      0.15996010      6.52525388      4.97485279
Pt      3.04191962      1.63501034      4.90767330
Pt      2.91660538      6.47319552      4.91566454
Pt      4.35575638      8.89243587      4.97175774
Pt      4.42186948      4.15546509      4.98231942
Pt      0.27423896      1.60451373      4.88986757
Pt      1.64536590      4.07723974      4.92282256
Pt      7.84086080      2.79717236      7.35732640
Pt     10.48139672      7.53900812      7.33013358
Pt      9.28206207      5.08920194      7.51096536
Pt      9.17673621      0.37547914      7.32095383
Pt      6.36177839      0.41686430      7.30285189
Pt      3.73029053      5.33859275      7.23494584
Pt      3.47793640      0.42983038      7.28900042
Pt      7.61868756      7.66737388      7.33648216
Pt      5.07204247      2.78186394      7.35718920
Pt      2.36558124      2.84523184      7.25247141
Pt      0.76811898      5.17156687      7.31141773
Pt     10.58394931      2.83214024      7.23747508
Pt      6.61008205      5.18344090      7.31910470
Pt      0.70125505      0.40906223      7.19264208
Pt      2.17050941      7.62830822      7.26413434
Pt      4.95053672      7.72827560      7.23129349
O       7.90414402      3.72596411      9.56418257
O       2.47605138      7.46881162      9.61011960
O       0.47558113      5.28664631      9.48288070
H       4.72595833      4.04481251      9.55256134
H       7.53162620      4.23162701     10.91068151
O       0.68921541      0.45578194      9.48673586
H       2.88142408      8.44104627      9.69611387
O       9.28566495      0.22752760      9.49577440
H      10.82391572      0.58339362      9.60330133
H       1.25597675      5.24902033     10.08118764
H       7.41822229      1.79146074     11.21093724
H       2.25422287      3.08273892     10.12852685
H       9.52435442      8.93750546      9.77441529
C       9.02431636      4.50134540      9.59068456
H       3.25833519      6.78016579      9.54202333
O       8.10828971      1.15802624     11.32355354
H       6.73731856      5.16138767     11.95039789
H       8.95530596      5.46914260     10.14531500
O       5.16945682      3.07843792      9.55580222
O       2.18907283      2.41071196      9.37248783
H       1.24308574      1.33494806      9.61639819
H      11.34391643      7.90722730      9.65356297
O      10.41283082      7.63021993      9.42450016
H       4.58385365      2.47981738     10.15083182
O       6.15687353      1.38187044     13.54722582
O       4.21957285      5.55977846      9.29710189
H       9.98450988      4.03499634      9.86059010
H       8.43736989      7.77350054     16.89650378
H       6.25119825      2.00800539     14.28541965
H      11.11428214      6.13099645      9.77607820
H       8.44919491      8.34740690     13.42078424
H       6.13582813      0.51720881     14.02223599
O       7.24866659      4.29994430     11.98264851
O       7.81824740      7.15911092     16.40986560
H       5.15510789      5.91834170      9.42510533
H       9.57153452     -0.35983029     13.43712947
H       7.42641804      6.60363458     17.15129601
H       8.47339138      6.71601664     14.62844384
H       2.27061722      7.44222277     11.63016439
H       8.35001375      0.89367802     12.28580655
O      12.48186879      7.40135639     12.01627916
O       8.41188592      6.68631485     13.59857511
O       8.59428161     -0.30379682     13.55325258
Cl      7.15963531      7.13396467      9.89489147
H       3.38898886      2.02183581     12.29285026
O      10.00232414      4.52881483     12.96047864
H       9.07227297      4.24739285     12.75251935
Cl      2.17238829      4.34168468     11.81592545
O       5.71036931      3.87921949     14.97643120
H      12.31112158      6.43483518     12.18683233
O       4.05694742      1.64484299     11.70545707
H      10.60799780      4.17596579     12.31131125
H       4.84262494      4.44593762     14.84741130
H       6.27612541      4.03181843     14.20784481
H       9.30468648      6.38077481     13.26494131
H       0.54348566      0.35221818     13.78832796
O       3.30376017      4.92167739     14.67553013
H       3.29823548      5.95168067     14.69922838
H       3.20249554      1.14428002      9.63327812
H       4.88185485      1.60464359     12.32677811
H       6.65599475      8.36611728     15.85511456
H       1.58440315      0.64712677     16.90338901
H       3.21219698      4.72312954     13.71228543
H       8.80861785      0.52087358     15.25472153
H       5.17648978      8.44425730     15.47488330
O      11.28534145      0.10646793     12.94689193
H      11.77115066     -0.76390656     12.66118125
O       2.08466275      0.99606343     17.69594629
O       3.58341002      0.26613647      9.40176672
O       5.92211420      9.03014347     15.74186056
H       1.98241276      1.95993085     17.64760131
H       2.55859544      7.74323572     15.03295050
O       9.02165597      1.21665370     15.99104432
O      11.70020268      0.40282119     15.70369812
O       3.49171385      7.51255447     14.79656542
H      10.83899783      0.87511290     15.93343011
H       8.93649499      3.13392265     16.44654581
O       9.05109943      3.85657909     17.05130466
H       4.84164099      0.38179714      9.38628322
H       8.76899994      0.62546138     16.76371759
H       5.00150122     -0.14557874     17.40665811
H       3.69059429      0.49245091     18.02852949
H      11.46996299     -0.58512181     15.97098164
H       8.17377785      4.04522938     17.37830104
H       9.80806824      4.87362321     16.03444163
O       4.58570120      0.08749204     18.27707961
H       3.65267459      7.95480630     13.91976629
H       6.14421790      4.84384404     16.57455379
H       5.42665289      1.72555286     18.68584035
O      10.63032295      5.20526913     15.54486042
O       5.98411779      2.46082092     18.99464155
O       4.08726576      8.53464600     12.16566595
H      10.51937988      5.03753201     14.56150458
O       6.35401254      5.02575851     17.51665629
H       3.88071213     -0.23868825     11.73833877
H       5.94967585      3.22550958     18.40153704
H       4.78998626      8.28720219     11.57000568
H       8.01053890      0.09092314     18.74312328
H      11.13491262      6.72520032     15.84604415
H       3.89103639      8.44070456     19.52825419
O       8.77708968     -0.37082839     18.40986700
H       5.47972633      5.08705520     17.96753368
O       0.64031268      7.46414571     16.08266329
O       3.44188763      7.80161569     20.06370711
H       3.68384619      7.88244349     20.98608981
H       9.70137693     -0.09056877     18.80322074
O      10.43206419      3.43086552     19.44803469
H       0.87624865      7.16981785     17.02242909
H       0.98433675      3.55476011     19.90895246
H       0.89032571      4.38672716     16.58065842
O       8.25425304      7.07507452     20.30417201
H      10.05960062      3.51921830     18.52636753
H       2.36691498      4.17193908     19.60265260
O       1.93928003      3.64894535     20.24763242
H       7.56910643      7.49352412     20.91344931
H       8.41306361      1.63739835     21.04455660
H       2.25996292      4.19475046     16.06919212
H       8.46422766      7.90581519     19.77901756
H       9.51584862      3.14537278     19.91469592
O       1.73617109      4.07419714     16.86494486
O      11.26396646     -0.07693265     19.50839105
O       8.26786307      2.61274161     20.68772022
H       2.00802133      7.44115360     19.66650392
H       9.62082231      6.28648958     20.50211217
H      11.54494964     -1.01819080     19.36186807
O       9.50074784     10.07594642     21.39581262
H      12.06821452      0.46740398     19.18472919
H      10.24564345      0.11020269     20.78149886
O       1.17949290      7.18211608     19.12046407
O      10.45821975      5.73236948     20.67918854
H       7.39172707      2.60209558     20.20169438
H       9.76970873      9.73714564     22.27787442
H       7.20388347      7.79627747     23.43599397
H       2.61647733      3.45892568     21.58332595
H      10.26061441      4.79484173     20.37963700
O       6.91095698      6.97745149     22.87110941
H       0.76844721      6.46830033     19.63929570
H       5.06115342      7.30965965     22.76105483
H       7.41399262      6.23361559     23.29317980
O       2.76302464      3.34801527     22.62019054
O      10.48247248      8.96743361     23.99481763
O       4.14480979      7.72811119     22.82670131
O       7.32187707      1.47622569     23.37066943
H       9.51378468      3.07506606     22.27097658
H       1.90424383      2.96538462     22.92055404
H       3.53429780      7.02482205     23.21305245
H      10.80668774      8.05705073     23.67199297
H       6.52924916      2.09535889     23.55485108
H       8.07934857      2.09293910     23.46430391
H       4.15030949      2.70414760     23.32288011
H      11.20930108      0.06403964     24.00371667
H       2.65242547      4.89688506     23.24119380
O      11.35665044      6.50756698     23.00637286
H       1.12047621      6.29004381     23.29967024
O       2.49165271      5.76534683     23.77031002
O       4.91769757      2.48384685     23.99958483
O       9.62568401      2.95517256     23.32267507
O       0.78963835      1.52147714     23.63623873
O       9.03125962      5.48508891     23.99100427
H       7.64058627      0.33319368     24.29342485
H       4.58329810      8.91856422     24.05867308
H      11.04269223      2.06614438     23.63771046
H       9.09583510      5.52688460     24.99570369
H      11.04266444      6.11077291     22.16192011
H       9.32533652      3.86292986     23.66844070
H       4.52609807      0.87981603     24.55795459
H       9.05689469      9.06324196     24.59449718
H       4.67952743      3.09130254     24.76580559
H       2.76563021      5.58852210     24.73230978
O       8.01897787      9.12343611     24.75522647
O       4.76864541      9.59735470     24.74337116
H       1.17009223      1.67053517     24.58926644
H       9.96851812      5.88845097     23.63531642
Pt      2.29847187      9.16292089      0.20616749
Pt      5.09216928      9.05527314      0.07727008
Pt      7.99199177      9.00123663      0.11464569
Pt     10.66285230      9.13146695      0.26832969
Pt      7.83308528      4.36714795      0.22833046
Pt      3.62599076      6.69637102      0.16873825
Pt      9.37700015      6.74493105      0.20430280
Pt      6.35924062      6.60005944      0.18143378
Pt     10.48862918      4.30070135      0.16373911
Pt      0.95138878      6.74468515      0.15886958
Pt      9.10357194      1.88520651      0.27434883
Pt      6.31724987      1.97589545      0.32036640
Pt      2.13894479      4.33624928     -0.02898864
Pt      5.03101265      4.25938358      0.20433835
Pt      0.82424201      1.97178900      0.29874224
Pt      3.57304021      2.01629095      0.25141310
H       8.69235225      0.77479002     10.21117656
O       3.63868936      5.26747749     18.45024853
H       2.84748491      5.08700804     17.85299092
H       3.51868408      6.17598106     18.75378963
O       6.03867004      0.38807390      9.41531003
H       6.33620578      9.13918286      9.72846699
