   243
 Tv_1:  11.152900   0.000000   0.000000 Tv_2:   0.000000   9.658700   0.000000 Tv_3:   0.000000   0.000000  26.829700
Pt      5.32153260      7.83565245      2.45800124
Pt      6.59761837      0.63987421      2.71751873
Pt     10.77107703      7.71998573      2.63560557
Pt      8.00673574      7.81391658      2.42238976
Pt      7.99957293      2.81866918      2.66827385
Pt      2.57896735      7.68622576      2.55579333
Pt      9.44404589      5.29683235      2.61681684
Pt      6.64006896      5.32919226      2.61240244
Pt      5.23483059      2.97404968      2.58399367
Pt      3.85478272      5.33865420      2.71211048
Pt      9.45440678      0.53734573      2.63280189
Pt      0.88715961      5.39379878      2.66229150
Pt      1.05793984      0.48170151      2.52956708
Pt      2.38444432      3.10949481      2.69045124
Pt      3.77587044      0.59018500      2.64993638
Pt     10.84544804      2.86747368      2.58891991
Pt      5.59420009      6.29496273      4.84916144
Pt      8.46407269      6.46738321      4.82721893
Pt      7.08333736      8.73758897      4.91042761
Pt      7.00313966      3.86560952      4.90138142
Pt      8.50944384      1.49557123      4.99641824
Pt      5.68798671      1.54951072      4.99501826
Pt      9.75600146      4.01753932      4.87200513
Pt      9.78655947      8.76346884      5.01341892
Pt      1.52161109      8.76321582      4.92646378
Pt      0.11919257      6.52095227      5.06038311
Pt      2.80632911      1.57139076      4.95088661
Pt      2.80814021      6.50263824      4.94192423
Pt      4.38931776      8.80703154      4.89181144
Pt      4.17305785      3.85425771      5.02437303
Pt      0.10497510      1.55058330      4.82750439
Pt      1.41580796      4.04486094      5.13035542
Pt      7.75760127      2.81581450      7.27993137
Pt     10.65481029      7.60241910      7.43793236
Pt      9.03844442      5.23995161      7.35750774
Pt      9.08904551      0.38093665      7.48621840
Pt      6.46421076      0.27129363      7.44792512
Pt      3.56766604      5.16430246      7.38483707
Pt      3.64384677      0.42924791      7.13589734
Pt      7.89670995      7.58050279      7.18848696
Pt      4.92538351      2.79052940      7.39248545
Pt      1.98998990      2.86633179      7.49344832
Pt      0.73348435      5.24035142      7.40189051
Pt     10.45931231      2.85298312      7.15843419
Pt      6.43561051      5.15510739      7.42495618
Pt      0.75730580      0.44483963      7.17973314
Pt      2.22163459      7.70820893      7.33921084
Pt      5.09744240      7.43462715      7.29782741
O       7.11994049      5.08922692      9.49198151
O       2.48554777      7.85330543      9.40185886
O       0.78663703      5.36235010      9.66366981
H       5.76912382      3.67758501      9.76785291
H       7.19794381      6.49823224     10.47941705
O       0.62787258      0.46341765      9.45285658
H       3.08832125      8.84238321      9.58480599
O       9.21065242      0.18148047      9.57653595
H      10.75369306      0.49461762      9.49794912
H       1.72388659      5.59247881      9.82683972
H       7.18466625      2.07435488     11.48104086
H       1.66685518      3.31113727      9.91631120
H       9.37776468      8.88712712      9.67909494
C       8.51149303      5.07077609      9.37004392
H       3.08290758      7.08247040      9.82999810
O       8.06417381      2.26325967     11.14317751
H       6.00744154      7.36912565     11.21039978
H       9.02034842      5.93561168      9.91661064
O       4.98688562      3.09133658      9.62630687
O       2.03458128      2.48524463      9.57447143
H       1.08558808      1.32343990      9.64516816
H      11.53546039      8.08748846      9.61511807
O      10.71402654      7.63086708      9.50104093
H       4.89519929      2.44707508     10.55083793
O       6.27323236      1.44490488     13.63058760
O       3.42939057      5.39874305      9.40798937
H       8.95526291      4.10045104      9.67225703
H       8.38048967      8.64002579     16.25420107
H       6.61188025      2.17304130     14.19052069
H       0.15676232      6.11075383      9.78778045
H       7.84361344      8.11071899     12.31473020
H       5.99877052      0.79494654     14.27303724
O       6.94125806      7.39522293     10.92670190
O       8.10135796      8.10139824     15.55006784
H       3.80528734      4.54479446      9.77124263
H      10.29530378      1.94333121     13.51690624
H       8.78534366      7.32851868     15.68548893
H       8.31418940      8.49944382     13.94588044
H       0.20427280      7.59690978     12.34260827
H       8.88415883      2.33526761     12.77693757
O      -0.67907762      6.94790032     12.33650296
O       8.55033448      8.47658143     12.97395342
O       9.44938922      2.49542644     13.60227270
Cl      4.10256867      7.69260014     12.23557626
H       3.62742022      2.20342143     11.93262177
O      10.82686458      4.77885742     13.75882690
H      10.24953335      3.96458731     13.70847058
Cl      2.14007746      3.70594396     12.34841009
O       6.71703332      4.14690866     14.91069016
H      -0.71735101      6.06193382     12.88957832
O       4.54169754      1.79449823     11.66352126
H       0.57950480      4.50208454     13.50030118
H       5.88542858      4.48097225     14.43496458
H       7.47251008      4.79638764     14.69725549
H       9.58349283      7.61579560     12.57640258
H       1.35183114      2.16321822     12.97457626
O       4.48512703      5.02079921     13.77225705
H       4.45958288      5.94334690     13.40067114
H       3.22184473      1.06785820      9.63713774
H       5.07646341      1.75518132     12.51495494
H       6.38278734      8.76467766     15.91243243
H       1.93246967      2.00406394     17.07338195
H       3.84733158      4.45448690     13.23569082
H       9.45414518      2.25443144     15.25643426
H       4.81583704      8.65556114     15.81252344
O       0.82475156      1.37454594     13.43205597
H       1.19500790      1.54889316     14.30785505
O       2.63900613      2.49927349     17.51028248
O       3.73838682      0.35739188      9.30591123
O       5.56845140      9.32600974     15.89093510
H       2.71136733      3.22288141     16.88470830
H       2.92102345      8.38692174     15.35165151
O       9.71895399      2.19359071     16.29606374
O       1.03322504      0.87644441     16.13031925
O       3.67678332      7.74252433     15.27514559
H       0.16399563      1.32458583     16.39467086
H       9.69742280      3.66011861     17.23938704
O       9.54316351      4.40728867     17.89715296
H       5.25836688      9.72034725      9.74624131
H       9.14689370     11.10381163     16.71886710
H       5.00508844      9.81147691     17.43785535
H       3.96649669      1.23472068     17.92154832
H       0.80172438      9.54399880     16.28720999
H       8.52388789      4.35327005     17.91762616
H       9.68667729      5.75898122     16.89478162
O       4.58783235      0.57348826     18.28989752
H       3.73712455      7.72869021     14.28159883
H       6.75283128      3.92847337     16.61001177
H       5.89426949      1.40603047     18.79098934
O      10.09743454      6.34894084     16.19781729
O       6.82247906      1.63508970     19.05599765
O       1.25220043      8.38267938     12.42738818
H      10.29547342      5.66513729     15.47224228
O       6.83259668      3.94513485     17.63265766
H       1.16463455      9.30792092     12.80045416
H       6.87210161      2.43775304     18.48205698
H       2.17639578      8.22861946     12.04633961
H       7.93110837      9.85368344     18.30615914
H       0.11896891      7.50508314     16.58110132
H       4.41169111      8.84795179     19.52383473
O       8.64697267      9.70875062     17.71659753
H       6.00534574      4.42265926     18.00074904
O       0.95630891      8.02706978     16.64762088
O       4.17400778      7.94020523     19.77766211
H       4.56611193      7.85228176     20.71842337
H       9.47570276      9.79213172     18.25140902
O      10.98350300      3.46516906     20.03766394
H       1.33291256      7.88966931     17.58336738
H       2.89972473      3.16965915     19.12715081
H       2.35518106      5.85448072     16.22139629
O       9.03432050      7.52458461     21.47987839
H      10.68771879      3.75434698     19.12771212
H       3.91709101      4.36112100     19.40192110
O       3.38437504      3.61338455     19.85981642
H       8.34948643      7.22567038     22.09540246
H       8.43287923      2.16645290     21.47126893
H       3.55706315      5.32360538     15.45531985
H       8.88337084      8.51163316     21.50514219
H      10.11766107      3.30928473     20.43860499
O       2.98059088      5.09819910     16.19995773
O      10.93269622     10.11125976     19.38248465
O       8.13601051      3.07726797     21.23871883
H       2.41774305      8.02225074     19.43053620
H      10.47393527      6.67391377     21.18469937
H      11.69356700      9.43123359     19.35332445
O       9.10749548     10.25950439     21.46093388
H      11.32101974     10.99906723     19.37202789
H       9.86812366     10.24363651     20.76671258
O       1.44296519      8.00936198     19.24266393
O      11.45310770      6.39833077     21.04407049
H       7.56165949      3.00226100     20.46839941
H       9.56904693     10.23794144     22.42210859
H       7.19975094      7.10467832     24.24408335
H       2.86673735      3.24618623     21.16410689
H       0.29545119      5.49677248     20.73167096
O       7.19625731      6.74149691     23.30605335
H       0.96804044      7.40592402     19.93743425
H       5.72408681      7.57898420     22.78870179
H       7.15257518      5.78627434     23.48064919
O       2.71584813      3.16494045     22.18763479
O      10.39904397      9.68122293     24.06550012
O       4.79101762      7.88079051     22.65149895
O       6.77618320      1.94937787     24.45233108
H       8.02061950      3.81674207     22.62598389
H       1.93157488      2.73597357     22.52381622
H       4.20736970      7.17480575     22.91821881
H      10.95891891      8.81760392     24.10533126
H       5.86710535      2.11341867     24.05419843
H       7.39459217      2.75417382     24.21556118
H       3.59669552      2.63139358     23.25736731
H      11.02343883     10.41906043     24.07305954
H       3.17648940      4.86595693     23.06267928
O      11.74843843      7.48553769     23.73363731
H       1.47533268      7.30533108     24.12473550
O       3.05123407      5.68879948     23.54995928
O       4.20580820      2.32229807     24.10235632
O       7.98884587      4.04714343     23.60671666
O       0.86963102      2.22742428     23.96109565
O      10.48897049      4.88738402     23.76593575
H       7.35449160      0.32910055     24.55644200
H       4.40232297      8.74744856     23.99921229
H       0.27268700      3.01510212     23.82329557
H      10.63817282      5.19641034     24.66802865
H      11.86669236      7.55598314     22.80047791
H       8.89161777      4.50598139     23.64850717
H       4.36902689      0.69011269     24.57690738
H       8.99347946      9.50931354     24.60397826
H       4.01519428      2.89616038     24.88705426
H       3.25523293      5.44104944     24.42537398
O       8.00038227      9.21277513     24.74177262
O       4.41242613      9.39015134     24.82676512
H       1.16136700      2.41672315     24.92237680
H      11.08253691      5.52938202     23.32662434
Pt      2.38780506      9.11604550      0.32255648
Pt      4.97297473      8.97844727      0.02747966
Pt      7.80980519      8.94992541     26.81554840
Pt     10.74344563      9.16432192      0.36084473
Pt      7.98891768      4.20823085      0.24349869
Pt      3.87938127      6.53205767      0.18587192
Pt      9.43973450      6.62460370      0.24199223
Pt      6.59095056      6.63318499      0.27421198
Pt     10.82067150      4.32844429      0.21664402
Pt      0.90450608      6.81108013      0.16853477
Pt      9.45127264      1.91970967      0.37826049
Pt      6.54578800      1.76615283      0.14420992
Pt      2.52309639      4.20086387      0.22787730
Pt      5.27026974      4.17014172      0.04817845
Pt      0.89702367      1.92023310      0.21257971
Pt      3.87229588      1.86846456      0.35082428
H       8.26541150      1.54271525     10.55930805
O       4.69705123      5.60557989     18.41874491
H       4.12587988      5.55937179     17.67240017
H       4.72524233      6.48081414     18.84497287
O       6.34012715      0.03938824      9.68117693
H       6.55002087      8.80230387      9.99409827
