   243
 Tv_1:  11.152900   0.000000   0.000000 Tv_2:   0.000000   9.658700   0.000000 Tv_3:   0.000000   0.000000  26.829700
Pt      5.28526072      7.95017589      2.39659509
Pt      6.63715396      0.59269650      2.56977159
Pt     10.94891981      7.86358767      2.66151893
Pt      7.96877867      7.81018692      2.44589718
Pt      8.17997688      3.03271795      2.71671917
Pt      2.54164983      7.83062475      2.56182980
Pt      9.52092077      5.43662094      2.52555445
Pt      6.69755024      5.45662502      2.64799422
Pt      5.29797912      2.97832216      2.57080935
Pt      3.84653224      5.31638306      2.68727510
Pt      9.41556365      0.52983997      2.68470674
Pt      1.12776676      5.33820649      2.67833326
Pt      1.09925906      0.53753783      2.60451860
Pt      2.46468408      2.91234630      2.70360570
Pt      3.91205725      0.65498291      2.55006850
Pt     10.89588190      2.87856766      2.70131989
Pt      5.76539826      6.50720892      4.92545446
Pt      8.51342919      6.53271043      4.83511768
Pt      7.18634883      8.92280958      4.85101548
Pt      7.31790673      4.09902744      4.93051483
Pt      8.50916741      1.61017599      4.91138235
Pt      5.69563042      1.65707054      5.00851256
Pt      9.95534965      4.08956534      4.97846022
Pt      9.99525899      8.81048403      4.98746496
Pt      1.55679436      8.96002706      5.00081247
Pt      0.16096330      6.41347310      4.88536294
Pt      3.06426563      1.70196599      4.91524514
Pt      3.00920613      6.50732635      4.95923283
Pt      4.39347020      9.00607122      4.88276165
Pt      4.48540135      4.08749175      5.09883599
Pt      0.20045530      1.58410837      4.93470025
Pt      1.54018468      3.98422113      4.97804891
Pt      7.78046138      2.83650184      7.26333426
Pt     10.56759051      7.71553189      7.24459408
Pt      9.08414385      5.28030710      7.45454882
Pt      8.99692412      0.38874587      7.29283254
Pt      6.21515785      0.13001406      7.27381082
Pt      3.62565285      5.20559611      7.42621257
Pt      3.43290445      0.27219978      7.22543036
Pt      7.69798978      7.63205976      7.22751631
Pt      4.90806641      2.60352173      7.36681276
Pt      2.14177290      2.59501659      7.27008887
Pt      0.74247498      5.11871879      7.35233861
Pt     10.63234467      2.70828719      7.34704522
Pt      6.35465035      5.31902548      7.42496109
Pt      0.67693956      0.39192319      7.35171111
Pt      2.06794813      7.60936779      7.24601828
Pt      4.67840955      7.56208397      7.20376480
O       7.01587242      5.36798112      9.49240301
O       1.98611213      8.13063077      9.49758220
O       0.59791924      5.29573633      9.43869717
H       4.43111895      4.09486142      9.60776485
H       6.55379003      6.89307023     10.24530933
O      -0.50562589      2.87733051      9.88658350
H       2.66992635      8.98557140      9.45126816
O       8.95425266     -0.21522956      9.55278587
H       9.40608927      0.46395730     10.04604256
H       0.00792773      4.50076287      9.60145926
H       6.73838984      2.92147442      9.64362829
H       2.22969094      3.40251597      9.63626057
H       9.53163655      8.61587079      9.62300477
C       8.36521786      5.26930283      9.44056199
H       2.50793527      7.56006371     10.13523325
O       7.69135484      2.59094538      9.41985730
H       5.56753024      7.77621499     11.19290972
H       8.93207702      6.10802082      9.85141900
O       5.10956076      2.94244452      9.41962552
O       2.05940055      2.46080699      9.39255329
H      -0.72534432      3.11849436     10.81108985
H      11.36272179      7.91892438      9.58651071
O      10.57451056      7.51683622      9.24021022
H       4.68961773      2.38746832     10.21582492
O       5.61696649      0.85521182     13.58811804
O       3.66718762      4.95926438      9.48045274
H       8.60051609      4.23748509      9.57272816
H       8.28160568      8.28527461     16.03840264
H       5.51564328      1.63043187     14.18158411
H      -0.07579074      6.11158979      9.45865313
H       7.80982474      7.72592843     12.37406053
H       5.05485613      0.15883614     14.07150653
O       6.47561121      7.76458224     10.84771166
O       8.18167045      7.65424133     15.30250474
H       3.81483208      5.69930314     10.09925602
H       8.35323730      0.20081540     12.39637501
H       8.80769352      6.95699133     15.50841341
H       8.50209139      8.05347516     13.85498816
H       0.11539810      9.34728411     11.92491362
H       6.95623236      0.83277927     12.53255234
O       0.15097584      7.75316319     12.47479904
O       8.54066880      8.12838256     12.85693985
O       7.89513364      1.07050635     12.17644023
Cl      3.45355048      7.03013618     11.60957356
H       3.38355544      2.34887774     12.12552860
O       8.49338017      2.81475589     13.88922105
H       8.39169221      2.16220801     13.14210118
Cl     -0.51448494      4.82810961     12.55162025
O       6.07432056      3.13972861     15.07936412
H       0.39541890      6.84558046     12.17662321
O       4.06792782      1.90049466     11.56008444
H      -2.05010385      3.51330664     13.51276667
H       5.52511561      3.79419998     14.60561737
H       7.07600159      3.27922605     14.82166596
H      10.27485596      7.66961022     12.49439802
H       1.21035461      3.20495169     12.76223689
O       3.90502444      4.65746820     14.00754924
H       3.76659988      5.45968290     13.41885752
H       3.09145851      1.17597923      9.45146606
H       4.72243006      1.43817872     12.16411216
H       4.73965046      7.71537516     14.40090934
H       1.73827100      2.08693136     16.85336873
H       3.18234599      4.04610050     13.66041775
H       9.37074966      2.01917005     14.99664205
H       3.38842599      8.61589725     14.44673528
O       1.96354791      2.76471297     13.14331415
H       1.68280892      2.18381367     13.84270944
O       2.29326317      2.53336698     17.59222930
O       3.55906125      0.30550788      9.19792161
O       4.36073395      8.54199019     14.67244610
H       2.83268367      3.27127691     17.21978206
H       1.50929440      7.93470093     15.44426098
O       9.70264867      1.73601228     15.93478197
O       1.01289257      1.39529900     15.41696881
O       1.66825772      8.44968264     14.59547951
H       0.09874414      1.32316009     15.71932261
H       9.68227840      3.02188385     16.78199710
O       9.56426519      3.87709083     17.39246814
H       5.18939454      9.90521339      9.64839656
H       9.01947227     10.73584394     16.32275787
H       4.25593458     10.02890372     17.19141604
H       3.37456124      1.49787076     17.82908607
H       1.35252869     10.10010664     15.22864096
H       8.62954494      3.86816843     17.63381918
H       9.86976716      4.93482702     16.20476683
O       4.09887974      0.81286636     18.01097128
H       1.09460140      8.08540321     13.87078378
H       6.39726663      3.63798213     16.88743665
H       5.65723061      1.29335965     18.52207564
O      10.15033042      5.72991582     15.60193757
O       6.59337684      1.41636554     18.90385098
O       0.04010473     10.04142316     11.28398539
H      10.31564416      5.42538706     14.72516055
O       6.83296904      3.88307866     17.80533811
H       0.96681708     10.38476592     11.39641535
H       6.85882393      2.37844668     18.67144464
H       0.44388946     12.17355477      9.88090166
H       7.72465291     10.19142158     18.10409038
H       0.37354295      6.15544216     16.22771170
H       4.05865685      9.19273654     19.57963274
O       8.36575836      9.84733438     17.45086640
H       6.24207592      4.51242870     18.20679906
O       1.23724131      6.45080959     16.54393055
O       3.85120335      8.30900148     19.98824016
H       4.19998631      8.39728778     20.86429024
H       9.20944872      9.68129589     17.95717713
O      10.46384315      2.76432639     19.74605084
H       1.22965663      6.84666902     17.45706422
H       1.93689890      3.35180042     19.04157572
H       2.53276037      5.46967108     16.54203652
O       8.20856834      6.44192333     20.79989961
H      10.25871745      3.22200156     18.86232503
H       2.94445823      4.46085631     19.51795323
O       2.02405499      4.11160772     19.71448992
H       8.00615881      6.58798118     19.88767553
H       8.29924468      0.97178239     21.43431654
H       3.88728200      4.92338972     15.86956178
H       8.34166576      7.35944111     21.13042791
H       9.58890002      2.71600858     20.18866407
O       3.35972579      4.83531140     16.68036074
O      10.57741742      9.55730368     19.34686684
O       8.08073841      1.89935388     21.18662322
H       2.16435667      7.82876596     19.29717003
H      10.31322822      6.34978733     20.56210948
H      11.37275486      9.13335215     18.95331973
O       8.91568693      9.06833811     21.33277488
H      10.63920406     10.53004524     19.59828530
H       9.51190477      9.34167536     20.54909786
O       1.23540555      7.69550700     18.93704586
O      11.21762147      6.14461926     20.91818469
H       7.20340239      1.84856343     20.81242778
H       9.60347689      9.05767808     22.06806704
H       7.34268587      5.90454107     23.45183363
H       2.33412577      3.29939097     21.34757616
H       0.36918832      5.33207304     20.35634106
O       6.53523209      5.69896619     22.95847928
H       0.90173521      7.15030941     19.71271445
H       5.47919586      7.05726426     23.13125237
H       6.81184236      5.47328972     22.08460692
O       2.51491989      3.46292643     22.31753095
O      10.51720709      9.69061432     23.59604283
O       4.65846262      7.70668810     23.02003279
O       6.75764971      2.26765892     24.78080439
H       8.53777478      2.79257410     22.62659647
H       1.68525795      3.14578292     22.79628383
H       3.90715303      7.02823994     23.11241752
H      10.95378282      8.82711734     24.01232468
H       5.91918619      2.68917866     24.48323543
H       7.54937425      2.90069004     24.40562405
H       3.61267980      2.68470992     23.32393431
H      10.95118300     10.57111826     23.80718166
H       2.62447706      5.26961870     23.07207034
O      11.46761647      7.12803622     24.00895079
H       0.60061762      6.97462568     24.95627403
O       2.59395562      6.10225476     23.51768340
O       4.19595798      2.63844894     24.11221932
O       8.81240651      3.14394859     23.50913663
O       0.36754357      2.57449226     23.95473613
O       9.02725811      5.69260220     24.23338997
H       7.52029133      0.84531424     24.50038944
H       4.85428259      8.74529940     23.96039743
H      -0.60603532      2.85230635     23.80046119
H       9.29646666      5.53368158     25.16035648
H      12.26328393      6.80861107     23.45191531
H       8.97820644      4.07579879     23.51916232
H       4.69946115      0.72310030     24.36883052
H       9.04187917      9.91844578     24.31758904
H       3.83710401      3.10202363     24.90180537
H       2.58314855      5.93489080     24.47781466
O       8.09401052      9.67668968     24.60255505
O       5.10411263      9.53909410     24.63696210
H       0.52638343      2.62517717     24.91415403
H       9.77772764      6.28621012     24.11173465
Pt      2.48647972      9.19797458      0.22390853
Pt      5.13623379      9.08669689      0.00148095
Pt      8.01488663      9.18020892     26.78976206
Pt     10.69888534      9.25558952      0.24699578
Pt      8.09955207      4.36280777      0.25158246
Pt      3.85734081      6.60223480      0.30699914
Pt      9.55847224      6.80822735      0.22735552
Pt      6.65493820      6.61830499      0.24869528
Pt     10.81670503      4.18505184      0.28388672
Pt      1.11482555      6.73658146      0.22583409
Pt      9.42241465      1.88405751      0.23193813
Pt      6.69158586      1.91093734      0.23391317
Pt      2.43326761      4.31430056      0.14682737
Pt      5.22255466      4.29347114      0.14569128
Pt      1.14708281      1.81191650      0.17788668
Pt      3.87985704      1.86693293      0.15735834
H       7.54781981      1.63660237      9.55644074
O       4.47238274      5.29484657     19.03870281
H       4.01950974      5.18083912     18.17821191
H       4.37804562      6.24477159     19.21667262
O       6.18332695      0.21038299      9.50715106
H       6.51609411      9.00092497     10.03451225
