   244
 Tv_1:  11.152900   0.000000   0.000000 Tv_2:   0.000000   9.658700   0.000000 Tv_3:   0.000000   0.000000  26.829700
Pt      5.63239952      7.82408882      1.78501226
Pt      6.99779982      0.69567245      2.04772037
Pt      0.09327285      7.88975548      1.89517629
Pt      8.47245788      7.77219932      2.06084688
Pt      8.46754427      3.00711686      2.05194133
Pt      2.74409912      7.67586207      1.95025251
Pt      9.88819324      5.41105560      2.06602407
Pt      7.00524471      5.34103271      1.97712145
Pt      5.65081614      3.03685540      2.01216064
Pt      4.19041870      5.33377250      1.97258188
Pt      9.76621524      0.66411357      2.07843874
Pt      1.45071368      5.36740436      2.23417766
Pt      1.42967085      0.53067448      1.98326095
Pt      2.84026480      2.89918851      1.92848636
Pt      4.21110970      0.45700441      2.10606657
Pt      0.04295442      2.96852363      2.01786018
Pt      5.63873274      6.43910039      4.15727397
Pt      8.36309198      6.53305561      4.34342715
Pt      6.82889335      8.93794666      4.33888973
Pt      6.82961162      4.09006264      4.44900271
Pt      8.28255284      1.56660815      4.41523972
Pt      5.50441754      1.66629127      4.46319837
Pt      9.67508293      4.06041199      4.43515647
Pt      9.74229848      8.91999318      4.32921650
Pt      1.33540824      8.81592738      4.36375075
Pt     11.08605741      6.49939347      4.44247638
Pt      2.68309456      1.57038590      4.25001272
Pt      2.75587410      6.33470053      4.41707227
Pt      4.00165153      8.72137599      4.28186288
Pt      4.05715719      3.94008427      4.30077908
Pt     -0.08162328      1.55897019      4.40123674
Pt      1.31920125      3.94380902      4.40771319
Pt      6.73876906      2.50971080      6.78461626
Pt      9.51639777      7.33054459      6.69828119
Pt      8.27550562      4.91139921      6.67821623
Pt      8.12210678      0.12236686      6.89441574
Pt      5.11810923      9.76599645      6.68583446
Pt      2.52126697      4.91407865      6.73690861
Pt      2.48079804      9.85554140      6.68453465
Pt      6.83125247      7.36233013      6.48919360
Pt      3.98104240      2.60299588      6.61209139
Pt      1.12370601      2.50305736      6.75085354
Pt     10.83558687      4.86383404      6.73846028
Pt      9.53077595      2.48853794      6.68003029
Pt      5.46164624      4.96918498      6.67960533
Pt     10.91888352      0.15909249      6.70618528
Pt      1.24195538      7.41551506      6.75611990
Pt      4.06924533      7.32302173      6.56596471
O       5.23629159      5.48029375      8.82365828
O       1.66368098      7.29803413      8.91579267
O      11.07760441      4.82778397      9.03560968
H       2.97439278      1.37455419      9.24709166
H       7.02138496      5.60423836      9.70685161
O      10.84686266     -0.12079581      8.94433262
H       2.13247394      8.09405649      9.33497457
H       3.55270747      2.31454495     10.45871152
O       8.34263805      9.53968498      9.02739397
H       9.79682447     -0.00093180      8.94682036
H      10.64705584      5.59803377      9.51262938
H       0.08559796      0.69469692      9.38311854
H       0.88229251      4.94870436      9.30046928
H       6.09585950      1.56936218      9.38258514
H       0.12540034      3.07451534      9.55989822
C       6.13524905      4.98969621      9.84916804
H       2.27646456      6.49691699      9.02561290
O       6.60022531      2.41546255      9.08329218
H       5.07614452      9.27457626      9.73353944
H       6.64743333      9.30991920      9.16568825
H       6.41081943      3.81268506      9.66031657
O       5.68681889      9.64755793      9.06262673
O       3.25638482      2.29336181      9.46630860
O       0.14693562      2.30511431     10.14127307
H       0.70755165      2.55836335     10.89718863
H      10.65522848      7.75962496      9.52520850
O       9.95367595      7.04038993      9.78211591
H       4.44050395      2.29976398     12.90793586
O       4.02318149      2.56583327     12.01905467
O       2.65278736      4.81352127      8.77689364
H       4.27819729      5.09082093      8.96589131
H       5.63080904      5.14713632     10.83972387
H       3.06399799      5.42667588     12.39123932
H       3.47597414      3.36081187     12.31464789
H       9.56578454      7.30610963     10.67559727
H       4.55656767      7.53668539     12.10129545
H       4.49841617     -0.61487838     12.49170327
O       4.58886575      8.42916283     11.70399506
O       3.93299888      5.77668811     12.13117841
H       2.59806316      3.81909707      8.92509447
H       9.50419664      2.04432342     10.59083267
H       4.53305095      5.19230638     12.66757155
H       8.34637679      8.32082278     12.21418040
H      11.06996250      8.17650091     12.31691114
H       8.16510495      1.69390270     11.49815992
O       0.74678761      8.60627971     12.70019328
O       8.99055930     -2.11690598     12.05989405
O       8.60046468      2.41551861     10.95530839
Cl      4.91763464      0.63856682     14.11644662
H       1.90274333     -0.53092180     11.12690150
O       8.98016359      4.87115600     12.54227330
H       8.73015611      4.10132563     11.99050411
Cl      1.17396366      4.25131383     12.59592879
O       7.70849872      0.30803454     12.67400330
H       0.36153476      9.53067893     12.92450680
O       2.49429980     -0.42916158     10.40220347
H       9.99944918      4.82139902     12.56076830
H       8.09987515      0.73533477     13.50639696
H       6.83422216      0.02297072     12.96283073
H       8.66776300     -2.98085391     12.34221445
H       5.48171772     -5.01499368     18.80198742
O       5.77513673      4.73099631     14.49740254
H       5.16603169      4.02914364     14.84421780
H       4.82479915     -1.42010410     14.95501513
H       3.26102625     -0.75486359     10.87681787
H       8.54871225      4.48023586     14.05924245
H       2.96760355      0.92956376     15.30835581
H       5.55914394      5.59663217     14.91592362
H      11.74423630      2.43374215     13.16393854
H       7.32652291      4.21975816     14.88485803
O       6.30045843     -4.53039487     19.23855714
H       6.25207012     -3.60282532     18.78556827
O       2.17077184      1.42573446     15.72812619
O       4.81199226      7.39473252     15.50846561
O       8.28229140      3.96582023     14.88218894
H       1.71143926      1.73546987     14.89929725
H      10.69245364      8.76226547     15.95831778
O       0.44534768      1.54768832     13.54385263
O       1.74858597      7.83393842     15.11035372
O      10.13859862      9.27876213     16.58608644
H       1.75320734      8.66597830     15.55359438
H       2.94025557      2.89151606     15.60932239
O       3.31149139      3.79313592     15.62984310
H       3.83032662      7.23918231     15.58057300
H      10.72497796      1.53895402     14.06372677
H       6.98136547     -2.00609000     17.87821351
H       5.47086948     -2.20431838     17.21985604
H       1.25581721      8.08973279     14.19391535
H       2.46866096      4.39736778     15.62881075
H      12.62055360      6.32552803     15.98836768
O       5.94225635     -2.06162485     18.06876338
H      10.77169464      9.97020930     17.08957867
H       9.14192536      4.55490762     16.14067504
H       9.15792730      0.87472563     15.40568031
O      12.42493320      5.55238955     16.56172140
O       9.11346756      1.40123666     14.62860536
O       0.29862114     11.19493657     17.63296650
H      11.48275395      5.24278614     16.55932859
O       9.78587183      4.87242166     16.84016113
H       0.65538909      1.31580726     18.54814486
H       8.75556347      2.26945664     14.81728965
H       1.08662013     11.17066624     17.04682856
H       9.10077304      8.22934778     17.34566145
H       1.69636260      5.81278003     18.25004449
H       5.27445526     -0.72423985     19.24704035
O       8.59816040      7.45746065     17.72145100
H       9.69514863      4.21157915     17.52202189
O       2.01875525      5.69794962     19.19870238
O       5.46722738     -0.10554032     19.98730476
H       4.67147608      0.58555873     19.99485808
H       8.95565343      6.56127018     17.42377385
O      12.37113611      1.95334003     20.41716891
H       1.89055507      6.66234034     19.63021862
H       2.86122580      2.16081231     20.26934741
H       3.26374094      4.59371677     18.78558876
O       8.61153797      3.80398975     19.43437217
H       1.06188781      1.67886295     21.32134301
H       3.90878005      2.69394736     19.26984167
O       3.84136647      2.10982027     19.99397898
H       7.74351478      4.36722041     19.42778111
H       6.87294761      0.92817756     20.06562070
H       3.56815144      4.10294341     17.37574716
H       8.25604067      2.88774967     19.61650253
H      11.89857595      2.87677958     20.40635776
O       3.95151948      4.11340401     18.30581842
O       1.28679411     -1.60896708     19.89001428
O       7.82254025      1.30242023     20.18126370
H       2.54660983      0.33288272     22.54555053
H      10.28860612      4.30425869     20.25713746
H       1.52360051     -1.10016684     20.65998435
O       9.74160296      8.35385351     20.18391443
H       0.28895554     -1.52141325     19.97337672
H       9.08837955      7.92063137     19.58594880
O       2.06188784     -0.54504465     22.47358098
O      11.25828760      4.34714018     20.45236759
H       8.48031309      0.55491671     20.31473169
H       9.52415824     -1.69685761     21.08255665
H       6.74201614      5.71979914     22.27603697
H       4.80083118      3.04844349     21.43551423
H      11.91132508      4.81344928     19.79263279
O       5.90473123      5.99361557     21.82318661
H       2.78724623      8.49844773     22.66303814
H       5.28175907      8.75240402     21.39009259
H       6.13366373      5.86060175     20.84240889
O       5.04037283      3.44494978     22.30330342
O      11.02538367      9.26759253     24.09605851
O       5.02281507      8.39436682     22.28959106
O      10.10203994      2.14281408     23.77531124
H      11.00732566      4.66547995     22.20362961
H       5.17675994      4.43907116     22.10191144
H       5.27613391      7.43235865     22.23814752
H      11.83590015      8.87588875     23.81537315
H       9.13014520      2.11431499     23.50251095
H      10.45600231      2.96564123     23.45021440
H       6.58929953      2.55765784     22.61207242
H      10.94855762     10.24821513     23.97067752
H       3.48853948      4.80555852     23.52643531
O      12.25090844      6.81302255     24.20325069
H       1.97693624      6.50926792     23.75887784
O       3.42528048      5.78794982     23.45281423
O       7.41171979      1.96755447     22.79670803
O      10.75098799      4.77649445     23.15754042
O       2.98567096      1.74893818     23.36847744
O       8.10297838      5.45778624     23.14675100
H       8.09365365      8.51322581     23.63974699
H       5.92011296      8.97685487     23.37308655
H       3.66405049      2.37160672     23.01704770
H       8.34369356      6.38478695     23.44049750
H      11.61715423      6.12160457     23.91941646
H       9.78999721      5.07844614     23.04984931
H       6.63847981      0.78660037     23.75805631
H       9.65866009      8.31343262     23.47853179
H       7.64276850      1.62704967     21.91755997
H       3.98763814      6.03772704     24.26377000
O       8.77890293      7.98789676     23.14068778
O       6.43100015      9.52620099     24.10095464
H       3.22939296      1.62567973     24.34702364
H       7.90995050      4.75682695     23.84463078
Pt      3.00346001      9.32480867     26.47739802
Pt      5.72121310      9.05546287     26.26503984
Pt      8.51420026      9.30184443     26.68807389
Pt      0.18685906      9.20324051     26.35130837
Pt      8.37740577      4.38720888     26.45641718
Pt      4.34716391      6.85650637     26.43779085
Pt      9.87022207      6.75103740     26.57952535
Pt      7.04252635      6.74436413     26.43948770
Pt      0.23321305      4.23241451     26.49144248
Pt      1.66996429      6.80254824     26.40037946
Pt      9.83832893      1.92459996     26.41421475
Pt      7.08091445      1.95166177     26.53273316
Pt      2.91471194      4.33955945     26.45684166
Pt      5.69015069      4.26724586     26.36663919
Pt      1.57570835      1.94712398     26.33262573
Pt      4.38047682      1.87853693     26.53328548
H       8.46438061      8.59514045      9.20222246
H       7.55408848      2.36323704      9.59828734
