   244
 Tv_1:  11.152900   0.000000   0.000000 Tv_2:   0.000000   9.658700   0.000000 Tv_3:   0.000000   0.000000  26.829700
Pt      5.73382668      7.76824624      1.92162741
Pt      7.23496670      0.53319424      2.02881592
Pt      0.15020712      7.84906920      2.01876781
Pt      8.48294482      7.81143561      1.95501743
Pt      8.54292870      3.08391187      2.09414477
Pt      3.00567696      7.80531100      2.06526714
Pt     10.13268599      5.40481140      2.20846206
Pt      7.20105421      5.43577241      2.07581585
Pt      5.82001422      2.93568276      2.10566073
Pt      4.35193802      5.34282668      1.96853020
Pt      9.92392908      0.51616339      2.14779386
Pt      1.62509009      5.42287002      2.00314779
Pt      1.51829179      0.52363258      2.05923307
Pt      2.86256192      2.98211728      2.14295369
Pt      4.34041250      0.57301718      2.17291650
Pt      0.13049057      2.97255624      2.09205281
Pt      5.50571253      6.40006625      4.28323405
Pt      8.23514893      6.45770838      4.35527548
Pt      6.77445102      8.89005306      4.27330195
Pt      6.88023751      4.03393643      4.31646194
Pt      8.26151417      1.66181970      4.33509667
Pt      5.59422913      1.59084683      4.33216625
Pt      9.79526615      4.05096807      4.44399945
Pt      9.61638546      8.80592402      4.39022574
Pt      1.30822447      8.80608910      4.32960593
Pt     11.05259624      6.46027593      4.58630425
Pt      2.61218712      1.62359459      4.46665531
Pt      2.68951366      6.36801800      4.34927056
Pt      4.02779963      8.84718774      4.45498765
Pt      4.08604943      3.88424120      4.52080748
Pt     -0.23896134      1.59182920      4.46264651
Pt      1.35420636      3.92998777      4.32754200
Pt      6.51661330      2.63049205      6.70806182
Pt      9.38131331      7.25977305      6.59988543
Pt      7.82811284      4.91370636      6.69158322
Pt      7.97793870      0.13711017      6.70311378
Pt      5.18115719      9.69171597      6.73055768
Pt      2.28843570      4.93498106      6.75039146
Pt      2.40405893      9.73686821      6.72574534
Pt      6.65927562      7.35068361      6.60903940
Pt      3.54826406      2.60446131      6.83797600
Pt      0.90488203      2.59886439      6.73957536
Pt     10.50922344      4.85489628      6.91311869
Pt      9.34193226      2.53978533      6.77757333
Pt      5.10463128      5.05981914      6.81615685
Pt     10.65818480      0.15333479      6.72900029
Pt      0.93175418      7.44609002      6.82164633
Pt      3.70863395      7.28378693      6.62641278
O       4.67840756      6.43863839      9.22130990
O       1.33245030      7.54370674      9.02243407
O      10.88771382      5.05842469      9.10851406
H       2.53496999      1.64995029      9.30002007
H       6.73700011      6.36362589      9.42446017
O      10.62161379      0.14309574      8.96463016
H       1.59799606      8.43974728      9.51344674
H       3.88814146      2.39351743      9.90477882
O       8.15669603      9.41685740      8.93437167
H       9.56007218      0.17978497      8.88767499
H      10.49863106      5.85533349      9.62786452
H      -0.40106317      1.10375826      9.13853169
H       0.73342171      5.10922923      9.12007061
H       5.95107994      2.15288063      9.03058812
H      -0.39809431      3.40235821      9.46357948
C       5.85759261      5.68828520      9.66632374
H       1.96764479      6.82474785      9.13737376
O       6.39891249      3.00101711      8.89638430
H       5.08283277      9.44680055      9.49492137
H       6.68127773      9.72432746      8.97618422
H       6.01564549      4.64227087      9.27594071
O       5.74759052     10.06703319      8.86073173
O       3.20284719      2.32847198      9.10597155
O      -0.23497063      2.45577271      9.78353312
H       0.20544019      2.55216298     10.69152787
H       9.88085750      7.75867979     10.43923673
O       9.44817224      7.00793514      9.94592755
H       4.73272988      2.32645382     12.00464322
O       4.69644466      2.95189005     11.22800375
O       2.37141494      4.84424250      8.92691928
H       3.82571155      5.87912411      9.44044861
H       5.72201817      5.52554548     10.74769005
H       2.47803608      4.75412819     12.20140111
H       4.14838982      3.74568396     11.53893362
H       8.94117321      6.48859901     10.63256678
H       4.44719843      7.73184654     10.07531576
H       4.75670487     -0.79097589     11.39959423
O       4.36030745      8.66239761     10.46987032
O       3.45203895      5.05364685     12.14706735
H       2.48439457      3.93334655      9.21974370
H       9.15018488      2.66861993     10.23764907
H       3.69719559      5.79606078     12.70761244
H       8.72258002      9.77137759     12.55652214
H      10.88049749      9.22510220     12.53373702
H       8.07796793      2.42590006     11.43076049
O       0.68129338      9.41165295     12.50923668
O       9.15151337     -0.77814572     12.43353165
O       8.22876215      2.85701462     10.58988092
Cl      5.32004551      0.03488413     13.25254076
H       1.35286603     -0.01599141     11.05238374
O       8.92104947      5.07699018     11.93522167
H       8.69443052      4.37538586     11.31263083
Cl      0.52473089      4.04459989     12.42056465
O       7.89244639      1.68152395     13.11289033
H       0.61548522     10.13075184     13.20929109
O       1.88946873      0.06617474     10.20678058
H       9.83746674      4.77521192     12.16692293
H       7.65020882      2.49836314     13.67610263
H       7.13444413      1.13132145     13.29019528
H       9.14520834     -1.16204634     13.36484581
H       4.71905420     -4.37551447     18.84520449
O       5.30500996      5.35125577     15.70425551
H       4.52854349      4.70788562     15.83986442
H       4.57561648     -1.78986061     13.88371283
H       2.77417598     -0.17708567     10.43623592
H       7.81273014      4.60772005     13.34571811
H       4.35865542      1.59341396     14.65905223
H       4.94118710      6.14293665     15.29293601
H      11.79907025      2.68031504     13.65877316
H       6.52745803      4.47680625     14.44932143
O       5.42206669     -3.83643745     18.43202946
H       5.46588320     -3.95902165     17.43377531
O       3.52478032      1.80682544     15.11682438
O       4.04586467      7.02710985     14.09973153
O       7.42926451      4.13464889     14.15692626
H       2.79799767      1.60996927     14.57431477
H      10.52986247      7.86711780     15.35194126
O       0.50661181      1.82757750     14.20533538
O       1.36462607      7.73013776     14.82418406
O       9.57162530      8.24962409     15.26206088
H       1.87724638      8.40958269     15.33329775
H       2.83834449      3.35280933     15.99562305
O       2.85782283      4.31443618     16.23979177
H       3.06924485      7.17558834     14.24525357
H      10.89769135      1.79256802     14.76002552
H       5.03111978     -2.15867903     18.41431658
H       5.55247096     -0.80439545     17.94376229
H       1.07029480      8.25640661     14.04846135
H       1.89945506      4.66825125     16.18908806
H      11.97898866      6.23219588     15.65639585
O       4.88549255     -1.20622552     18.45964334
H       9.61245060      9.20664549     15.52886775
H       8.53465447      4.13253832     15.49291061
H      10.52670523      1.07340579     16.99438354
O      11.67556754      5.71527732     16.49540131
O      10.09432729      1.31207911     16.16065808
O       2.69419909      9.38696750     16.70475216
H      10.91846784      5.14212184     16.20594333
O       9.24456577      4.10450498     16.20049372
H       3.25617297      0.43453212     16.20750790
H       9.71246694      2.16624000     16.28215594
H       3.24123588      9.00398127     17.42994077
H       6.73952355      5.25592549     19.55183492
H       0.68063569      6.16916245     18.27059506
H       4.43599616     -0.27111074     19.78397317
O       7.41345665      5.09748094     20.24453053
H       8.84470349      4.25670594     17.07249175
O       0.92578088      6.32881080     19.21381646
O       4.40768362      0.40086957     20.52704728
H       3.70445874      1.08911825     20.31902104
H       6.82796923      5.13246058     21.01260875
O      11.58805523      0.88011119     18.31238312
H       0.96517223      7.29624467     19.49232890
H       1.51664155      2.00681467     19.51334022
H       2.28954411      5.49390346     19.15962960
O       8.89204052      2.83249038     19.14751977
H       1.23497577      0.57005810     17.79040564
H       2.61581680      3.21635787     19.51368274
O       2.39401593      2.27786982     19.88845224
H       8.24109616      3.48898898     19.43175814
H       6.07801923      0.72553814     20.80302010
H       2.84581271      4.64429538     17.99964831
H       8.86342127      2.14493051     19.84602394
H      11.45050631      0.08088118     18.85879194
O       2.87947998      4.70972419     18.98819068
O       0.19126749     -0.68770665     20.57692861
O       7.04643662      0.79780935     20.80971612
H       3.10728988     -0.23345488     21.67856429
H      10.41753327      3.50522924     20.03788135
H       0.80084403     -0.43569639     21.26513425
O       7.91874516      8.03977412     21.26093027
H      -0.71935285     -0.79986828     20.93501777
H       7.75233217      7.39717627     20.55119357
O       2.36358396     -0.66790752     22.24996372
O      10.82837580      3.99672671     20.79182704
H       7.17039385      1.39474093     21.58580612
H       7.55709545     -0.71256214     21.00024977
H       5.37248205      4.29232998     23.20892382
H       2.34997270      2.53369865     21.57619598
H      11.30989153      4.70990763     20.35253986
O       5.79519959      5.04041724     22.68956331
H       2.73738094      8.09848997     22.32054306
H       4.66253562      6.41198416     22.96904060
H       6.09767199      5.54035790     23.51698790
O       2.34527418      2.85746259     22.51946711
O      11.46719999      9.37686149     24.48277940
O       4.21347239      7.24194421     23.38192194
O       7.62285049      2.13625924     23.15312049
H       9.48732845      4.28629509     21.86104993
H       1.47350965      2.48939444     22.90330537
H       3.67661027      6.94853203     24.21015789
H      11.21276663      8.00018255     24.04461951
H       6.73540206      2.40398601     23.41845202
H       8.20289809      3.01286052     22.96288390
H       3.72274386      2.75833868     23.21920815
H      12.39391636      9.63889775     24.16580221
H       1.79379395      4.60444899     22.84581659
O      10.88946983      7.10339685     23.50388451
H       0.39744629      6.29383216     23.59759726
O       1.47655331      5.15560633     23.53958486
O       4.63035540      2.80507138     23.66501790
O       9.06385398      4.12568681     22.72450142
O      -0.12756973      2.46568162     23.64089989
O       8.43110288      6.79961497     23.43580250
H       8.48544638     10.51151511     23.81436066
H       5.28334207      8.50778287     23.95530375
H      -0.68401415      3.24007467     23.53595453
H       8.32813731      7.41692182     22.57160470
H       9.76358255      6.98030745     23.61210285
H       8.58556357      4.96313580     22.93025762
H       5.33554285      0.49704550     23.92283479
H       9.94474095      9.80800284     23.89762654
H       4.32918330      3.21411713     24.46257955
H       1.73300482      4.80004171     24.39664411
O       8.98523932      9.65030535     24.03986955
O       5.81821994      9.35025566     24.14460358
H       0.05405113      2.56204210     24.59516003
H       8.20914635      7.30703621     24.23965323
Pt      3.10014648      9.14931766     26.57436937
Pt      5.81038083      9.00236911     26.42190518
Pt      8.84065101      9.13953834     26.38552964
Pt      0.41485329      9.22436824     26.50016172
Pt      8.70853887      4.31412600     26.58221227
Pt      4.42492041      6.67750071     26.33311883
Pt     10.05392895      6.75113861     26.59567940
Pt      7.26522719      6.60945470     26.51723392
Pt      0.38764619      4.33770586     26.54618887
Pt      1.81529123      6.70520082     26.52345596
Pt      9.99349666      1.99559057     26.68394242
Pt      7.36357983      1.90170162     26.56134239
Pt      3.08805377      4.29557110     26.54038746
Pt      5.90515562      4.18791054     26.58134415
Pt      1.86587757      1.90187732     26.54355971
Pt      4.48946582      1.83831545     26.59682713
H       8.52041590      8.52035380      9.08173848
H       7.23019389      2.84725354      9.51542368
