   244
 Tv_1:  11.152900   0.000000   0.000000 Tv_2:   0.000000   9.658700   0.000000 Tv_3:   0.000000   0.000000  26.829700
Pt      5.89227698      7.77836321      1.81029621
Pt      7.20367092      0.50927541      2.04607840
Pt      0.34193193      7.76222850      2.18012419
Pt      8.62934021      7.84421826      1.98374039
Pt      8.76262998      2.97525015      2.09917062
Pt      3.15342273      7.66405650      2.04534195
Pt     10.23040003      5.43729347      2.12503246
Pt      7.42197195      5.33577343      1.96281279
Pt      5.97457246      2.95225120      2.09546221
Pt      4.57988637      5.24779238      1.91234144
Pt     10.04195585      0.59670595      1.91573520
Pt      1.80016259      5.38580549      2.12089456
Pt      1.60114455      0.50896659      1.99656622
Pt      3.15408702      2.86525800      2.13167016
Pt      4.36375894      0.59953561      2.21010166
Pt      0.34506801      2.96419223      2.07033999
Pt      5.56038606      6.40716373      4.19445943
Pt      8.16290062      6.46351347      4.43048024
Pt      6.84739957      8.85427476      4.42842393
Pt      6.98341180      4.04572219      4.36775603
Pt      8.20141458      1.59727079      4.28430034
Pt      5.39150940      1.74795529      4.47244289
Pt      9.77089695      4.09395075      4.40306378
Pt      9.64519141      8.88019939      4.30820146
Pt      1.19866911      8.83516584      4.48910340
Pt     11.02473880      6.54675725      4.64046493
Pt      2.59487943      1.49343088      4.39384937
Pt      2.76022685      6.43522355      4.39915480
Pt      4.09068419      8.85286734      4.44324719
Pt      4.06683811      4.07724348      4.41946702
Pt     -0.18333634      1.54615941      4.34328761
Pt      1.31135675      3.96808498      4.36931541
Pt      6.32499757      2.64208296      6.83516385
Pt      8.94300141      7.41254356      6.76261035
Pt      7.55475068      5.15439427      6.80756132
Pt      7.60602444      0.14338854      6.91220015
Pt      4.90771009      9.95127933      6.89164945
Pt      2.08145273      5.06780500      6.78919928
Pt      2.18597193      9.83053524      6.79206371
Pt      6.18640492      7.41003816      6.70254841
Pt      3.45413127      2.55694153      6.75105579
Pt      0.75124356      2.59372858      6.64852403
Pt     10.38487938      5.07969966      6.89406466
Pt      9.19060280      2.58192304      6.65888253
Pt      4.83771927      5.12637021      6.93693359
Pt     10.45392218      0.28968376      6.79624996
Pt      0.59195795      7.48785409      7.01127241
Pt      3.47490671      7.51306172      6.81076305
O       4.75994587      5.76867030      9.31591697
O       0.82591138      7.64195854      9.17857884
O      10.46106201      4.95103544      8.94937666
H       2.09049015      1.85709571      9.18259536
H       6.73434922      6.14238638      9.73537873
O      10.12899896      0.12712700      9.10926223
H       1.06832602      8.55516514      9.54468903
H       3.26078025      2.39809560     10.13481982
O       7.60147498      9.40815453      9.04006177
H       9.15748927      0.13230406      8.96853986
H       9.86271657      5.65876390      9.29377825
H      -0.70641354      1.02445722      9.42811590
H       0.65937527      5.09697723      9.01390538
H       5.49853716      2.04767030      9.11703731
H      -0.68149607      3.35403719      9.51776532
C       5.97555201      5.49442329     10.08617852
H       1.45194815      6.95281151      9.42070270
O       6.17660505      2.75757572      9.04625674
H       4.59479080      9.54239099      9.73991433
H       6.06268580      9.89023766      9.33887632
H       6.28474471      4.48233639      9.97878889
O       5.13038713     10.14348015      9.10533189
O       2.81519550      2.53255360      9.22222548
O      -0.58612987      2.56167328     10.15125505
H       0.03138912      2.92703926     10.79337002
H      10.04736529      7.59770687      9.88837091
O       9.15258276      7.16542558      9.86031546
H       4.20972567      1.78224136     12.30018785
O       4.24842003      2.35852964     11.50669170
O       1.78701687      5.04959932      8.92461290
H       4.04592745      5.33904067      9.74239988
H       5.80421130      5.74001189     11.11535761
H       2.51625700      5.40315109     11.94357891
H       4.50202717      3.21073099     11.87766439
H       8.79013962      7.30011895     10.81013440
H       3.46502372      7.74272818     10.99422633
H       4.18440340     -0.64693759     11.74004207
O       3.91645512      8.63099723     10.83562422
O       3.16484706      6.15838294     11.72901235
H       1.97319430      4.07570830      9.10932470
H       8.83654269      2.42666121     10.57348418
H       3.38414849      6.43513433     12.70422180
H       8.21526407      8.57946249     12.78004521
H      10.05786870      8.82252232     12.24053619
H       7.76600422      1.82924281     11.63360409
O      -0.18660036      9.16517738     12.35629505
O       8.52569085     -1.97708189     12.51120241
O       7.92244187      2.48790110     10.84231862
Cl      4.61666440      0.42503328     13.56323736
H       0.61123800      0.04404245     11.10504623
O       8.71465772      4.70069436     12.61582007
H       8.50830722      3.95918426     11.96501622
Cl      0.68178225      4.26174917     12.57336406
O       7.77364167      1.03855012     13.17882273
H      -0.33743550      9.94280139     12.92459822
O       1.31474423      0.08005395     10.35635069
H       9.71009504      4.63569498     12.77522211
H       8.04047784      1.58946998     13.87011869
H       6.87296765      0.63677065     13.32961573
H       8.50076074     -2.40189869     13.35474686
H       5.72736154     -3.19173695     19.49173794
O       5.02625551      4.57389199     14.56297642
H       4.21462524      4.18381008     14.92021712
H       3.84320058     -1.63883311     14.18728178
H       2.17055280     -0.26512719     10.72984195
H       8.37107515      3.97071047     14.03461032
H       2.91724971      0.58402808     14.44736964
H       4.95065754      5.57065364     14.56099171
H      11.00691140      2.67933225     13.62138446
H       6.96601859      3.74029313     14.80314762
O       5.08020381     -3.21621035     18.74018917
H       5.45596324     -3.97995964     18.19820915
O       2.05879067      0.72114619     14.89518191
O       3.45352617      7.16137368     14.32941075
O       7.90878992      3.39117863     14.82646083
H       1.31666372      0.93678586     14.19932695
H       7.90742113      6.07895734     15.47462629
O      -0.33682389      1.73648357     13.95210816
O       0.52314497      7.77265701     14.88445896
O       8.52364100      6.78166048     15.20909169
H       0.89283069      8.50498967     15.39019665
H       2.12764360      2.56582297     15.29845835
O       2.40234789      3.50166893     15.27659176
H       2.60478923      7.28795401     14.75009330
H      10.78804127      1.81267525     14.93059182
H       5.45495746     -1.73106563     18.07082196
H       6.38953282     -0.46727720     17.63712442
H       0.52887506      8.01310954     13.95147115
H       1.77258160      3.89140719     14.64766762
H      11.26752546      6.44855681     16.04626381
O       5.53445206     -0.72467668     18.00460088
H       9.40372765      6.35944835     15.29480090
H       8.68171548      3.85799387     16.22590965
H      11.07068118      1.11854983     17.07931606
O      11.20320664      5.90777434     16.86133578
O      10.21151019      1.48336935     16.75851488
O       1.19912082      9.66029784     17.15817327
H      10.47662736      5.26616206     16.91135607
O       9.29894275      4.13563982     16.94164837
H       1.66550005      0.38352595     16.35177514
H       9.91140916      2.38976975     17.09990571
H       1.92054958      9.50330601     17.80859481
H       9.22990752      9.82250426     17.19386729
H       0.96355619      5.75089070     18.55790235
H       4.92620278      0.15850296     19.53197905
O       8.43733683      9.18175677     17.21028191
H       8.70078929      4.25845279     17.80973795
O       1.61935051      5.51220533     19.27598876
O       4.58076930      0.61160874     20.38871264
H       3.95533284      1.36948475     20.07343794
H       8.62537881      8.48534769     16.53800551
O      11.99974207      0.85502703     20.42354279
H       1.79217475      6.33538528     19.75144296
H       2.10560980      2.25558850     19.52511963
H       2.96408326      4.85730413     18.21667308
O       8.04199900      4.18860444     19.38249219
H       0.51711092     -0.14039735     20.32461247
H       3.17574595      3.27612806     19.14934410
O       2.82675780      2.74119736     19.94728088
H       7.88995819      5.00581628     19.94709952
H       6.11696302      1.55697627     20.92615473
H       2.94018043      3.99996289     16.93032556
H       7.40837755      3.50229046     19.77085752
H      11.12339992      1.26553769     20.65443770
O       3.46952280      4.19741587     17.74071543
O       0.33935295     -1.85870215     20.59360785
O       6.81095626      2.26409176     21.07029551
H       1.59224938      0.81186158     21.97918971
H       9.92449364      4.37947950     20.32135075
H       0.40469347     -2.17776418     21.51588724
O       8.91093172      8.28334748     20.07874888
H      -0.67663408     -1.89796379     20.47331141
H       8.71191078      8.27225027     19.13617025
O       1.91805923      0.71481847     22.97056025
O      10.74526382      4.17260066     20.75737823
H       6.46275513      2.66312247     21.93803847
H       8.85075152     -0.50775689     20.52482098
H       7.77852872      7.17986318     20.94565852
H       2.85901058      3.29434818     21.58014966
H      11.44983230      4.69974631     20.27311729
O       7.07240180      6.52602010     20.79770403
H       2.73494622      9.97181988     22.81015947
H       4.51993261      9.05016763     21.56905039
H       7.04790830      6.05744199     21.70788725
O       3.27571077      3.56646969     22.56213876
O      11.40265054      8.78067035     24.28580658
O       4.44735696      8.77847757     22.56850887
O       9.11558916      1.15657075     21.49356212
H      10.30346199      4.26421827     22.38649716
H       2.74777499      2.91827860     23.12134411
H       4.27029775      7.79045157     22.68227301
H      11.53498161      7.88129461     23.97396488
H       8.19165208      1.67023915     21.26708970
H       8.85877409      0.68401570     22.31605871
H       4.88365615      3.05032859     23.02108628
H      12.06689437      9.31663609     23.83048336
H       3.44109581      5.32782240     22.82546815
O      11.83580454      6.50953405     23.21959874
H       1.63469238      6.18417261     23.26374297
O       3.50343920      6.24963000     23.26986302
O       5.84059960      2.86228913     23.31411261
O      10.15101370      4.49653021     23.31802699
O      -1.22831056      1.93394283     24.28226952
O       7.70658246      5.74390426     23.26048228
H       7.51465723      8.72165523     23.67018985
H       5.23206697      9.37651419     23.64622376
H      -1.00600680      2.86735921     24.02161089
H       8.09134862      6.71873535     23.27346964
H      11.18157069      5.75114677     23.32561904
H       9.22298932      4.77187750     23.50410269
H       6.17028738      1.03860266     23.90525809
H       8.93085732      8.28703296     24.16542011
H       6.12979970      3.43146785     24.13391480
H       3.81914891      6.08355332     24.17379108
O       8.36946308      8.37887569     23.34021224
O       5.97004051      9.79195716     24.21242827
H      -0.51903932      1.49906742     23.77044223
H       7.09705751      5.68627204     24.04305458
Pt      3.25018825      9.08336798     26.44654230
Pt      6.02608952      9.08148330     26.34650997
Pt      8.77517698      9.20480800     26.47121960
Pt      0.59373221      9.12413207     26.47660110
Pt      8.83777765      4.26326151     26.44375660
Pt      4.64667650      6.66870942     26.42819384
Pt     10.29415250      6.64576291     26.53120791
Pt      7.61135282      6.70056098     26.49289355
Pt      0.42258913      4.21346582     26.51086307
Pt      1.96541580      6.66660145     26.52148673
Pt     10.18551638      1.93173501     26.46612329
Pt      7.36456829      1.91703152     26.46253924
Pt      3.20092501      4.27540035     26.51970719
Pt      6.09252603      4.24217332     26.42186845
Pt      1.91145405      1.78113091     26.51075686
Pt      4.74065708      1.85561445     26.41026747
H       7.76252495      8.46621466      8.99662040
H       6.90229325      2.55737453      9.75871340
