   244
 Tv_1:  11.152900   0.000000   0.000000 Tv_2:   0.000000   9.658700   0.000000 Tv_3:   0.000000   0.000000  26.829700
Pt      5.79320226      7.88904837      1.97124954
Pt      7.18565614      0.63685844      2.05660777
Pt     -0.05641340      7.76837800      2.12487195
Pt      8.37007873      7.79075563      2.05545360
Pt      8.50990671      3.06787630      2.15408461
Pt      3.04574906      7.71230419      2.08003630
Pt      9.85136061      5.34687301      2.10422127
Pt      7.04552223      5.41337841      2.00770656
Pt      5.80077452      2.96545467      2.00007643
Pt      4.20346400      5.36122919      2.03970652
Pt      9.95554137      0.65535874      2.07186384
Pt      1.55051318      5.44581823      2.15817074
Pt      1.45051317      0.47456713      2.08278718
Pt      2.90494606      2.88692252      2.02866082
Pt      4.29411800      0.60567255      2.12492310
Pt      0.12811198      3.02249676      2.11012558
Pt      5.36608196      6.50712580      4.21232968
Pt      8.15349123      6.42031215      4.44113976
Pt      6.82567408      8.93203338      4.31331105
Pt      6.68145261      4.05282083      4.31904257
Pt      8.26770325      1.65294749      4.40282066
Pt      5.49109093      1.69793768      4.49651748
Pt      9.62343069      3.95570221      4.38433618
Pt      9.53362905      8.88257205      4.41486495
Pt      1.20432748      8.61258460      4.29596199
Pt     10.86146046      6.29829659      4.45972331
Pt      2.60185778      1.53836285      4.30370610
Pt      2.59889764      6.35006591      4.42023071
Pt      4.12471243      8.89094334      4.46491856
Pt      4.07001897      4.01074072      4.47459625
Pt     -0.13606321      1.46217266      4.32157379
Pt      1.31590434      4.00030706      4.48707429
Pt      6.38857448      2.42688482      6.92000892
Pt      9.44879349      7.45769293      6.66561740
Pt      7.85000600      4.98005702      6.64281814
Pt      7.91901624      0.03502675      6.72511474
Pt      5.09691812      9.64960409      6.82737111
Pt      2.37979669      4.87304078      6.86012172
Pt      2.34852476      9.71441137      6.57474050
Pt      6.52015161      7.37644389      6.56774283
Pt      3.66675649      2.38700631      6.68927958
Pt      0.98120232      2.45537213      6.60905149
Pt     10.55876306      4.87500491      6.78376619
Pt      9.15871389      2.57400416      6.79711298
Pt      5.27372908      5.03903771      6.74813995
Pt     10.71313272      0.13600091      6.73112929
Pt      1.08007087      7.36326869      6.67664042
Pt      3.69162331      7.42060013      6.78956856
O       5.06335844      5.50772986      8.67463090
O       0.66027033      7.31685883      8.87769758
O      10.58831977      5.10351903      8.96412323
H       2.58676853      1.60344272      9.27400575
H       6.67197043      6.77497669      8.81707334
O      10.71363705     -0.03525564      8.91772348
H      -0.16194054      8.70892930      9.08202037
H       3.85764746      2.35511187      9.87046401
O       7.98919604      9.59757920      9.53806616
H       8.78056454      0.38729840      9.11319432
H       9.59841787      5.22109354      9.05587710
H       0.25513444      0.53352423      9.34406792
H       0.06139805      6.38379767      9.01811999
H       5.86510867      2.79292828      9.64399600
H      -0.15733369      3.73962072      9.63396269
C       6.11914865      6.01489260      9.45054310
H       1.50086661      7.24067035      9.37471104
O       6.50721948      3.08175640      8.97641286
H       4.77362176      9.01477257      9.70622098
H       6.25129485      9.50102575      9.35366950
H       6.91010685      5.25541362      9.68365488
O       5.27904690      9.74685679      9.16090166
O       3.25326842      2.37842564      9.10806684
O      -0.03203364      2.84218537     10.02736149
H       0.50345104      3.02680119     10.82988426
H       9.77873039      8.64706712     11.68996573
O       9.60385766      8.04706388     10.90753584
H       5.08114180      2.34172130     11.77492647
O       4.96902964      2.90306435     10.99896025
O       2.55441687      4.86214597      8.98873176
H       3.46115971      5.34825115      9.14995918
H       5.74910695      6.48264649     10.34411816
H       3.15789863      5.38553875     11.97982242
H       4.65136106      3.80578658     11.39216282
H       9.47654726      7.16580905     11.32528837
H       4.12872523      7.21722960     10.88081841
H       4.06151901     -1.10464594     11.72583316
O       3.89357220      8.14562535     10.79426133
O       4.21363117      5.32560436     11.86449039
H       2.71375843      3.80244347      9.13715143
H       9.61349442      2.65537037     10.48445795
H       4.66624076      5.39700514     12.76515768
H       9.23693196     10.54702216     13.23265908
H      11.45804157     10.75170309     12.81491123
H       8.16373013      2.29003341     11.22169441
O       1.03659220     11.19499267     12.33395101
O       9.99356542      0.29550789     13.15670191
O       8.63039825      2.93187506     10.63089390
Cl      4.45062038      0.50496198     13.06529875
H       1.43958968      0.86642552     11.02042414
O       9.14808006      5.29129672     11.82559233
H       8.95366732      4.61471210     11.13717941
Cl      1.13098597      5.10913498     12.06077022
O       7.31429276      1.63955707     13.33479495
H       1.75624789     11.34705139     12.98109160
O       1.78614054      0.49103327     10.15786241
H      10.11737644      5.25289612     11.77031365
H       7.07228787      2.22949265     14.16915952
H       6.64106386      0.88208034     13.39242802
H       9.98336613     -0.41795219     13.89939840
H       5.61369528     -2.72286877     16.49388812
O       5.45890760      5.53008081     14.34445292
H       5.23543925      4.84256848     15.01009674
H       3.13979531     -1.48054859     14.00867554
H       1.80278174     -0.45679343     10.38587348
H       8.31115968      5.49402445     13.63621437
H       3.76486438      1.14976728     14.68654816
H       4.68744737      6.12607671     14.51808358
H      12.04620072      2.89455008     15.23402780
H       7.20044884      6.06492364     14.49629247
O       5.56582399     -1.76361751     16.27426396
H       4.86939319     -1.76833045     15.52849365
O       3.40384138      1.58408040     15.55934404
O       3.31887868      7.33731432     14.45809810
O       8.18314107      5.85052667     14.55060045
H       2.40197436      1.63578084     15.74746338
H       9.03157204      7.37209830     14.81546789
O       0.88178349      2.00275113     15.75820937
O       1.24850474      7.13861027     15.98580157
O       9.76661799      8.05196543     15.04859776
H       1.34096351      7.32732695     16.96227836
H       3.95802323      3.30367776     16.02405085
O       3.79634784      4.26377687     16.14892006
H       2.48738681      7.42264356     15.03803096
H      11.23687867      1.98146929     16.32192825
H       4.47517740     -0.56943313     17.34594377
H       3.58410125      0.61483901     16.97885791
H       0.46074788      7.53171983     15.66484902
H       2.99083970      4.23589364     15.50962559
H      12.36805935      5.11582160     15.14089003
O       3.77654834      0.01141880     17.71574558
H       9.34554822      8.35562054     15.83563950
H       8.07583067      4.12245595     15.33751446
H      10.10876904      2.28662673     18.12200794
O      12.59871017      4.31053676     14.69952333
O       9.63588864      2.03891983     17.29909655
O       1.79120825      7.87569268     18.53848832
H      12.37279230      4.58587686     13.68693002
O       7.85825926      3.27555245     15.78548828
H       2.44549370     -1.08907348     18.26015528
H       9.03082871      2.67233169     16.88098159
H       1.22374494      8.17887358     19.33390378
H       9.20901344     10.05056064     17.31344395
H      -0.85668583      5.51382646     18.63136745
H       3.70472545      0.77508608     19.14541104
O       8.87316172      9.13430788     17.51857862
H       7.41238046      3.49542203     16.68036272
O      -0.28971472      4.76537619     18.83123752
O       3.94532023      1.09706079     20.07399008
H       3.37392920      1.89462770     20.15086753
H       7.88768763      9.08716780     17.35343505
O      11.36085389      1.94059790     20.02340005
H       0.55246089      5.25802344     19.08026561
H       1.62597901      3.15836169     19.97132201
H       2.79631628      6.23389316     18.51321463
O       7.08524746      3.79194020     18.61826743
H       0.21764003      1.13109242     20.53728561
H       2.81612846      4.35430366     19.63587313
O       2.45608899      3.61432454     20.25335726
H       6.90662645      4.75596967     18.91322423
H       5.73052085      1.77186855     21.10340167
H       3.51582280      5.12067059     17.58337009
H       6.24070769      3.34929294     18.80076393
H      10.77364018      2.52835336     20.51040734
O       3.48840801      5.52823410     18.50471218
O       0.09212903     -2.24283504     20.48145777
O       6.38975340      2.27931003     21.68314675
H       2.60123334      1.45050755     24.44508593
H       8.39949973      3.39433583     20.40012602
H       0.26643468     -2.69314349     21.31934092
O       8.87597981      8.64512109     20.23008885
H      -0.78209114     -1.73402915     20.59250895
H       9.04502911      8.95632360     19.33154478
O       2.17117446      1.14568298     23.59720703
O       9.23568429      3.61115439     20.86674182
H       5.87713651      3.03781112     22.09104677
H       8.92895656     -0.25048994     20.82723888
H       7.29485869      7.37279477     19.51971549
H       2.49992878      3.78827854     21.91458342
H       9.66960674      4.15621728     20.21743719
O       6.62590093      6.80404135     19.02913732
H       2.81742997     10.29421307     23.09784681
H       4.10172460      9.58300653     21.36724964
H       5.79724013      7.04697474     19.45993450
O       2.70608689      3.77240958     22.89446477
O      11.76813651      8.91572172     24.21424688
O       3.87656852      9.22352251     22.25363565
O       8.71051712      1.08839616     22.33566411
H       9.64577946      4.72971076     22.21792812
H       2.28368825      2.93209288     23.06058639
H       4.22015056      8.24270057     22.31410712
H      12.08955320      8.01712434     24.07185243
H       7.90149975      1.65179429     22.16157964
H       9.33331848      1.75736206     22.79562212
H       4.30491678      3.66678512     23.19398494
H      12.41297872      9.66081178     23.99198243
H       4.89267371      5.86035766     23.33381286
O      12.10040854      6.54932815     23.01332081
H       1.76191526      5.99109793     22.85314722
O       4.90079464      6.85731361     23.22751280
O       5.19727525      4.12064983     23.26460338
O       9.77736163      5.06463160     23.14935011
O      -0.43244031      2.45406800     23.40263125
O       7.56886205      6.77122554     24.04545755
H       8.80856212      9.62857173     23.47471251
H       5.16063060      9.64990672     23.59584183
H      -0.53502364      3.42219130     23.59677845
H       8.19811129      7.59644448     23.95249989
H      11.45187321      5.81586026     23.29593082
H       8.88416328      5.16951156     23.54458803
H       6.39871262      0.91087593     23.77356350
H      10.02299387      8.68590946     24.01670897
H       5.53481073      3.94424587     24.24453349
H       4.60247263      7.00573907     24.18647973
O       9.04683307      8.90515183     24.20150014
O       6.05971711      9.59344106     23.95829367
H      -0.03641065      2.08879562     24.26504962
H       6.68160904      6.95248615     23.74318091
Pt      3.22689885      9.10618455     26.57109028
Pt      5.85736448      9.16814212     26.33864310
Pt      8.79276954      9.11090476     26.60247343
Pt      0.40804502      9.17541753     26.55281182
Pt      8.58055032      4.33017678     26.49762380
Pt      4.46603638      6.64474896     26.51026679
Pt     10.06770260      6.70804202     26.58990054
Pt      7.29546254      6.66034422     26.53275293
Pt      0.23396766      4.32404848     26.54956002
Pt      1.66728001      6.55467615     26.54654393
Pt     10.09925111      1.93505676     26.49648047
Pt      7.38593629      1.86549341     26.40951819
Pt      3.05908161      4.26044886     26.54164151
Pt      5.90909039      4.33782944     26.45165105
Pt      1.75939295      1.96390065     26.60399252
Pt      4.40737543      1.93238983     26.48125284
H       8.49784467      8.87569863     10.04241688
H       7.44423613      2.99519112      9.35267573
