   244
 Tv_1:  11.152900   0.000000   0.000000 Tv_2:   0.000000   9.658700   0.000000 Tv_3:   0.000000   0.000000  26.829700
Pt      6.03094588      7.79444820      1.81444944
Pt      7.24413306      0.54857724      2.04954771
Pt      0.44687208      7.58105085      2.01781056
Pt      8.79550193      7.72006106      1.99237563
Pt      8.47933424      2.93337939      2.14219457
Pt      3.28554792      7.68313812      1.91982209
Pt     10.05361873      5.14757202      2.12782628
Pt      7.23453604      5.33542821      2.05254299
Pt      5.71401565      2.86406315      2.13698593
Pt      4.54253757      5.33884428      1.96804605
Pt     10.01568031      0.32482029      2.05726655
Pt      1.78611289      5.30181948      2.00183046
Pt      1.65879941      0.38615293      2.08712852
Pt      2.98861498      2.85489233      2.03565815
Pt      4.47406248      0.49386360      1.98367996
Pt      0.28492353      2.75061366      2.15115268
Pt      5.65617863      6.31580525      4.22385695
Pt      8.28261311      6.35634163      4.40798073
Pt      6.85368072      8.67670439      4.21757007
Pt      6.87240817      3.89360089      4.33447227
Pt      8.18513863      1.37878543      4.43081383
Pt      5.52988869      1.57037011      4.45431482
Pt      9.72731659      3.76289101      4.33973005
Pt      9.78408251      8.64778819      4.44838299
Pt      1.36647466      8.71741765      4.33373009
Pt     10.97521264      6.27696746      4.37544652
Pt      2.69811824      1.58617877      4.34264211
Pt      2.69490778      6.35505956      4.25566572
Pt      4.04395046      8.80034659      4.22395298
Pt      4.10394243      4.00772192      4.31665573
Pt     -0.10467822      1.33520017      4.37844281
Pt      1.33006121      3.99236914      4.36335279
Pt      6.06296033      2.61026080      6.86856005
Pt      8.92711680      7.44624635      6.71878532
Pt      7.42142621      5.01431546      6.70140002
Pt      7.57650522      0.14023207      6.75966807
Pt      4.60589296      9.99811875      6.72668466
Pt      1.93044568      5.19258497      6.78017304
Pt      1.90737162     10.01603233      6.82303814
Pt      6.19250690      7.53183831      6.57731890
Pt      3.28230723      2.84038529      6.61602082
Pt      0.49029238      2.67210915      6.63481461
Pt     10.27289865      4.98539961      6.75997814
Pt      8.77225156      2.65971808      6.65886368
Pt      4.66466248      5.17929430      6.67366680
Pt     10.37477458      0.32023216      6.80838027
Pt      0.47585792      7.61442029      6.72070481
Pt      3.31359070      7.66006802      6.58191175
O       4.40778663      5.15753621      8.79275245
O       0.58615002      7.74334967      8.94057642
O      10.28307030      5.26878681      9.12642758
H       2.06306546      1.72588081      8.79908151
H       6.43063669      5.67729597      8.85796764
O      10.15362738      0.11858833      9.03396373
H       0.12522894      8.57858758      9.24227378
H       2.74267501      2.27545668     10.12370744
O       7.62437513      9.51573673      8.90815318
H       8.78182210      0.10784518      9.10816264
H       9.67347060      6.01610252      9.44276093
H      -0.72528304      0.98108130      9.42313855
H      -0.01068047      5.50164213      9.46088811
H       5.52311379      2.87104415      9.98314035
H      -1.28005550      3.36877231      9.52672645
C       5.52042072      5.79424773      9.48174450
H       1.52299686      7.92063574      9.33393757
O       6.27179996      2.94922150      9.33674706
H       4.14027322      9.15179627      9.34375500
H       5.75465290      9.58558953      9.29249704
H       5.81069364      5.27921834     10.42362826
O       4.86430611      9.74420027      8.88202890
O       1.97466530      1.66110939      9.81198866
O      -1.04305768      2.63280666     10.16577545
H      -0.49740414      3.16207292     10.76260454
H       8.79431055      7.48431159     10.75884615
O       8.60415399      6.81060439     10.01690481
H       4.29317627      1.99155761     11.55007111
O       4.21101625      2.80491638     11.07933332
O       2.00684339      4.92324910      9.05333199
H       3.07867306      5.07620857      9.18114791
H       5.38179498      6.90173706      9.47132620
H       2.42789029      4.94880210     12.75179661
H       3.97567345      3.54565578     11.69700382
H       8.26371846      5.97011229     10.55788180
H       3.70060010      6.70493675     12.03383613
H       3.71031915     -1.64623651     12.83797372
O       3.82546386      7.66989950     11.96644822
O       3.43072911      4.88413926     12.75073478
H       1.76934249      4.01928672      9.34836214
H       8.71679981      1.88744926     10.94274290
H       3.79491706      5.17080459     13.58102788
H       8.73882288      9.65013311     11.77487938
H      11.33811353      9.29448120     12.14889296
H       7.34684088      1.77428121     11.87563977
O       0.91180790      9.49151768     12.81397144
O       9.25735655     -0.80936219     12.08136632
O       7.89785978      1.35038520     11.12997671
Cl      4.49281894      0.88487728     13.67073606
H       2.25990301     -0.10102198     10.01160056
O       7.90131773      5.13243635     11.82184669
H       7.34339843      4.30797151     11.89253117
Cl      0.25461270      4.68131414     12.34766785
O       6.70638337      2.97231286     12.99757414
H       0.76886673     10.41788802     13.05519612
O       2.71460476     -1.01621822      9.92183485
H       8.80972244      4.79371291     11.77736790
H       7.42905167      2.74907267     13.62570772
H       5.90261142      2.42316285     13.25000898
H       9.16431250     -0.83506751     13.07625772
H       5.94546298      0.32162440     15.73127972
O       4.43042808      5.84844486     15.15856455
H       3.74841047      5.30304415     15.63513795
H       3.64265484     -0.54217738     14.81030215
H       3.01382133     -1.34554228     10.76951281
H       7.40809636      5.36282279     13.60907036
H       3.21653954      2.14793242     14.78063633
H       4.04092226      6.72957852     15.11104359
H      11.34599639      3.02162033     13.33412730
H       6.20789066      5.71106690     14.61395809
O       6.89384414      0.45562003     15.98043742
H       7.42043906     -0.30488430     15.61834405
O       2.50746769      2.42311857     15.45799982
O       3.24681242      8.32137975     15.31491203
O       7.19640004      5.79320270     14.53983303
H       1.65272579      2.38326658     14.95572261
H       7.84891408      7.42742079     14.66039521
O       0.21721800      2.14993159     13.86221646
O       0.33735697      8.50870223     15.28811962
O       8.35742798      8.30008484     14.67598992
H       0.08712883      9.23344640     15.96837449
H       2.39610328      3.95424065     16.19459668
O       2.47130408      4.88666359     16.61388158
H       2.29834745      8.33769145     15.19147859
H      10.54661253      2.13641111     14.42256406
H       2.57457759     -0.13157628     17.21888928
H       2.46253430      1.35921002     16.73949814
H       0.35686906      8.92406286     14.36472478
H       1.53363117      5.18368272     16.57461036
H      11.07264992      7.17188298     16.04838248
O       2.35524939      0.74064733     17.53261224
H       9.29837558      8.01684755     14.96106121
H       8.07625807      5.35860220     15.86905855
H       7.96364823      1.75573049     15.56926969
O      11.04472667      6.48304166     16.81677333
O       8.53140997      2.44537425     15.09879046
O      -0.27129118     10.22705379     17.91027608
H      10.14632071      6.03152634     16.81036196
O       8.65485113      5.09719005     16.63758133
H       0.69648356      0.35563866     17.90440895
H       8.70665589      3.11171263     15.80365506
H      -0.73545730      9.63429394     18.53334907
H       6.81743085      9.07429954     18.86221949
H       0.48447058      6.58429190     18.17152464
H       6.20238229      1.37195573     19.69997456
O       7.23900013      9.97346402     18.73519255
H       8.11144788      5.05538895     17.40870523
O       0.84099339      6.60137809     19.15280819
O       5.78367813      1.66207636     20.55581668
H       4.93161046      2.11997018     20.30429594
H       6.99683669     10.13873915     17.80757887
O      11.85203300      2.21424774     19.57367860
H       0.35554793      7.30654835     19.67230274
H       2.73010547      2.73526700     19.87375885
H       2.40675477      6.20930221     19.25562058
O       7.71801524      5.27295706     19.43924794
H       0.09224026      1.79799827     18.96546660
H       3.30490438      4.13634677     19.71217126
O       3.49732166      3.27729490     20.22032211
H       7.99450879      6.23718373     19.49775287
H       6.44752455      2.98741816     21.54778813
H       3.46910127      5.57644282     18.28436610
H       6.91696610      5.32157284     20.00469424
H      11.37502895      2.92995573     19.92247901
O       3.35848579      5.91953336     19.18538890
O      -0.73097334     -1.01262804     20.43006937
O       6.65968345      3.53253051     22.38437254
H       1.75669819      0.96237694     20.71437506
H       9.50094304      4.70222732     19.95002149
H      -0.34858000     -0.27497711     21.03199814
O       8.02578681      7.94841163     21.10191654
H      -1.59828112     -1.38351907     20.80785887
H       7.82609870      8.82632019     21.46673175
O       2.07480300      0.86148786     21.66330825
O      10.45310584      4.65607656     20.25561269
H       7.47836509      3.14887333     22.67857832
H       7.86008477     -2.40052160     21.81691926
H       5.09943675      5.64734728     21.52958662
H       2.58852444      3.12364992     21.86471697
H      11.05662052      5.27374348     19.78125547
O       5.46960574      6.19558818     20.79144012
H       2.86533686      9.95396737     21.61038934
H       5.23127690      9.56428373     21.33417948
H       4.72957522      6.16318454     20.18430018
O       2.65768693      3.29074700     22.88687115
O      11.48995097      9.27898423     23.64738156
O       4.61340648      8.84764974     21.65507358
O       8.89182965      1.84483420     22.76477848
H      10.73092603      5.01612622     22.08682635
H       1.83470460      2.82297112     23.23102661
H       4.93426948      7.99469583     21.19407091
H      12.13374729      8.55927079     23.91781994
H       9.77808566      2.00841209     23.25119101
H       9.18427095      1.79379597     21.81690899
H       4.00050367      2.52478642     23.69446531
H      11.84782761      9.86284514     22.92762226
H       3.57772307      4.58052312     23.13035671
O      13.04895136      6.93996139     24.19753683
H       2.76679614      6.38552722     23.92431387
O       3.94687819      5.48733931     23.30832287
O       4.90617382      2.20322645     23.98260713
O      10.84478979      5.09430074     23.06993338
O       0.19453178      2.50938450     23.49241837
O       7.77174521      6.14332567     23.13688950
H       8.84792406      9.99253007     23.86932067
H       5.50250444      9.07513253     23.50811684
H       0.01043807      3.52469817     23.48677468
H       7.38432914      6.78651455     23.76713240
H      12.27338930      6.40094622     23.90824004
H       9.93560597      5.28996196     23.43196442
H       5.60423367      0.81928121     24.13432660
H      10.01558823      9.01938750     23.96162833
H       5.54823347      2.81453839     23.60452236
H       4.50313310      5.46335776     24.07860152
O       9.01799177      9.08430972     24.28390761
O       6.07046862      9.58853308     24.13446626
H       0.39343796      2.38328238     24.48524472
H       7.11762322      5.44789630     23.18279979
Pt      3.46060338      8.96510846     26.42777600
Pt      6.20154959      8.97997384     26.22993593
Pt      8.91866370      9.06635804     26.44770618
Pt      0.55366527      9.00443884     26.62550070
Pt      9.02324713      4.14217552     26.50806206
Pt      4.75808205      6.60788695     26.39626095
Pt     10.35614721      6.58310842     26.48905662
Pt      7.73088378      6.45295464     26.48399198
Pt      0.53763834      4.14523440     26.61691578
Pt      2.04136530      6.51342814     26.45561724
Pt     10.42056862      1.76966844     26.52550465
Pt      7.65171311      1.81522585     26.54707877
Pt      3.39029764      4.18658802     26.51360927
Pt      6.18932706      4.20785900     26.48000167
Pt      2.03319510      1.69533915     26.48677915
Pt      4.79107374      1.76807760     26.43092446
H       7.69705321      8.50262267      8.94726872
H       6.98452227      2.29687689      9.50479027
