   244
 Tv_1:  11.152900   0.000000   0.000000 Tv_2:   0.000000   9.658700   0.000000 Tv_3:   0.000000   0.000000  26.829700
Pt      5.63157733      7.77402214      1.91956162
Pt      6.84219100      0.43674560      2.01315208
Pt     -0.02044058      7.70658412      2.09414490
Pt      8.40029548      7.74261090      2.23528721
Pt      8.54881688      2.83753192      2.04502540
Pt      2.86423893      7.59926211      1.94968709
Pt     10.00025613      5.31076570      1.98246892
Pt      7.19537814      5.29133810      1.95814540
Pt      5.80316966      2.85563688      1.98278007
Pt      4.39832705      5.24336504      1.93760476
Pt      9.72930381      0.52526678      2.02041571
Pt      1.60355854      5.30275819      1.88582782
Pt      1.34327768      0.47831463      1.96982049
Pt      2.95146782      2.81281801      1.99924803
Pt      4.05333645      0.41277854      2.10784447
Pt      0.10698249      2.82603549      2.00605483
Pt      5.31921616      6.29055710      4.22585616
Pt      8.21010511      6.33324638      4.36090170
Pt      6.75135376      8.80045790      4.36200202
Pt      6.74862589      3.86998286      4.31086587
Pt      8.12007294      1.56175467      4.42928423
Pt      5.24429844      1.50171981      4.26035181
Pt      9.56883610      4.03803677      4.32323638
Pt      9.45860567      8.83214504      4.43295211
Pt      1.08053013      8.70870822      4.27011236
Pt     10.88314828      6.38835811      4.40786990
Pt      2.48042834      1.48585822      4.34270880
Pt      2.56226271      6.24347782      4.25948696
Pt      3.77591734      8.64934775      4.32337428
Pt      3.89544524      3.88861135      4.31099830
Pt     -0.26282815      1.45566540      4.31894655
Pt      1.18143894      3.98103250      4.22325172
Pt      6.26952764      2.47844672      6.66908160
Pt      9.39362977      7.43449349      6.61534346
Pt      7.97687245      5.06693573      6.72710352
Pt      7.86588066      0.13409189      6.79747628
Pt      5.02542821      9.72097691      6.59840925
Pt      2.30915181      4.86515547      6.61548459
Pt      2.21890928      9.80067271      6.65849706
Pt      6.44422848      7.30799548      6.52878947
Pt      3.49289189      2.42535386      6.72946638
Pt      0.93978267      2.60243077      6.55418149
Pt     10.72741267      4.96235523      6.72400303
Pt      9.19186100      2.63518516      6.68559294
Pt      5.12561922      4.94384899      6.71942498
Pt     10.59293220      0.28438636      6.73760537
Pt      1.02043115      7.39403383      6.67115139
Pt      3.67797863      7.37121160      6.66537822
O       4.97290597      5.28461385      8.94393512
O       1.16879459      7.39694981      8.88177689
O      10.48913352      4.94376252      9.28462754
H       3.12689375      1.63736552      9.65095371
H       6.82559768      5.85140990      9.89546556
O      10.50271231      0.70956374      9.14408661
H       1.61540609      8.05418742      9.47338705
H       3.72071043      2.67219510     10.68247445
O       7.90252939      9.82445094      9.00318204
H       9.55355654      1.07230450      9.31687795
H       9.52954710      4.82271426      9.14443850
H      -0.04376322      1.47541269      9.23023379
H      -0.63760208      5.94271250      9.13192359
H       5.03830923      0.54780971      9.85297916
H       0.19654431      3.66350981      9.77312538
C       6.04931868      5.05538168      9.78163823
H       1.57055947      6.54875093      9.22783425
O       6.58496133      2.72350443      8.81867662
H       5.30640663      8.76203123     10.39515622
H       6.86551920      9.49867922      9.28423376
H       6.57673125      3.92325833      9.36266716
O       5.55055967      9.39854944      9.63748239
O       3.89218973      2.06731668      9.97307684
O       0.87685464      2.94591258      9.93989676
H       0.76077707      2.86804181     10.90050298
H      10.28728765      8.08099307      9.56177824
O       9.46349775      7.55526087      9.43442537
H       3.88644880      2.58199916     12.86421531
O       3.40708671      3.32195488     12.44398615
O       2.34532825      4.96545869      8.89041884
H       3.36313012      4.92948361      9.16053484
H       5.68552597      4.86093379     10.78205073
H       5.49999147      5.50965402     14.04420912
H       2.45172920      3.19695272     12.80293024
H       9.22018850      7.27469010     10.42464633
H       5.40719564      7.15005617     12.17968202
H       4.93557885     -1.11046198     12.60077316
O       4.95180167      7.99537898     11.81558888
O       5.31116140      5.86776755     13.11450510
H       2.11204559      4.05966558      9.20647430
H       6.53926859      2.28437735     10.98101964
H       4.48979894      5.47186395     12.73711203
H       8.44499485      7.55594733     12.29607150
H      10.59187723      7.34657487     12.54847765
H       7.34514187      1.54908355     12.09111595
O       0.15709485      7.88284828     12.92409450
O       8.99100318     -2.78776216     11.86675559
O       7.39998507      2.22335488     11.40748774
Cl      5.45190452      0.47464946     14.09946340
H       1.55551010     -1.42201049     11.80585034
O       8.86456700      4.35680774     12.49753838
H       8.34815325      3.64076000     11.99533273
Cl      0.41044251      3.20455683     12.91890719
O       7.99990169     -0.62407798     12.96670744
H      -0.29966558      8.75923260     13.22774191
O       2.13906837     -1.00293689     11.09309973
H       9.84914886      4.13448812     12.26973075
H       8.79334907     -0.11470725     13.25228667
H       7.19789511     -0.49323262     13.54253656
H       8.88067498     -3.81331510     12.10360932
H       5.39834926     -5.18476719     18.96585683
O       5.71231066      5.40785117     15.71534116
H       5.01923751      4.70429730     15.88767410
H       5.23349836     -1.04996731     15.83219907
H       3.03500849     -1.41375103     11.11916945
H       8.80079285      4.30915090     14.36793615
H       3.45057344      0.62967372     14.65745281
H       5.32271149      6.29718018     15.97441760
H      10.55466620      1.36487485     13.25473207
H       7.54921598      4.96585177     15.29004682
O       6.36140589     -5.13622133     18.60355877
H       6.37994283     -4.66720083     17.72647778
O       2.60894813      1.05758768     14.98043019
O       4.61866553      7.98566103     16.32062699
O       8.40574522      4.41319031     15.33604730
H       2.12297537      1.40278619     14.17607996
H       9.18599359      6.69053188     17.26029145
O      -1.06953110      0.59812027     13.62334843
O       1.83866686      7.60229665     14.98895548
O       8.59908653      7.43872359     17.13669071
H       1.52003195      8.32046814     15.48102636
H       3.40426351      2.87895344     15.71067739
O       3.63008031      3.78747225     16.09012794
H       3.77242943      7.92652325     15.72258941
H       9.92450335      0.75068358     14.59614243
H       6.65954291      1.31742371     15.79390898
H       7.35557103      2.49598320     16.30762367
H       1.30361808      7.61466971     14.17711508
H       2.77300178      4.17113343     16.39950200
H      12.88578419      6.19512888     16.00957120
O       7.27183251      1.55304191     16.55964852
H       9.03621744      8.17703390     16.63987129
H       9.60743774      4.65659073     16.50134075
H      10.35140783      0.35109883     16.92314908
O      12.85390809      5.45593450     16.66542997
O       9.56441490      0.12926560     16.37879015
O       1.34580466      9.63124697     17.31488891
H      11.86982931      5.26079583     16.75775326
O      10.26906685      5.02181504     17.10774254
H       1.96888156      0.29333757     16.64434602
H       8.85129476      0.83428304     16.59293826
H       1.90437591      9.29711042     18.04931188
H       7.51349994      7.63586943     18.21947954
H       2.30424129      6.53609840     18.21187783
H       6.51711952     -0.18512592     18.87441661
O       7.01303287      8.02215787     19.02953959
H      10.27288119      4.43482801     17.91083383
O       2.54755602      6.97323474     19.03227417
O       6.32895854      0.76689911     19.03025595
H       6.62723026      1.10559816     18.13880152
H       6.53510303      7.26976818     19.45103408
O      13.22782008      1.80266536     20.65193146
H       1.69217281      7.08156245     19.58215023
H       3.68541097      1.64873235     20.61105341
H       3.04343540      4.56839143     19.13259966
O       8.79814234      3.38922436     18.88903802
H       2.12625927      2.35511132     19.83232193
H       5.32196716      1.41185802     20.36351130
O       4.60928376      1.42354757     21.05770751
H       7.91870528      3.76732231     18.95011357
H       7.60360747      1.05533431     20.16022993
H       3.80300981      3.85957865     17.92171224
H       8.74630470      2.50072306     19.35320276
H      13.17317356      2.40258262     21.43290674
O       3.55858499      3.77681388     18.87990992
O       0.32580550     -2.83052790     20.88436282
O       8.36350834      1.47252712     20.65297855
H       1.57093837     -0.10162068     21.62186906
H      10.01909033      3.85122448     20.37760142
H       0.91278376     -2.29270773     21.48516759
O       9.41441825      8.57797699     20.58162163
H      -0.36272820     -2.21440250     20.48745681
H       8.62412214      8.16669366     19.98726168
O       1.76699941     -0.73815830     22.34050460
O      10.90680710      4.11796853     20.78084928
H       8.93836923      0.60965086     20.81875953
H       9.17804525     -1.50266081     21.51299393
H       4.19277920      6.84886665     20.11508192
H       4.73176792      2.37213177     22.63349517
H      11.10805963      5.07662079     20.61693164
O       5.00332016      6.62165911     20.65438303
H       2.74949139      8.90020529     22.46575307
H       4.63806779      9.66679759     21.85400462
H       4.69149148      6.10317797     21.43255948
O       5.12968872      2.85525926     23.40242269
O      11.39675721      9.20038947     24.31394846
O       4.46571338      8.82755051     22.39278577
O      10.12529251      1.97449053     24.17278515
H      10.73194370      4.34345063     22.41603704
H       4.96157251      2.38315235     24.25808026
H       4.83726410      8.03904605     21.83215593
H      12.20212528      9.17438728     23.72981888
H       9.15663138      1.88963066     23.88817192
H      10.47868308      2.93648664     24.11652740
H       6.65829971      2.30052427     23.35464987
H      11.03244924     10.14836728     24.31212495
H       4.72015467      4.84612752     23.56565125
O      12.87103517      6.51562568     24.08157243
H       2.51143332      6.06630790     23.69024731
O       4.26077838      5.64914477     23.20510698
O       7.48519742      1.74192144     23.21996969
O      10.83957620      4.55866545     23.37507908
O       2.25188150      2.95985601     23.21334081
O       7.98205867      4.95595229     23.39626825
H       7.91827132      8.18680930     23.62891396
H       5.52405923      9.09597584     23.50321618
H       1.50909952      3.52193439     23.55965253
H       7.97454578      5.92967988     23.42065442
H      12.14193123      5.89362140     23.82197155
H       9.88730886      4.85862539     23.57365251
H       6.72666771      0.40828964     23.91334480
H       9.42773119      7.82105994     23.90026058
H       7.70934242      1.65263703     22.29119285
H       4.44872399      6.31926337     23.89774531
O       8.70141620      7.81561658     23.19501952
O       6.28830607      9.21962610     24.18313883
H       3.13906413      3.28347725     23.52182325
H       7.29849034      4.66845572     24.04659883
Pt      3.11918503      9.08655450     26.45123920
Pt      5.99005993      9.04355855     26.39025955
Pt      8.74955612      9.08892275     26.59892804
Pt      0.35069111      9.08913424     26.55683181
Pt      8.74003669      4.24742180     26.60711837
Pt      4.55162406      6.70537137     26.42623813
Pt     10.11610408      6.76650051     26.51892389
Pt      7.40304729      6.68924735     26.43809595
Pt      0.43615783      4.33950497     26.67106381
Pt      1.82175840      6.71249676     26.28818095
Pt     10.11883249      1.96592656     26.48172306
Pt      7.21423062      1.86554601     26.41757467
Pt      3.21264805      4.25629036     26.52843477
Pt      5.90167498      4.23819670     26.45683855
Pt      1.79280588      1.85062941     26.51729017
Pt      4.59382659      1.71306945     26.44370657
H       8.31807487      8.92972600      9.11548929
H       7.35320206      2.17557339      9.11495731
