   244
 Tv_1:  11.152900   0.000000   0.000000 Tv_2:   0.000000   9.658700   0.000000 Tv_3:   0.000000   0.000000  26.829700
Pt      5.67424475      7.82929511      2.06437645
Pt      6.98256225      0.56860405      2.03572150
Pt      0.04847094      7.78998716      1.96685652
Pt      8.54057964      7.82025578      2.05917958
Pt      8.43231278      3.08787801      1.99826897
Pt      2.82421989      7.90174258      2.11579433
Pt      9.76432106      5.45319879      1.99868028
Pt      7.04455679      5.47512539      2.13897658
Pt      5.71422159      3.07280097      2.11107259
Pt      4.29343064      5.40272024      2.15992608
Pt      9.71340291      0.59821800      2.07043102
Pt      1.42482476      5.44621756      1.87365063
Pt      1.41236839      0.47682450      1.99855166
Pt      2.78601400      2.86096934      1.96922533
Pt      4.34391583      0.48309197      2.06086553
Pt      0.01273671      3.05008249      2.03031380
Pt      5.33186659      6.38039808      4.41288579
Pt      8.12066448      6.43203420      4.45440283
Pt      6.87434048      8.86609292      4.44457981
Pt      6.84506062      3.99621955      4.39352516
Pt      8.19181424      1.59464887      4.21410729
Pt      5.36886502      1.52356227      4.33050704
Pt      9.61106373      4.06774909      4.29254234
Pt      9.51998730      8.82193613      4.26947725
Pt      1.02005491      8.83031165      4.39675696
Pt     11.01470257      6.44533429      4.37330362
Pt      2.52821223      1.43967553      4.29832131
Pt      2.60141958      6.44750010      4.30394298
Pt      4.01500483      8.76238329      4.44862339
Pt      4.01039037      3.86354944      4.38720502
Pt     -0.19434939      1.62135089      4.35673064
Pt      1.17904058      3.95864618      4.24794897
Pt      6.56843962      2.36743003      6.57279070
Pt      9.33473247      7.15962145      6.63553990
Pt      7.83437691      4.92743906      6.75557294
Pt      8.04306997     -0.05145562      6.84352019
Pt      5.05959216      9.63197776      6.80995125
Pt      2.47152242      4.87536893      6.57247702
Pt      2.36501401      9.69301186      6.78596969
Pt      6.64071912      7.28887838      6.73915909
Pt      3.74618482      2.26373750      6.67256477
Pt      0.95796336      2.53765027      6.73233794
Pt     10.56594117      4.83120686      6.66589186
Pt      9.41845157      2.45021386      6.61847837
Pt      5.05950094      4.75838046      6.65580680
Pt     10.72664268      0.03818632      6.58933368
Pt      1.03765797      7.21688120      6.73237777
Pt      3.65456859      7.18984073      6.70716455
O       4.74535657      4.91623002      8.93797102
O       1.06703599      7.39210078      8.75744212
O      10.74661756      4.96445265      9.01007410
H       2.15240818      2.20756664      9.15285205
H       6.75403132      5.14219863      9.45232545
O      10.78819203     -0.26949532     10.14877265
H       0.15812243      8.74384508      9.71928255
H       3.28314900      2.95835048      8.66471637
O       8.22994980      9.66770716      9.03674450
H       9.19585140      0.07432531      9.36225490
H      10.00443789      5.19190733      9.67112716
H       0.23116923      0.49617704     10.25736894
H       0.18851917      5.74560578      8.84856534
H       6.07595386      1.75756513      9.16770383
H      -0.01628404      3.47609445      9.87903704
C       5.78414021      4.70018994      9.68813633
H       1.89130911      7.74373564      9.13990745
O       6.52749167      2.46354903      8.72999226
H       4.20609714      9.52526656      9.52157181
H       5.75742170      9.02998526      9.10782773
H       6.18984777      3.46014730      9.12115211
O       5.12210975      9.80703005      9.05364081
O       2.89134151      2.70335634      9.54032258
O       0.09696185      2.50377663     10.22530306
H       0.38205853      2.53495497     11.21727362
H       9.67148525      6.11068466     11.33582115
O       9.01653946      5.80608440     10.70811653
H       3.27592484      0.84595278     13.02079231
O       2.50925563      0.79189350     12.41308551
O       2.41582122      5.22982087     10.59467409
H       2.10125453      5.89724111      9.93474057
H       5.59468546      4.37670612     10.68956530
H       4.06720070      7.00748064     12.67715361
H       2.10413522      1.71483576     12.47763696
H       8.33886744      6.54685716     10.60538221
H       6.16914493      7.42493852     11.05403126
H       7.37167507     -1.32865440     11.10006852
O       6.99828315      7.65297721     10.48605791
O       4.33961615      6.99125944     11.66979274
H       2.56544583      4.36920916     10.07620023
H       9.60154284      2.23826016     10.49604994
H       3.78693989      6.25692826     11.21055020
H       7.46509167      7.23110552     15.07523254
H      11.25349550      4.66333428     12.63726442
H       8.29801100      0.36564795     12.74008288
O       0.50167935      5.51942442     12.29920283
O       6.76155013     -2.38305436     14.37933353
O       8.65145471      2.58272855     10.53710792
Cl      4.57265264      0.29833687     14.96066575
H       3.44740807     -1.43335815     10.77095670
O       8.25027614      2.34862715     13.09447938
H       8.21913477      2.42515700     12.06710486
Cl      0.34766113      2.67887773     13.43289772
O       8.34658707     -0.54598987     12.30793803
H       1.26027543      5.33373144     11.69129995
O       2.99816065     -0.73399472     10.14210479
H       9.19498596      2.59872797     13.17392893
H      10.42228080     -0.58227516     12.74651785
H       8.01192027     -1.21522231     12.97363480
H       6.31125871     -1.52771716     14.55617728
H       5.33313361     -4.31970325     18.34767981
O       5.07303450      5.07450454     15.41030426
H       4.26226833      4.55012490     15.75326770
H       4.04583543     -1.66709162     14.75142715
H       2.69533770     -0.00186715     10.78058464
H       7.19365619      3.22816746     14.24464143
H       2.57824316      1.08139029     15.52699445
H       4.80081296      5.92130564     15.01533623
H      11.18705004      0.42972901     13.66697298
H       6.12208190      4.24506663     15.14135029
O       6.15629502     -4.10775574     17.92974144
H       5.93143597     -4.28181485     16.91365645
O       1.93473305      1.70815632     16.00880976
O       3.74295337      7.07908580     14.29101668
O       7.02891757      3.66352293     15.10116178
H       1.35834251      2.04612562     15.26407567
H       9.23664995      6.40179388     16.26436135
O      -0.44536568     -0.43189847     13.69715795
O       1.12108218      6.95389326     14.27350262
O       8.60568196      7.22731964     16.28091590
H       0.70420286      7.83753376     14.24147497
H       2.83373770      3.10226634     16.33522685
O       3.16486766      3.98762867     16.68541769
H       2.71610532      7.06002957     14.30854146
H       9.56680915     -0.00701573     15.15957459
H       6.07089179      1.00500068     15.76829359
H       6.92389098      2.63077036     15.65826865
H       0.84339156      6.49491608     13.43484051
H       2.41057658      4.58082795     16.67188410
H      12.36837976      6.13784430     15.82528451
O       6.91874149      1.46210375     16.13275595
H       9.14399439      8.03252125     16.20511998
H       9.17942141      4.22825868     15.57315058
H       9.91475797      0.45850266     16.70351384
O      12.06838608      5.59527519     16.60891561
O       9.20701241      0.16577373     16.07385389
O      -0.00850165     10.43980034     17.76834633
H      11.23557629      5.09753313     16.33594882
O       9.59359307      4.65793068     16.33336806
H       0.84655364      1.07282067     17.36086607
H       7.73124413      0.90740097     16.10432281
H       0.15258949      9.51246377     18.07349210
H       7.56787418      7.74873588     17.70503298
H       1.59716620      5.83795533     18.20134856
H       6.35756678     -0.08063201     18.88803648
O       7.07052637      7.97984113     18.55798361
H       9.20972721      4.22204636     17.12344714
O       1.77952414      6.19720067     19.13541696
O       6.08421008      0.93409507     19.03289379
H       6.16134852      1.22830449     18.05312018
H       6.34438748      7.29583835     18.35993981
O      10.93720758      2.22839687     20.24587220
H       1.22574157      7.06524001     19.15750503
H       2.37985805      3.11454710     22.10832824
H       3.19799604      5.35180557     19.45769419
O       8.45649679      4.06219816     18.72026128
H       0.02509055      1.86582014     19.33149628
H       3.46887880      3.27207090     20.89189676
O       3.24884623      2.70766745     21.69594308
H       7.68387924      4.70089425     18.75236728
H       7.66123641      1.45387771     19.85275632
H       3.82348227      4.10077993     18.80427394
H       8.25203825      3.31701245     19.40025386
H      10.98538905      3.22892573     20.15830098
O       3.90217951      4.64674703     19.63416102
O       0.51427705     -1.31524218     19.67912688
O       8.15951598      2.15994253     20.40903487
H       0.85548644      0.92559546     21.42934407
H       9.83532455      4.64870530     19.46081912
H       0.90821586     -0.83092370     20.46617263
O       9.12457911      8.40693542     20.40572183
H      -0.46191509     -1.25104777     19.90521930
H       8.38628806      8.04776967     19.91553865
O       1.18665682      0.09612552     21.90282776
O      10.62333098      4.75763802     20.05685345
H       9.09844243      1.91900766     20.47206817
H       8.74840174     -1.13633431     21.30364373
H       5.65968710      7.92285603     20.66385729
H       4.20023619      3.52576209     22.79441967
H      11.39786099      5.27153389     19.67286548
O       4.80121732      7.99043416     21.09725041
H       2.16245755      9.85007488     22.02089546
H       3.84537560     10.79514564     22.23667731
H       4.74180267      7.21497621     21.65170011
O       4.86105341      3.89631372     23.52599348
O      10.79435744      8.94777230     24.23087497
O       3.70297570      9.91818051     22.58009512
O       9.92895406      1.86879354     24.11103491
H      10.73679754      5.79193689     21.87305460
H       4.70502963      3.33679232     24.32622493
H       4.05957088      9.21821047     21.94701178
H      11.56620005      9.19688340     23.62318971
H       9.05866260      2.31471426     23.76483814
H      10.67471863      2.52067554     23.87464414
H       6.63436993      3.12500058     23.13871654
H      10.35737261      9.78486414     24.12901808
H       4.29826231      5.50417079     23.33680233
O      12.83820646      6.93653554     24.36306143
H       2.48217583      6.48415367     23.97392875
O       3.98265918      6.45673461     23.25909183
O       7.29890224      2.40329196     23.13464570
O      10.86687531      5.85060029     22.90196802
O       0.82096968      3.50604215     23.39371460
O       8.11711566      5.57720039     23.35320325
H       7.19504625      8.83801230     23.44881627
H       5.03953383      9.59003727     23.69565413
H       0.45259520      4.46498693     23.13287303
H       7.82535562      6.51302244     23.13929815
H      12.08481611      6.53014059     23.92128539
H       9.95531840      5.76068212     23.27944581
H       6.20897720      0.95328729     23.90419092
H       8.83697798      8.52320615     23.31652742
H       7.47869920      2.29438567     22.18444581
H       4.45127863      6.95242523     23.99478496
O       7.93882572      8.64225041     22.86499160
O       5.97072827      9.65269254     24.17130539
H       1.23600721      3.62579293     24.26274804
H       7.68939375      5.39969812     24.21628131
Pt      3.13125280      9.19862759     26.44587678
Pt      5.85723061      9.15635482     26.46796980
Pt      8.60491903      9.28331771     26.59936155
Pt      0.38478408      9.31878037     26.44301965
Pt      8.50252467      4.37397037     26.41188992
Pt      4.44975034      6.66143670     26.55045642
Pt      9.92252952      6.82757086     26.47603904
Pt      7.23175798      6.77107410     26.59172604
Pt      0.05985963      4.29881385     26.46976195
Pt      1.66369074      6.76661568     26.53896451
Pt      9.96655086      1.90510611     26.56017361
Pt      7.21829716      1.93917093     26.56152431
Pt      2.91727943      4.40739451     26.60133572
Pt      5.80708212      4.46003430     26.64197712
Pt      1.71012184      2.08262220     26.42410848
Pt      4.37807667      2.11616443     26.65319046
H       7.87587873      8.81691411      9.38188051
H       8.16078240      2.08764378      9.84233517
