   244
 Tv_1:  11.152900   0.000000   0.000000 Tv_2:   0.000000   9.658700   0.000000 Tv_3:   0.000000   0.000000  26.829700
Pt      5.61836165      7.86609240      1.92678358
Pt      6.95743572      0.59897999      1.97208386
Pt      0.08608035      7.88831702      2.10824228
Pt      8.42804279      7.84175651      2.00624809
Pt      8.35117259      3.01489439      2.22884211
Pt      2.86814465      7.86628804      1.92190785
Pt      9.89207832      5.39365758      2.01457354
Pt      7.05013776      5.51123018      2.16566876
Pt      5.60331145      2.93246640      2.01291021
Pt      4.27461171      5.36056469      2.01794819
Pt      9.59353660      0.68221321      1.98806847
Pt      1.47864048      5.50544516      1.95949040
Pt      1.29607433      0.59231081      2.07556144
Pt      2.75576071      2.98032310      1.95016486
Pt      4.20903641      0.59495113      1.96648247
Pt     -0.02797265      2.99603178      2.06963558
Pt      5.46715787      6.42506396      4.30294577
Pt      8.24370572      6.47234745      4.36186491
Pt      6.86996535      8.83090269      4.24531681
Pt      6.75140462      3.88848210      4.39360876
Pt      8.20619694      1.44248388      4.52218133
Pt      5.48956538      1.45986236      4.30830978
Pt      9.73260346      3.98820486      4.28479343
Pt      9.79359375      8.82190261      4.29099722
Pt      1.29701151      8.80832765      4.39262728
Pt     11.04061835      6.45756742      4.34976016
Pt      2.78332885      1.58725697      4.30417665
Pt      2.63556521      6.48364732      4.22533402
Pt      4.16785730      8.79659165      4.29962541
Pt      4.06254732      4.10607687      4.32033124
Pt     -0.17580722      1.57564434      4.40677582
Pt      1.27612709      3.99419813      4.27173933
Pt      6.58523395      2.59249785      6.75247875
Pt      9.56256967      7.51468489      6.68207707
Pt      8.06410673      4.96059304      6.55430265
Pt      8.01679824      0.23383558      6.81816724
Pt      5.15777999      9.76327321      6.65973870
Pt      2.46935658      5.09988538      6.64766333
Pt      2.52864149      9.91788628      6.64782417
Pt      6.72214446      7.27892005      6.62353012
Pt      3.76157515      2.64993611      6.67875152
Pt      1.02614220      2.71822739      6.73327154
Pt     10.76634953      4.99154181      6.65902030
Pt      9.45327909      2.69064485      6.66161242
Pt      5.24027252      5.06340898      6.68741134
Pt     10.80386054      0.24540204      6.80426593
Pt      1.14247241      7.63316980      6.74923050
Pt      3.86388043      7.33672310      6.48064969
O       6.43337796      6.65578308      9.67691021
O       1.10687541      7.36503729      9.00043582
O      10.58443222      5.13100058      9.03428563
H       3.80646750      2.98895061      9.09985907
H       7.75859123      5.42020140      8.78375836
O      10.32920725     -0.80665721     10.42086597
H       0.37230295      8.02356125      9.19656535
H       3.68559843      2.23165123     10.51150946
O       7.73823282      9.17785490      9.16140121
H       9.57429650     -0.36072970      9.97537923
H      11.22370511      5.81610780      9.36296022
H      -0.41981500     -0.17228217     11.06989764
H      -0.36769190      4.14232367      9.31339177
H       5.80925168      3.21052307      9.54145623
H      -0.19557030      1.86333721      8.90270887
C       7.33740221      5.82465099      9.75493892
H       1.96499056      7.92489348      9.21878046
O       6.72478642      3.26429136      9.08958144
H       4.32772007      9.43391970      9.19238960
H       6.05972635      9.34861392      9.00249635
H       6.99730236      4.30024759      9.15486728
O       5.23483354      9.83969974      8.80626412
O       4.12238828      3.07451637     10.03640909
O      -0.18349708      2.55544579      9.60900070
H       0.45716433      2.17561408     10.31461613
H      10.09031261      7.40436586     11.28077781
O      10.08176730      6.60856005     11.86746269
H       4.99416559      0.71326032     13.10012597
O       5.32026609      1.06070158     12.22470258
O       3.10872098      4.72076331     12.01316128
H       3.45074266      5.66763301     11.94506826
H       7.77112570      5.59500733     10.78504193
H       6.23036498      4.21181252     12.93253164
H       5.46224238      2.07129221     12.45341169
H       9.43191376      6.74776483     12.55982812
H       5.18691309      6.99899596     10.75278576
H       4.99536645     -2.15992268     12.20371420
O       4.50696405      7.09521970     11.43518502
O       5.46103430      3.57508737     13.03371025
H       3.25918935      4.31091413     11.12451609
H       9.61101674      2.70650088     10.41343116
H       4.65051705      3.96918579     12.73811518
H       7.24550339      5.67174714     14.08145597
H      11.56042453      5.76239575     12.66738954
H       7.54095724     -0.27722020     10.50512307
O       0.64187657      4.99271859     13.17909531
O       7.51144035     -4.38784635     13.24101816
O       8.74197289      2.99398689     10.91069656
Cl      4.73079143     -1.24772439     14.32404650
H       2.46259217     -0.36570268     10.41279351
O       9.20480840      3.05215882     13.48474441
H       9.08548150      2.98870888     12.46857630
Cl      1.55462609      1.13527854     11.30909294
O       7.37981812     -0.19518388     11.61164888
H       1.57151029      4.76165460     12.85815367
O       3.14313646     -0.90823407      9.89383385
H      10.05214338      3.41732851     13.72015174
H       8.12228195      0.04169020     12.28988800
H       6.48848660      0.38703541     11.86574476
H       8.30540246     -4.92253647     13.53411607
H       5.61505999     -5.90215414     19.73334027
O       5.34187961      4.15793381     16.78005465
H       4.48561151      3.63097994     16.84748562
H       4.17113763     -2.50384792     15.85685005
H       3.65797469     -1.34702923     10.65468539
H       7.80439885      2.84967807     14.67895034
H       3.29927075      0.07324473     15.11351770
H       4.85553854      5.07187723     16.66367526
H       9.26170799      1.22231944     13.50215636
H       6.61667856      3.41437498     15.56042352
O       6.33836193     -5.45475363     19.27620383
H       6.05286211     -5.53845555     18.28886119
O       2.39344088      0.51963113     15.11095315
O       3.81235313      6.68549910     16.66213290
O       7.41425454      2.78506575     15.54308012
H       2.19709118      0.52206980     14.16802875
H       8.51112412      5.31511761     16.73829377
O      -2.14027864      0.25834433     13.43473202
O       1.29935858      6.19129772     15.46128423
O       7.83522820      6.07071548     16.51615747
H       0.68438251      6.98301424     15.69228584
H       2.72752137      1.78900341     16.34905024
O       2.93890186      2.50588881     17.00558961
H       2.91164842      6.36193334     16.32902181
H       8.93139504     -0.22531939     14.29502830
H       5.70105695     -0.11403866     15.84754784
H       6.43328214      1.24824382     15.76871123
H       0.85938183      5.77209673     14.65111526
H       2.26019996      3.24316729     16.96363910
H      12.22907503      5.06646080     16.67509293
O       6.32981704      0.43042960     16.38231587
H       8.38413355      6.88340533     16.34231907
H       8.90084844      3.06095772     16.63406474
H       9.69902268     -0.88123945     16.20371521
O      12.13404510      4.37757113     17.40040315
O       8.80343168     -0.98245866     15.85672209
O       0.50981716      8.44731345     16.41328161
H      11.15864341      4.11523585     17.34737582
O       9.46845908      3.72469834     17.17836505
H       1.25446175     -0.64458866     16.01331621
H       8.18322228     -0.51243931     16.43445495
H       0.82066919      8.10486810     17.27448027
H       7.22082287      6.56249571     18.47787991
H       1.41640279      4.87497172     18.83234691
H       5.24750385     -0.11040892     19.13824146
O       7.03349038      6.78704883     19.38540922
H       9.25461228      3.50564481     18.09049653
O       1.67104852      5.09124686     19.77943433
O       5.76078058      0.72590565     19.03375356
H       6.01002146      0.72577865     18.03652013
H       6.72690665      5.80307278     19.61768975
O      12.37561293      1.71346829     20.20852438
H       1.68430595      6.03336442     19.97484700
H       3.10624016      2.16404915     22.70980065
H       3.04085140      3.76643732     20.03665375
O       8.78002549      3.37876088     20.08977097
H       0.71533198      1.03353593     19.80419427
H       3.90746166      2.18397974     21.37015640
O       4.00694061      1.87395109     22.30884109
H       7.89807006      3.81152256     19.92629497
H       6.93346402      0.94435337     20.15415724
H       3.77879975      2.58219472     19.08341170
H       8.58865411      2.41828488     20.32368610
H      11.76155057      2.48451688     20.43888367
O       3.77450640      3.13408620     19.92995730
O       0.20774179     -1.56270447     19.56966302
O       7.73633889      0.99792620     20.83400802
H       1.48259838      0.33892837     21.54119552
H      10.15240811      3.54936507     20.88978818
H       0.55395061     -1.35952443     20.44560554
O       8.73080939      8.18551963     20.57795140
H      -0.75908738     -1.81298781     19.74179421
H       8.19878466      7.54953706     20.06578287
O       1.40739871     -0.57591096     21.87154563
O      11.04608847      3.73347893     21.36213681
H       8.17291984      0.08715605     20.65703640
H       8.68717135     -1.73442980     21.51575277
H       5.30133687      7.32333271     19.44603367
H       4.86501738      2.98349922     23.09308033
H      11.56726640      4.40377883     20.85073790
O       4.43499010      7.77235725     19.24878693
H       2.33160410      8.97699612     22.23533149
H       4.18382048      9.94523263     22.17090023
H       4.04087746      7.46382935     18.38320807
O       5.60372997      3.58353294     23.39088010
O      10.80426824      9.26835668     24.10926373
O       4.32636682      8.90222030     22.21119085
O       9.79278735      2.13739763     24.27765842
H      10.64845692      4.40825645     22.77189548
H       5.43525838      3.82940028     24.33104771
H       4.24767542      8.66030954     21.22559249
H      11.45680182      8.97137188     23.43786927
H       8.84193872      2.09502260     23.78579800
H      10.09472010      3.04922426     24.05359260
H       6.79476447      2.25627427     23.24041561
H      10.63491251     10.18598833     23.99921984
H       4.35487850      5.99262484     23.99538471
O      12.47890309      6.68906432     24.19174792
H       2.23801297      6.47821845     23.74881078
O       3.96408503      6.22037594     23.08694956
O       7.48429290      1.53221668     23.32376662
O      10.53165650      4.61333101     23.83021106
O       1.81958202      2.66935309     23.31669913
O       8.01300223      5.27043991     23.34609715
H       7.80498561      8.19425599     23.92168981
H       5.59416230      9.09110019     23.43576862
H       0.98121150      2.72474795     22.81801663
H       7.18802574      4.78156031     23.28778648
H      11.84249650      5.95810228     23.98472216
H       9.55525195      4.92254044     23.86545102
H       6.76820466      0.31752914     23.91040263
H       9.37503145      8.13837320     23.65165861
H       7.48849825      1.22048243     22.32979339
H       4.19977518      7.18909182     22.96294864
O       8.51408148      7.78437955     23.40337367
O       6.26150180      9.18554008     24.23920847
H       1.70250157      2.90907985     24.30314395
H       7.92725373      6.25058523     23.25668545
Pt      3.06923340      9.29901245     26.49064373
Pt      5.79881955      9.16478766     26.35112107
Pt      8.66037621      9.19987847     26.43087711
Pt      0.24345591      9.33748666     26.46625537
Pt      8.45280745      4.44421182     26.54332736
Pt      4.26454648      6.78292559     26.45726113
Pt      9.98819445      6.88003330     26.56418652
Pt      7.20640069      6.75758839     26.67742185
Pt      0.11297578      4.46231401     26.63599079
Pt      1.52347194      6.85881085     26.39190243
Pt     10.00596774      2.12954864     26.55304351
Pt      7.31449795      2.11085730     26.60468269
Pt      3.02950011      4.42283373     26.47921485
Pt      5.68145045      4.50109984     26.69918894
Pt      1.78163086      2.04466323     26.38168703
Pt      4.39086253      2.06365753     26.44549500
H       8.07203129      8.26909619      9.04581587
H       8.02609617      2.72766960     10.25161796
