   244
 Tv_1:  11.152900   0.000000   0.000000 Tv_2:   0.000000   9.658700   0.000000 Tv_3:   0.000000   0.000000  26.829700
Pt      5.66083332      7.79443291      1.98700764
Pt      7.02187758      0.50160527      1.98538687
Pt      0.08621547      7.66362372      2.02052838
Pt      8.38363465      7.73803304      2.11111838
Pt      8.44600802      2.84507545      2.03714752
Pt      2.91117380      7.87057032      2.05481626
Pt      9.81538326      5.29972685      2.03935586
Pt      7.09140290      5.32793141      1.98397927
Pt      5.70876830      2.93613176      1.90452165
Pt      4.33822849      5.39577520      2.03327150
Pt      9.97399014      0.47223340      2.07324493
Pt      1.55607899      5.43787829      2.03708656
Pt      1.41866179      0.58141820      2.01783344
Pt      2.91277300      2.96365168      2.03635451
Pt      4.22769491      0.55895282      1.96668427
Pt      0.01812217      2.83088212      1.99046853
Pt      5.15847526      6.42509341      4.36721969
Pt      8.05507746      6.45499761      4.35867288
Pt      6.56887877      8.80059735      4.47869305
Pt      6.69386126      4.04412185      4.35813743
Pt      7.93539924      1.43506690      4.45515391
Pt      5.16903193      1.62109871      4.25314261
Pt      9.39098686      4.04204042      4.47922683
Pt      9.46470648      8.82413909      4.37874704
Pt      1.00242800      8.84037320      4.33452571
Pt     10.86533874      6.39238923      4.47685658
Pt      2.34585566      1.61439192      4.25253137
Pt      2.40099599      6.33087939      4.34999884
Pt      3.87566270      8.88008624      4.40478048
Pt      3.81313713      4.07180959      4.28780878
Pt     -0.35431830      1.62484721      4.34804472
Pt      0.95588180      3.99036088      4.37952224
Pt      6.00088639      2.57495934      6.63808181
Pt      9.06423665      7.51261635      6.77050536
Pt      7.62851688      5.06930033      6.87046301
Pt      7.57835333      0.30939812      6.86563059
Pt      4.68900930      9.77827685      6.73363963
Pt      2.10919401      4.93716020      6.74481950
Pt      1.98563127      9.85862100      6.66945719
Pt      6.15169966      7.43104530      6.78275380
Pt      3.40032409      2.58682017      6.64354899
Pt      0.59938440      2.63226566      6.62388546
Pt     10.24490931      5.07250993      6.93329082
Pt      9.05249710      2.68434096      6.74788665
Pt      4.92327947      4.99676882      6.67927264
Pt     10.32218982      0.20634194      6.70323055
Pt      0.73982852      7.40748964      6.72490206
Pt      3.46784142      7.27430381      6.69076642
O       6.96987211      5.81983569      9.75542908
O       0.85629404      7.24629554      9.18884225
O      10.45309993      5.13392117      9.07815345
H       2.83254917      1.70285619      9.24949032
H       8.36742790      4.35744936      9.24414713
O      10.47572775      0.20745106      8.98871294
H       0.16137636      7.95319087      9.27987043
H       3.53290966      2.23040350     10.45364675
O       7.42060706      9.78936493      8.98757229
H       9.47937856      0.27119106      9.16416298
H       9.96966492      6.05140014      9.41878428
H      -0.34974562      1.12166902      9.45215085
H       0.23142234      5.31744069      9.22356114
H       7.70003009      1.35769126      9.98221819
H      -0.30965448      3.32880287      9.84445547
C       7.36721713      4.74773272      9.09781516
H       1.71022286      7.57830204      9.49201652
O       7.78310797      2.23377169     10.56964765
H       4.26773126      9.44875761      9.34855740
H       5.84049196      9.87185193      9.03046491
H       7.50143365      2.97603294      9.88972830
O       4.85173499     10.08849432      8.89041534
O       2.70261202      2.35157104      9.96827949
O       0.10107920      2.44183225      9.97412377
H       1.07562146      2.51767752      9.98634301
H       9.08843573      7.64764605     10.74562487
O       9.13756990      7.22332013      9.85339219
H       5.95214945      2.01024898     11.27727739
O       5.00230736      1.95669794     11.60872763
O       2.21150493      4.87660779      9.18137286
H       3.03000840      5.38243260      9.47189122
H       6.50629219      3.94389672      8.95866704
H       4.69705383      5.29142028     13.06833689
H       4.98065686      1.22001631     12.37698099
H       8.23705949      6.69347743      9.72276522
H       4.48892817      5.68333456     10.88923417
H       5.49249426     -3.70096679      9.69546422
O       4.51867094      6.12333951     10.01713944
O       4.19719253      4.69286222     12.35565906
H       2.44570357      3.95775413      9.50186146
H       9.88546325      1.98871145     13.34930363
H       4.56884553      3.75474093     12.24130324
H       8.99428133      6.38863349     14.92241085
H      12.93732641      6.71037384     12.34663999
H       7.98793576     -0.92468010     12.37926712
O       1.71841750      5.67514580     12.19623569
O       8.90147213     -3.56440610     13.91579967
O       9.50117056      2.77591068     12.96843541
Cl      5.88975006     -0.20667909     13.72392577
H       3.13355195     -0.99586581     11.06979505
O      10.81482207      4.83117016     13.23863324
H      10.44773150      3.96793265     12.83839053
Cl      2.31409350     -0.85120827     13.02458820
O       8.81415999     -1.43659861     12.17656019
H       2.67409109      5.29721896     12.17570699
O       3.28716587     -1.22385126     10.14167872
H      11.78348580      5.10176613     12.82885322
H       9.48079006     -0.79749520     12.63280539
H       8.81999977     -2.71163301     13.29297952
H       9.95679561     -4.20745030     13.57248077
H       6.42188804     -5.55656947     19.40836101
O       5.96771610      4.38619767     16.33429624
H       5.11774665      3.78002860     16.53586555
H       7.02544590     -3.51149868     14.34188905
H       3.84843567     -2.00620304     10.10386018
H       8.10812690      2.85692312     14.46581303
H       4.42855660      0.07269970     15.09871490
H       5.58931564      5.08695940     15.73164005
H      11.50037606      0.04344467     13.43570580
H       7.43571106      3.57641020     15.82436530
O       7.14282135     -5.29142637     18.76151330
H       6.72229905     -5.42890130     17.84427900
O       3.59360474      0.25305389     15.56774421
O       6.01649065      6.24730223     14.14967389
O       8.12380716      2.90286339     15.44740928
H       3.04028847      0.20795103     14.73292774
H       9.51475576      5.84792862     16.55162402
O      -0.66009013      0.15755211     13.66769726
O       1.45574625      6.95412709     15.39990065
O       9.24696339      6.77366779     16.39512489
H       2.06484724      7.41274481     14.79929477
H       3.87429859      2.07400186     16.17024644
O       3.90213356      2.84199619     16.76339766
H       5.78477944      7.22778342     14.41526815
H      10.47667150     -0.15140687     14.65768300
H       7.34044123      0.10595795     15.67240524
H       7.90462875      1.31745745     16.22315823
H       0.84533215      6.67296236     14.76357312
H       3.02152275      3.30201669     16.52591699
H      13.20788976      5.25911375     15.83272521
O       7.83817883      0.40574245     16.54924729
H      10.07419078      7.38977749     16.38160950
H       9.61596579      3.98843310     15.88755337
H      11.30168815     -0.37176553     16.82486723
O      13.03553367      4.54296050     16.45468039
O      10.41921846     -0.52204918     16.36441783
O       1.43405709      9.49337318     17.69179961
H      12.06522833      4.34115482     16.24443887
O      10.33576603      4.32976959     16.48734727
H       2.24735616     -0.05487703     17.08970552
H       9.65764888     -0.03593089     16.74852351
H       1.46042255      8.74648585     18.35768318
H       8.07031542      7.04971197     17.95854954
H       2.35930338      4.83916724     18.23702144
H       5.50361906      0.28647177     18.95249069
O       7.59858995      6.99338380     18.81510066
H      10.07017979      3.88571567     17.35512955
O       2.66187425      5.23297703     19.07448638
O       6.12361761      0.99825831     18.87716780
H       6.65023767      0.95858214     18.08631781
H       7.45722598      6.04139354     18.95302374
O      11.72555944      1.06830177     20.21363041
H       2.10591625      6.03324304     19.24618560
H       3.26994216      2.77994807     22.88500542
H       3.87953850      4.37948201     19.57775571
O       9.65544241      3.24637941     18.87858144
H       1.00116591      0.87596322     19.31665319
H       4.06637350      3.15388427     21.42322395
O       4.13884722      2.68486832     22.35809914
H       8.69856181      3.52981235     18.89307500
H       7.65716691      0.90214770     19.70024893
H       4.57037976      2.94016628     19.29529175
H       9.59407671      2.38488202     19.29412176
H      12.04645566      1.96171801     20.40906871
O       4.59407723      3.72619741     19.91169721
O       1.26521408     -2.15410691     19.69986312
O       8.51662296      0.98197377     20.22326817
H       3.05587479     -0.80496638     22.02008855
H      10.96950657      4.00954588     19.91230008
H       1.66771742     -1.85826781     20.59928960
O       9.66194894      8.04691215     20.17072724
H       0.29162315     -2.13084838     19.69849646
H       8.91311697      7.57804833     19.73097262
O       2.15622917     -1.27139696     22.02256186
O      11.81022673      4.08870684     20.46953104
H       8.95901556      0.12146851     20.16593931
H       9.58183660     -2.01523076     21.06454635
H       5.80031246      7.59930004     19.37410219
H       5.55859212      3.33122708     23.13866390
H      12.35615191      4.72126972     19.96760193
O       4.93525103      8.07968085     19.64877939
H       2.11300098      7.66329243     22.72979124
H       4.44493440     10.72689860     22.13152691
H       4.29144702      7.57342227     19.06744740
O       6.43058427      3.75729373     23.25809040
O      11.50541738     10.13748153     22.80464810
O       4.50776243      9.71990344     22.21277164
O       9.81787329      2.05931880     24.20347183
H      11.77646729      4.28598704     22.03296254
H       6.58863650      3.75688369     24.24735052
H       5.08059843      9.45888774     21.46809131
H      12.26650507      9.46964866     22.56544988
H       8.91935359      1.72054222     23.77316078
H      10.53076892      1.38882580     23.95352713
H       7.55308895      2.45953328     22.74041220
H      11.26484824     10.37033532     21.84912506
H       5.67801604      5.84950738     23.23910562
O      13.49089646      6.45567909     23.92084106
H       3.27834145      6.18621495     23.63594306
O       5.03422387      6.53779183     23.44260513
O       7.77986325      1.49696422     22.81799111
O      11.79672872      4.54892312     22.97455155
O       1.99643945      2.56883158     23.96326847
O       9.40747902      5.31522964     23.21492844
H       8.28681508      8.25898158     23.44615992
H       5.46817243      9.29658709     23.54963688
H       1.44073601      3.39323984     23.70366640
H       8.97827482      5.03863807     24.02922538
H      12.91636911      5.83719377     23.47243799
H      10.85468604      4.76460393     23.15521773
H       6.78004591      0.30243641     23.83026366
H       9.52733609      8.18313683     24.23208522
H       8.25618418      1.27012141     21.90764569
H       5.48621416      7.11419755     24.05118433
O       9.26546039      8.13442782     23.29582925
O       6.26560049      9.17670371     24.14122450
H       1.66224350      1.73090116     23.52760333
H       9.44780472      6.28898375     23.42499722
Pt      3.15450650      9.18428759     26.36197910
Pt      5.98991695      9.09877716     26.39941701
Pt      8.84433455      9.27159438     26.62292313
Pt      0.38452070      9.36402567     26.46842713
Pt      8.73935496      4.40691074     26.53136363
Pt      4.57974889      6.79056219     26.68833462
Pt     10.07929106      6.93359817     26.43515418
Pt      7.41573604      6.81406282     26.55249119
Pt      0.41624739      4.45726297     26.56865694
Pt      1.80294940      6.75819264     26.49123015
Pt     10.08436152      2.11198139     26.31797617
Pt      7.27219362      2.00112061     26.39546276
Pt      3.25389104      4.40344931     26.42968879
Pt      6.07731329      4.42208393     26.38482940
Pt      1.85287075      1.95677190     26.34851788
Pt      4.52825260      1.89069470     26.47253204
H       7.86989747      8.90027088      9.04998967
H       9.19965242      2.61656262     12.08805018
