   244
 Tv_1:  11.152900   0.000000   0.000000 Tv_2:   0.000000   9.658700   0.000000 Tv_3:   0.000000   0.000000  26.829700
Pt      5.80809890      7.63017715      1.81230770
Pt      7.19640780      0.27160103      1.93339212
Pt      0.19906458      7.52463889      2.06372324
Pt      8.59935330      7.60551988      1.92631181
Pt      8.56748956      2.80102840      1.77811882
Pt      3.04118041      7.70021063      1.74119175
Pt     10.08351315      5.27854822      1.78388747
Pt      7.25381649      5.28743910      1.95797292
Pt      5.78331045      2.86241719      2.10512058
Pt      4.37322806      5.33562526      1.96964187
Pt     10.00462213      0.45674876      1.99352822
Pt      1.68397733      5.29712298      1.80003970
Pt      1.66122535      0.47308749      2.04787972
Pt      3.00266793      2.92800941      1.93141054
Pt      4.42927477      0.45232126      2.01903046
Pt      0.24580308      2.97589598      1.90505494
Pt      5.10980048      6.53797586      4.27847173
Pt      8.08597071      6.38210156      4.35932849
Pt      6.58785306      8.74486277      4.22754423
Pt      6.68310514      4.07826801      4.37045270
Pt      8.01398876      1.56682122      4.11453774
Pt      5.35525602      1.65485101      4.46853945
Pt      9.41260441      3.95443571      4.13620513
Pt      9.38902792      8.84907600      4.24544706
Pt      0.97231125      8.87011638      4.43009630
Pt     10.83131782      6.37741848      4.51424211
Pt      2.68004303      1.64361338      4.20385470
Pt      2.42576515      6.60263245      4.15856393
Pt      3.91419438      8.85152248      4.33740439
Pt      3.79288644      4.21565886      4.38248983
Pt     -0.15310925      1.64318058      4.23408497
Pt      1.09648381      4.07904740      4.20041821
Pt      6.07911657      2.78506006      6.74801581
Pt      8.88250423      7.71568824      6.64657177
Pt      7.52247268      5.20429933      6.76900252
Pt      7.49823139      0.48658137      6.61751083
Pt      4.72025141     10.00085116      6.82959127
Pt      2.11687027      5.19410536      6.57347204
Pt      2.05024829     10.03900514      6.67427339
Pt      6.10059932      7.66797281      6.58259881
Pt      3.37974321      2.70286375      6.62001464
Pt      0.64204197      2.85417033      6.69548192
Pt     10.35216672      5.32095202      6.86135598
Pt      9.10765292      2.78171275      6.47076556
Pt      4.84647834      5.23159263      6.93274096
Pt     10.28569342      0.44064457      6.64449341
Pt      0.65183175      7.64672189      6.78678052
Pt      3.27293685      7.56463965      6.64098449
O       7.02818612      5.14201773      8.88532523
O       0.95005829      6.97175682      9.05453531
O      10.18460482      4.93431018      9.14842046
H       4.04853880      1.62684549      9.87877672
H       5.05843794      5.25352979      9.50447786
O      10.26332554      0.37691668      9.05219120
H       1.55630296      6.16627144      8.98909769
H       4.30617418      2.31413492     11.24697382
O       7.04069278      9.15177858      9.86736331
H       9.56938448      0.95737838      9.38056838
H       9.85305928      5.84954309      9.45072344
H      -0.02873882      0.53181863      9.49528162
H       0.03352565      4.74846610      9.36286189
H       5.58987650      2.63662858      9.25098930
H       1.70563466      1.63133666      9.56476394
C       5.79921671      5.75695499      8.81821770
H       1.62871450      7.48604453      9.60050537
O       6.54153839      2.67164042      8.90973645
H       4.23557369      8.96629820      9.39206489
H       5.75335581      9.28214942      9.20257419
H       6.80785322      3.71701679      8.95144341
O       4.79957814      9.64675593      9.02116186
O       4.08587358      2.55742507     10.31767839
O       0.97240268      1.41347048     10.24256566
H       1.32565066      1.57948534     11.16723211
H       9.58852146      8.09512251      9.32716617
O       8.99942541      7.39347250      9.71441543
H       5.97589994      1.84569777     12.77185537
O       5.18763417      2.39696821     12.90188424
O       1.50027994      4.45510358      9.86982540
H       2.25016952      3.79926602      9.68662210
H       5.71847896      6.83974277      8.92507638
H       2.44228640      3.82162396     12.68321355
H       5.58185726      3.22988141     13.17934047
H       9.09831392      7.48519533     10.67481036
H       3.63751173      5.63403003     11.93996362
H       4.94226184     -3.16521835     12.50069391
O       4.35973846      6.26615516     11.73306212
O       2.09659430      4.72355119     12.35383452
H       1.70841130      4.77475293     10.82105301
H       9.29217680      3.31716479      9.85051383
H       2.09071644      5.33390535     13.13801014
H       8.96924377      5.95234898     14.30240739
H       9.03864653      6.99535162     12.80836911
H       7.01586276     -0.43349243     10.83733345
O      -2.01526290      7.94942208     12.56186507
O       8.66672029     -4.07187843     13.35991624
O       8.95230105      2.43458217     10.18386045
Cl      4.71158143     -2.20453855     14.71293093
H       2.53658917     -1.07710401     11.07717987
O       9.42497491      2.20956471     13.07273008
H       9.40820577      2.63205976     12.17333515
Cl      1.41928304      1.90606467     13.33936721
O       6.87092376     -0.47447154     12.57889464
H      -1.15387101      8.22515579     12.98086300
O       3.01463226     -1.64872115     10.48448435
H      10.37567045      2.26131137     13.31047108
H       7.80346408     -0.82636121     12.75921141
H       6.36536284     -0.72072277     13.44931072
H       9.32667811     -4.81582259     13.30390919
H       6.11808712     -5.16149428     19.05866873
O       6.61567796      3.22876591     16.35431629
H       5.68960549      2.96584458     16.50920335
H       7.19447482     -4.72044977     13.93612025
H       3.57947058     -2.29398912     11.12799576
H       7.54042860      0.94933034     14.42660245
H       3.49927433     -0.37484540     15.42435106
H       6.47599109      3.82638132     15.55783248
H      11.55606327     -0.20268793     14.00784171
H       7.35505808      1.92802273     15.56748858
O       6.99226286     -4.99391695     18.61609878
H       6.88720982     -5.50881172     17.74862695
O       2.93795970      0.42269693     15.56627520
O       6.25518704      4.64499673     14.18295785
O       7.88100974      1.09662699     15.34151776
H       2.56404351      0.76664209     14.63529374
H       9.67848145      5.08318775     15.97496713
O       0.14449261     -1.16182098     14.18087170
O       1.78613810      6.36434701     14.29440608
O       9.54144672      5.97001467     15.62692257
H       1.07041213      7.01233588     14.49211765
H       3.79951528      1.74321030     16.30546139
O       3.96908864      2.62183556     16.80997004
H       5.77377471      5.43880349     14.37965227
H      10.66095979     -1.20736491     14.93086956
H       6.10939742     -1.35502251     16.30808759
H       7.04671788      0.13312872     16.17227550
H       2.59263202      6.79599831     14.63379572
H       3.17456535      3.17214120     16.64154482
H      12.92272418      4.73507009     15.92973788
O       6.63092006     -0.58974710     16.81857671
H       9.64620648      6.79919723     16.19248968
H       9.71879704      2.84122666     15.55062654
H      10.64861082     -0.57276670     16.87792750
O      12.77195294      4.03991861     16.60467085
O       9.92132571     -0.99395472     16.36611042
O       0.84633349      9.87408762     17.56631906
H      11.94002921      3.57545976     16.31245115
O      10.04348089      3.41469768     16.21552040
H       1.52382872      0.19329899     16.81619291
H       9.18071273     -0.37994237     16.25141257
H       1.05239749      9.08649284     18.21346707
H       7.28374355      7.82419865     17.82691635
H       2.11728729      4.92343568     18.26401868
H       5.66517722      0.10830979     18.13040531
O       7.22687028      7.31292377     18.72625184
H       9.78703220      3.09486775     17.07503464
O       2.10547451      5.42641572     19.12095373
O       5.27624163      0.73091447     18.82344075
H       4.56878896      1.26358435     18.32138410
H       7.09583692      6.31527249     18.54034999
O      13.16828751      1.69736550     19.71904714
H       1.45702976      6.10544209     18.93103463
H       4.04278572      2.44503561     22.26257032
H       3.73725600      4.65762418     19.78943301
O       9.38647783      2.99683406     18.78198712
H       1.61381988      1.26803330     18.94957592
H       4.77328740      3.08663366     20.91127058
O       4.91962810      2.50045586     21.76342185
H       8.60570202      3.56200975     18.77196842
H       7.13060357      0.90927884     19.85117235
H       4.07475566      3.39291315     19.02025610
H       9.06313205      2.21056962     19.25053337
H      12.48075967      2.36086643     19.92807364
O       4.49541296      4.09387531     19.62920595
O       0.57989365     -1.88630527     19.30821902
O       7.98425723      1.10487952     20.27741934
H       1.95080373      0.47143816     20.83565977
H      10.68626883      3.70653336     19.85519794
H       1.18708842     -1.54100424     20.04167946
O       9.16163340      8.31555590     20.28301281
H      -0.35915990     -1.70459337     19.64409263
H       8.46647690      7.82351802     19.67154054
O       1.97007009     -0.47491881     21.22026650
O      11.51453262      3.72103865     20.46321388
H       8.49730856      0.21804207     20.28945342
H       8.93984795     -1.65631724     21.17974854
H       6.13079386      7.68925338     19.69390182
H       5.91193040      3.25316934     22.82887640
H      12.12242903      4.38197893     19.98731436
O       5.41644407      7.63566621     20.47615916
H       2.90942669      9.08413860     21.60022651
H       4.71012637     10.33687304     21.79778850
H       5.48759661      6.81385551     20.96761949
O       6.53565338      3.65039232     23.50258820
O      11.54397206      8.93808832     23.31234571
O       4.54914501      9.47112037     22.22174602
O      10.55679985      1.80072750     23.83859419
H      11.45914619      4.00014447     22.04804919
H       6.20611927      3.48234437     24.39247227
H       5.00851755      8.86626968     21.57052032
H      12.18631839      9.18517247     22.53696928
H       9.68525668      1.84608240     23.40474209
H      11.12894745      2.66584579     23.60936357
H       7.48888037      2.41270399     23.15738923
H      11.27576821      9.87061968     23.60359295
H       4.88809742      5.62853391     23.75394641
O      13.06946947      6.63461287     23.97156755
H       1.40543441      5.82764567     23.54764661
O       4.93009263      6.06457374     22.89849652
O       7.98039557      1.53154465     23.10365782
O      11.45486326      4.17338821     23.05056323
O       2.35450662      2.22656746     23.15163915
O       8.85962334      5.12739763     23.76189768
H       8.49360702      8.56205573     23.38042091
H       5.54176283      9.21386932     23.53145554
H       2.27003457      3.23958776     23.18703150
H       7.95770258      4.75554717     23.58856578
H      12.47429608      7.44274510     23.89326304
H      10.58553610      4.50924862     23.31035670
H       6.60270476      0.65695200     23.92802344
H      10.02128123      8.19461315     23.23035286
H       7.87668185      1.16509517     22.23984320
H       4.27244911      6.81119405     23.06426432
O       9.13274179      7.92773761     22.96462229
O       6.35692643      9.43821587     24.16226604
H       2.46426822      1.87418111     24.09366653
H       8.76716266      6.16665880     23.74197138
Pt      3.30774334      9.16156338     26.43462640
Pt      6.01910439      9.25246402     26.35511576
Pt      8.84170859      9.22071111     26.41652704
Pt      0.51654830      9.18966807     26.68927444
Pt      8.82155215      4.32440182     26.29365803
Pt      4.79378272      6.74846552     26.32174221
Pt     10.28257964      6.80558848     26.40221176
Pt      7.50789341      6.66551045     26.43090776
Pt      0.45466404      4.21031831     26.35184657
Pt      1.79749010      6.65058626     26.29658755
Pt     10.34739071      1.83355341     26.25700533
Pt      7.38977235      1.90657673     26.44287762
Pt      3.28892167      4.25851405     26.29409999
Pt      5.92235691      4.41195637     26.47177477
Pt      1.92025977      1.82442672     26.37317216
Pt      4.65981259      1.97030817     26.49502632
H       7.78536697      8.56077220      9.73814647
H       7.97674661      2.34923916      9.94896368
