   244
 Tv_1:  11.152900   0.000000   0.000000 Tv_2:   0.000000   9.658700   0.000000 Tv_3:   0.000000   0.000000  26.829700
Pt      5.67133454      7.79346463      1.81096705
Pt      7.00118632      0.51249350      1.80589838
Pt      0.11915161      7.79668026      1.97625034
Pt      8.44357952      7.81210517      1.92368919
Pt      8.35031019      2.95337759      1.83964364
Pt      2.94896937      7.70905997      1.81372480
Pt      9.77602059      5.38696656      1.95805602
Pt      7.06073695      5.39802399      1.89958442
Pt      5.48573230      2.92003452      1.96281724
Pt      4.34732519      5.37135799      1.91448705
Pt      9.77904185      0.60847804      1.83856882
Pt      1.41750748      5.38240016      1.83841703
Pt      1.39202343      0.47666683      1.76648178
Pt      2.77938653      2.88159191      1.95528127
Pt      4.21355824      0.38980417      1.92285831
Pt     -0.00750725      2.95575758      1.94319322
Pt      5.37287976      6.36084430      4.33173931
Pt      8.21086747      6.45528795      4.25331216
Pt      6.54830807      8.82833456      4.20392755
Pt      6.63345972      3.97051453      4.23991764
Pt      8.01679656      1.60501369      4.14239312
Pt      5.20885226      1.65519378      4.27896881
Pt      9.34394845      3.95757970      4.24765475
Pt      9.24876093      8.92214376      4.30331147
Pt      1.06495549      8.97575379      4.20725461
Pt     10.85532874      6.49864359      4.30619397
Pt      2.40397757      1.71657515      4.32488087
Pt      2.42133692      6.42679659      4.16838356
Pt      3.90826927      8.88215489      4.21680483
Pt      3.90564713      4.04009036      4.24254791
Pt     -0.35463390      1.63413149      4.21002155
Pt      1.00311407      4.06679336      4.25017785
Pt      6.44539967      2.59562778      6.57413827
Pt      9.16226267      7.35442370      6.75520003
Pt      7.75811500      5.05922217      6.56723077
Pt      7.70316352      0.18783705      6.64359239
Pt      4.96456244      9.83894971      6.61025637
Pt      2.26886386      5.02978364      6.62069746
Pt      2.18791143      9.80112918      6.62118731
Pt      6.47701463      7.40377451      6.59070724
Pt      3.53601446      2.58354955      6.76313383
Pt      0.77212915      2.59403445      6.68723776
Pt     10.72539184      5.03056629      6.54971012
Pt      9.13980990      2.60553364      6.66646775
Pt      4.88866261      5.11355205      6.73788274
Pt     10.53676197      0.27011158      6.59343559
Pt      0.69534362      7.51584941      6.62718938
Pt      3.52557197      7.43614021      6.56469664
O       6.96252964      6.66181519      9.84691424
O       1.02460028      7.53468705      8.81188622
O      10.10288353      4.91442253     10.08864949
H       5.28395416      1.93689046      9.46129889
H       7.11752518      5.10604081     11.07655524
O      10.25381733      1.31790762      9.71982657
H       0.22066564      7.90328079      9.31032223
H       4.91516000      2.54327385     10.96435097
O       7.60798561      9.91418633      8.82596015
H      10.36043257      1.21629978      8.74221673
H      10.49695049      5.75250226      9.81683597
H       0.09015443      1.37026828     10.08908818
H      -1.69813984      4.76032159      9.35456468
H       4.94137304      4.23045736      9.51916763
H       1.69983597      2.34492208     10.46215501
C       7.13612424      6.17079969     10.96335711
H       1.80428571      8.04506281      9.18924169
O       4.72188842      5.10527131      9.06216957
H       4.31185463      9.73154420      8.97103665
H       6.52956378      9.83597664      8.95368345
H       5.40714927      5.77502016      9.23827584
O       5.16589881     10.20582575      8.69224593
O       5.30413777      2.78699566     10.06956264
O       1.65571348      1.41716531     10.84453185
H       1.43882087      1.54083950     11.81964556
H      10.12093319      9.17017153     10.41258070
O      10.04131706      8.21265835     10.32742876
H       4.50407440      1.61077240     13.01869457
O       4.19882910      2.34829395     12.43668659
O       1.75646260      3.97683175      9.87587260
H       0.85159789      4.32539700      9.70395755
H       7.53915114      6.81884640     11.73625523
H       3.76820401      4.86891326     12.61173582
H       3.23339976      2.50773459     12.76987597
H      10.14545214      7.77530463     11.18256938
H       4.02743536      7.08108439     11.46289846
H       4.60385183     -1.47306391     12.36044827
O       4.51353911      7.91306810     11.41798711
O       3.45586884      5.45525111     11.87151737
H       2.21823028      4.10706972      9.01298111
H       8.45807043      1.70958774     10.29620925
H       3.26453042      4.79804905     11.17520542
H       9.52071344      6.05169275     13.84997000
H      11.35460049      6.43688597     13.01215010
H       7.67078017      0.98231495     12.07195938
O       1.16356751      6.76471775     13.16847137
O       9.72392252     -3.53050444     12.87774163
O       7.86141690      2.05448981     10.98231838
Cl      5.56339912     -0.08839879     14.66978413
H       2.54777980      0.40145615      9.97521608
O       9.51100796      3.43402607     12.81935613
H       9.07863111      3.08718475     11.99833880
Cl      1.17402308      2.57500000     13.62550771
O       7.74700782      0.17098833     12.71706576
H       1.82096242      6.38863095     12.57135120
O       2.98855121     -0.48030248      9.69043890
H      10.44813003      3.23044860     12.84275221
H       8.78019110      0.15246758     13.39471764
H       6.90887264      0.21748575     13.33333318
H       9.54992396     -4.44018728     12.47908295
H       5.49022294     -5.14256671     19.03483221
O       5.80993888      4.22351381     15.93111503
H       5.25132452      3.40735892     15.84036999
H       5.17884982     -2.53663653     14.59900040
H       3.42824816     -0.92546530     10.44513416
H       8.60109770      3.07039573     14.48636173
H       3.43090074      0.03820174     15.29951403
H       5.39482326      5.00801070     15.44845822
H      10.64308170      1.03719643     13.85246405
H       7.46601695      3.69203219     15.44571586
O       6.33405092     -5.01792202     18.51216078
H       6.17368775     -5.05962929     17.53773607
O       2.47286964     -0.04943795     15.54895494
O       4.60316990      6.33268320     14.82775624
O       8.22102606      2.97691888     15.42307851
H       2.11563814      0.59156352     14.91573401
H       9.36742709      5.41821996     16.14855842
O      -1.13273300      0.27401085     13.73324300
O       2.07066897      6.86859190     15.64611955
O       8.98157930      6.27235528     15.70634598
H       1.95284057      7.84218579     15.65265127
H       2.55572748      2.58592101     15.66951550
O       3.07077793      2.86883346     16.44343032
H       3.75417977      6.74626581     15.12041504
H      10.04610824     -0.12305539     14.66963869
H       6.95011938      0.25357425     16.15748729
H       7.86842810      1.37539295     16.34631738
H       1.75591839      6.61009338     14.71193457
H       2.50702875      3.59702038     16.69362446
H      12.62338437      5.56533616     16.58107421
O       7.73420555      0.48517048     16.63986868
H       9.59357019      7.00316592     15.98297678
H       9.27028455      3.48614236     16.31491269
H      10.48468186     -0.60443756     16.90927862
O      12.40909435      4.73486453     17.09475092
O       9.92449054     -0.90050118     16.13084026
O       0.76562992      9.59749401     18.03967265
H      11.48437395      4.40431620     16.80552593
O       9.91191041      4.03634772     16.88887419
H       1.60128350      0.06505184     17.52458569
H       9.05365574     -0.55220505     16.47336022
H       0.94392095      8.87356134     18.72259846
H       7.92487595      6.69277324     17.26496735
H       1.37441124      5.01760605     18.69001330
H       5.21280623     -1.42602204     19.52857612
O       7.61509679      6.93871035     18.17965890
H       9.65126446      3.83741639     17.83326130
O       1.46618676      5.15677069     19.76179236
O       5.68289511     -0.69712423     19.06983294
H       6.31439960     -1.19088471     18.57374952
H       7.06452035      6.16021397     18.43316074
O      11.27716534      1.02133903     20.55215089
H       1.42020230      6.11284288     19.97651427
H       2.12838659      1.21579245     20.73277349
H       3.34390578      1.55576407     17.65440869
O       8.56718215      3.21356360     19.08385487
H       0.07104193      0.77803180     19.61876461
H       3.49454412      1.17675375     19.83079948
O       3.12878211      1.32159214     20.80693500
H       7.63854542      3.63065379     18.90704118
H       7.13421266      0.11885628     20.00749908
H       4.32060875      0.29112519     18.07188023
H       8.59532097      2.29228747     19.47138649
H      11.09439258      1.98301875     20.62607173
O       3.54535973      0.85806494     18.36008189
O       0.80145077     -1.94232071     20.06602717
O       7.93221617      0.47517440     20.52687026
H       0.74881053     -0.07349153     22.09072360
H       9.93812531      3.86784715     20.32946505
H       0.90056942     -1.61091637     20.95758278
O       9.27551071      7.84305366     20.04396469
H      -0.19713734     -1.87011036     19.95625315
H       8.64411223      7.42692421     19.33023720
O       0.83935191     -0.84918689     22.67221564
O      10.77095560      3.66477804     20.87953974
H       8.57783296     -0.28083963     20.37668796
H       9.23469484     -2.19578560     20.98808809
H       5.71422181      6.85296829     21.31195705
H       3.39291449      2.46379922     21.86859588
H      11.49455945      4.17255347     20.37204446
O       4.86818439      6.95911042     20.81708616
H       1.77866864      8.74075932     22.92155643
H       3.53280137      9.70480096     21.83234873
H       4.60615639      6.02615527     20.57503035
O       3.34065111      3.13999701     22.71511807
O       9.63069981      7.86936682     23.22250678
O       3.52862817      8.96974520     22.55262766
O       9.81252350      2.20182276     23.82973110
H      10.42655279      4.60572387     22.35141911
H       4.13786127      3.04037580     23.15838468
H       3.91886526      8.17954206     22.09521828
H      10.57306364      8.21960402     23.25641693
H       8.85873908      1.94898319     23.58122986
H       9.73860198      3.18345937     23.74382469
H       6.89718395      2.02014569     23.00264973
H       9.28825759      7.73596364     24.10873472
H       4.43661105      4.02426908     21.09299631
O      13.64202442      6.26295311     23.17059513
H       2.67773779      5.25878326     23.34290105
O       4.23105632      4.35300848     20.19840761
O       7.51368222      1.23186132     23.06608468
O       9.84069352      4.85225731     23.07528223
O       1.58812616      1.82864760     23.94345720
O       5.96733512      3.58346557     23.30493964
H       6.65757120      6.82735041     23.54204776
H       4.92859192      9.07052936     23.80822521
H       0.60337240      2.01469102     23.82272183
H       5.88707196      3.79220984     24.22388127
H      14.01558791      6.65560638     23.98704333
H      10.10883392      5.71367221     23.44783378
H       6.45237573      0.05377579     23.71904959
H       7.77180695      6.07779535     22.80988852
H       7.72447404      0.91533635     22.08837717
H       3.21739537      4.57770003     20.22029368
O       6.74846987      6.10805901     22.82839317
O       5.91056077      8.93588309     24.00873021
H       2.15678089      2.54006957     23.53890079
H       6.33407687      4.49716970     23.09415615
Pt      3.24821983      9.04514971     26.25808496
Pt      5.92898940      9.08701873     26.05196554
Pt      8.72889348      9.14844846     26.35898191
Pt      0.20543970      9.10343224     26.39555834
Pt      8.52242937      4.41100418     26.31765892
Pt      4.43696178      6.68112555     26.38476430
Pt     10.07296698      6.85267899     26.37010412
Pt      7.33450460      6.82096029     26.32196025
Pt      0.11593771      4.41880516     26.47071234
Pt      1.68101826      6.74516528     26.25029853
Pt      9.89034019      1.97866090     26.22455687
Pt      7.24364477      1.96853727     26.39298951
Pt      3.11531287      4.27043992     26.47874978
Pt      5.77975084      4.36551115     26.45208612
Pt      1.70094722      1.79448303     26.12184510
Pt      4.43579338      1.79199416     26.35942376
H       7.86682499      9.00950220      9.19924820
H       7.02894971      2.44931203     10.53020274
