     244
Tv_1:  11.152900   0.000000   0.000000 Tv_2:   0.000000   9.658700   0.000000 Tv_3:   0.000000   0.000000  26.829700
 Pt         5.5686429700        7.9352981600        1.6883930200
 Pt         6.8532339900        0.6669332400        1.8826400500
 Pt        11.1126380300        7.8739654100        1.7514428200
 Pt         8.3422576700        8.0081247600        1.6873198300
 Pt         8.2092035700        3.0666372500        1.9489094100
 Pt         2.7385946000        7.8220016100        1.8195902500
 Pt         9.6420166400        5.4689491100        1.8890791800
 Pt         6.8766550800        5.4831474000        1.8520541900
 Pt         5.4140637800        3.0213379500        1.9008842500
 Pt         4.1176506800        5.4413252300        1.8351514800
 Pt         9.6600843400        0.6789100200        1.8839815300
 Pt         1.3160422000        5.4350470800        1.8482980300
 Pt         1.2589393500        0.5869592000        1.8000045700
 Pt         2.6115630600        2.9988331800        1.9016891400
 Pt         4.0412533200        0.5815503300        1.8617128800
 Pt        11.0005513900        3.0491550000        1.9274456500
 Pt         5.1923441200        6.5117989500        4.0995781600
 Pt         8.0242884900        6.5499508200        4.0762363200
 Pt         6.5112860800        8.8957592900        4.1341884700
 Pt         6.5581282600        4.1019533000        4.1516277800
 Pt         7.8711591800        1.6183151900        4.2645808200
 Pt         5.0665394100        1.6168663800        4.2055554700
 Pt         9.3469109000        4.1254239400        4.2262143400
 Pt         9.2990649600        8.9093780500        4.1497497000
 Pt         0.9680717200        8.8742203900        4.1247980800
 Pt        10.7900961600        6.5323719800        4.1572620200
 Pt         2.2576815500        1.6169629700        4.1591400900
 Pt         2.3764599300        6.4466993200        4.1599449900
 Pt         3.7500511000        8.8779872800        4.1446520600
 Pt         3.8154070900        4.0947092800        4.1398227100
 Pt        10.6304981600        1.6137756000        4.2455317300
 Pt         1.0053224100        4.0888174700        4.1830185300
 Pt         6.2142843500        2.7366960600        6.4769578800
 Pt         8.9969329000        7.5292464100        6.4514696600
 Pt         7.6121888400        5.1348546800        6.5070071400
 Pt         7.5863141100        0.3236630400        6.6483996600
 Pt         4.7912858400        0.3090784000        6.5815937100
 Pt         2.0833617200        5.0713970200        6.5555689000
 Pt         2.0685283600        0.2505466800        6.4866165700
 Pt         6.2296753500        7.5485638100        6.4238350700
 Pt         3.4038650800        2.6879196200        6.4415426700
 Pt         0.6756426800        2.6706305500        6.4707870500
 Pt        10.3247971800        5.0940949700        6.5727399100
 Pt         9.0154467200        2.7339916200        6.5335685400
 Pt         4.8834087900        5.1430645800        6.5300806800
 Pt        10.3603749300        0.3399862400        6.6078868100
 Pt         0.6290235600        7.5062587000        6.5177390200
 Pt         3.4097761200        7.5247068200        6.4538843400
  O         4.8343360300        5.1741655900        8.5822844400
  O         0.6438569200        7.5399675700        8.6136751900
  O        10.6731022400        5.2012099500        8.6914813100
  H         2.0835847800        1.9852492000        9.5588855200
  H         6.6867212000        5.9943823900        9.0724630600
  O        10.4339840700        0.0509979400        8.7502383600
  H        11.0588810500        8.8874528100        8.8524595100
  H         3.2874288000        2.3589443000       10.4989982000
  O         7.4344116100        0.2311326900        8.8653377700
  H         7.8665864900        9.1572203000        9.3957609400
  H         9.7864466900        5.3704303700        9.2337095500
  H        10.8367152900        0.8727601300        9.1475862200
  H         0.0693710400        6.0668226400        8.8012147900
  H         6.3294938100        4.4229119000       12.6263251200
  H        11.1010390200        3.4486388300        9.3045399600
  C         5.6208385400        6.1101902100        9.3190280000
  H         1.5766854700        7.6226460400        8.9560221600
  O         5.9226360200        3.9009557600       11.9021915100
  H         4.1156431600        9.2228994600        9.3201011900
  H         4.0468297700        1.1520897400        9.3053448500
  H         5.4929147800        5.8475701500       10.3849719800
  O         4.7214686900        0.3957169400        9.3490772600
  O         3.0136251100        2.3133552400        9.5253483900
  O         0.0995954000        2.5656404800        9.7289858100
  H         0.1562521300        2.7714673800       10.6932452300
  H         7.5534130500        8.3607638900       11.4321351700
  O         8.2741134500        8.0984336000       10.7935883100
  H         4.5144708600        1.7402079800       12.2110013600
  O         3.6144318300        2.1182495000       12.1289024800
  O         2.3901780000        4.9321185700        8.7148231500
  H         3.4296282800        5.1598707100        8.7708972300
  H         5.3006387800        7.1514946500        9.1403422000
  H         2.3603997600        4.4943862800       13.2442131100
  H         3.7095660700        3.0563990300       12.4586394900
  H         9.1099117800        8.3821096200       11.2625714700
  H         3.7227264900        6.2429973300       12.5686412600
  H         4.6864485800        7.5456662000       12.4406635900
  O         3.7690110300        7.2120547000       12.2968564000
  O         3.3323749900        4.7010824600       13.1983343200
  H         2.4305515000        3.9647031800        8.9592417200
  H         8.6857669900        2.4865357300       10.0584545300
  H         3.6922790700        4.6387838500       14.1285200200
  H         9.9167125600        9.5979467800       12.8184257700
  H         0.7405525600        9.6199686100       11.7463109600
  H         8.5844986600        2.2578177100       11.6073331100
  O         1.5104372500        0.3526391400       11.2435223800
  O        10.4437986200        8.8775043400       12.3658087300
  O         8.3550835100        2.9029222800       10.8799799400
 Cl         6.1027553500        9.2544834000       12.8288893500
  H         2.4079111100        8.9426039800       10.4160944300
  O         9.8931799500        5.3072624800       11.2365466600
  H        10.1268332000        4.4316047300       11.6325530300
 Cl         0.4125457700        3.7420701400       12.9394277200
  O         8.7303785900        1.1972924500       13.0038190000
  H         2.0482300900        0.8924638800       11.8638250400
  O         2.9725824400        8.2701652900        9.9033788600
  H        10.4364377000        6.0557151400       11.6030403600
  H         8.7190026300        1.9463246400       13.6713419300
  H         7.8300049700        0.7736618700       13.0285023200
  H        10.6603879400        8.1782144600       13.0352097500
  H         5.2920510500        5.3670498300       19.1448690300
  O         6.9129020100        5.1756144000       14.3254500200
  H         6.1261764400        4.8312817400       14.8400436600
  H         6.9470298800        8.3425089500       14.5663807200
  H         3.3231180800        7.7053245100       10.6492445200
  H         9.7111646200        3.7242015500       13.9552001600
  H         4.5835073100        1.1917869900       15.3114414900
  H         7.0573320600        6.0950260500       14.6739678200
  H         1.2454443400        1.9901751400       14.1845940900
  H         8.1900205900        4.1361451000       14.3758898500
  O         5.7975004800        4.9544301700       19.9073691000
  H         6.2036891000        5.7047179800       20.4324263300
  O         4.0100252000        1.7613605300       15.8601088600
  O         7.0395989500        7.7719695400       15.3785157400
  O         8.9133976800        3.4347303100       14.4791842000
  H         3.0874573100        1.6378257600       15.4681269400
  H         0.4131034200        5.9848202800       13.5986334500
  O         1.5825965100        1.2770733100       14.7863842600
  O         2.6035329800        8.2778922500       14.5400876200
  O         0.2655505500        6.8171104600       14.1124222000
  H         2.2532203900        9.1975936600       14.4300858500
  H         4.4660672800        3.4091347500       15.7213993100
  O         4.6423946300        4.3774194300       15.5553234700
  H         7.8420501100        8.0700370200       15.8914996100
  H         0.8871016700        1.1698617400       15.5019323600
  H         5.5197932700        8.0849114200       16.1372596600
  H         3.9475689600        8.2711311600       15.8974021400
  H         3.0447417000        8.0280216800       13.6745615000
  H         4.4742088900        4.8606441900       16.4181666200
  H        11.0028935000        6.2260946100       15.7160333700
  O         4.6422831000        8.2146277600       16.6078526000
  H         1.1628013500        7.2340765400       14.2632051100
  H         9.3645324900        3.4381108500       16.0795758000
  H         0.3665958200        0.8102683400       17.6627964000
  O        10.7815084300        6.0701066000       16.6784147100
  O        10.9484673400        0.9194116500       16.8498564900
  O         1.1390456800        0.7911441200       19.2355534200
  H        10.3786656800        5.1555243000       16.7473670400
  O         9.8093101400        3.4883360900       16.9826635100
  H         0.3931397300        0.6342868300       19.9073691000
  H        10.5234303200        1.8191195600       16.9646876100
  H         1.8911972500        0.2894712400       19.6350476500
  H         9.7975995900        9.1069950600       16.9171990400
  H         1.0004151300        5.7608350300       17.6976750100
  H         4.7150000000        9.4809799200       17.9061417800
  O         9.2053806000        8.3197144200       17.0671770600
  H         9.0884982100        3.5577821500       17.6665525600
  O         1.6606668100        5.6002108500       18.4344185700
  O         4.6757418000        0.6638424500       18.4408577000
  H         4.3666949400        1.2961975400       17.7481148500
  H         9.7789742500        7.5067416400       16.9485897900
  O        10.3477721500        0.4263350200       20.9896792000
  H         1.3980160200        6.2777686500       19.1381616000
  H         1.5391002000        2.4836381200       19.5258507700
  H         4.3963616500        6.7324036600       17.4309877900
  O         8.1170806200        3.6078142100       19.1408445700
  H        10.0925938000        1.3838985400       20.9829717800
  H         1.5893997800        4.1014703700       19.2205287800
  O         1.5912957700        3.3948398800       19.9366134800
  H         7.3460806400        4.2121590700       19.3356282000
  H         6.0813417800        1.1352836000       19.4649473500
  H         3.2812947100        5.7816012300       18.0537051300
  H         7.7189220900        2.7054984600       19.3082619000
  H         9.6018662000        9.5769874000       20.5756969300
  O         4.2615230900        5.8206223800       17.8248477900
  O         0.9497809600        7.4699419900       20.1660074100
  O         6.9841690400        1.2570798100       19.8641732900
  H         3.8895738800        0.4437206800       20.1013478300
  H         9.5045013800        3.5144145800       20.1901541400
  H         0.6836727700        7.3437993700       21.1200715400
  O         8.3478341200        8.6279235400       19.6959510700
  H         0.2649929000        8.0445380600       19.7863671600
  H         8.6219724000        8.4423799100       18.7536920000
  O         3.3501081000        0.2079518100       20.8952386600
  O        10.1945313000        3.1837006900       20.8351401300
  H         6.9310812300        1.4413678000       20.8445305200
  H         7.7822705600        9.4533560400       19.6562431100
  H         7.4532600100        7.5465354800       20.7264798400
  H         4.4668479800        4.3235238800       20.8667991800
  H        11.1157608400        3.3913627400       20.4960127200
  O         6.9555060900        6.9499175900       21.3591241700
  H         3.7709070200        9.0614059900       21.2941963000
  H         4.0047833300        7.1457960200       22.7137557200
  H         7.6400710900        6.6823716000       22.0397936600
  O         3.7301989300        3.9944519700       21.4667112700
  O         0.0339048200        9.4515208900       23.9929958200
  O         4.6055900600        7.8865217200       22.4001165300
  O         7.3421771300        1.8092676800       22.5653874800
  H         9.8184555200        3.4668937800       22.3459205400
  H         2.9684558600        3.6886575300       20.8812872100
  H         5.4520951700        7.4892593900       22.0371106900
  H         0.2278537500        8.5411884100       23.5774037700
  H         6.4681243600        2.1426860100       22.9117589100
  H         8.0037671600        2.5216934000       22.7993424700
  H         4.3639067100        3.0224969900       22.6107296800
  H         0.7470212400        0.4252725600       23.6106725900
  H         3.1017330200        5.1830515900       22.5364114100
  O         0.3529892900        7.1339158200       22.8057815900
  H         1.1093789600        6.5512064500       23.0842738800
  O         2.8331711900        5.9409697800       23.1368600900
  O         4.8363435600        2.5181196800       23.3517659900
  O         9.2721864700        3.5940022700       23.1937390600
  O         1.8489277600        1.3603313100       22.9571011000
  O         8.9350343100        6.2456051800       23.1424943300
  H         7.9600477900        0.5357680900       23.5366226200
  H         5.0984367100        8.8837825000       23.4979878500
  H         2.5007032400        1.6377291700       23.6321363500
  H         8.6856554600        6.5574846000       24.0469235200
  H        10.6326172200        6.6763832000       22.9758818900
  H         9.8170056400        3.3388194200       23.9726052500
  H         5.0714466900        0.8171260200       23.8550911600
  H         9.4713772700        9.6389962500       23.7587725400
  H         4.8526267900        3.1119365500       24.1427055400
  H         2.9875273200        5.6355616900       24.0651677100
  O         8.5085474100        9.4562536500       23.9543610500
  O         5.5462256400        9.6250877200       24.0488015900
  H         2.3846015500        0.9981300600       22.2021133400
  H         8.9963752600        5.2436116400       23.2409593300
 Pt         2.8679682400        9.2517789700       26.3167161400
 Pt         5.6108009300        9.1960482700       26.1552013400
 Pt         8.3970184100        9.1850373500       26.1120055300
 Pt         0.0913422500        9.2397055900       26.2037631000
 Pt         8.4187665700        4.3915211300       26.3282529100
 Pt         4.1914828800        6.7909353800       26.2973987500
 Pt         9.8257049000        6.7806005700       26.3518630400
 Pt         7.0393758900        6.7619592800       26.3220820800
 Pt         0.0699286800        4.4182757300       26.3258382300
 Pt         1.4591339100        6.8071620000       26.2998134200
 Pt         9.8441071900        2.0442638600       26.4004248000
 Pt         7.0935789900        2.0192478200       26.4143762400
 Pt         2.8762213800        4.3985719800       26.3368384100
 Pt         5.6540741800        4.3869815400       26.2931060000
 Pt         1.4854547500        2.0494795500       26.3242284500
 Pt         4.2132310300        2.0215659100       26.3996199100
  H         6.4612095600        0.2158719500        9.0676337100
  H         6.6801409800        3.5104545200       11.4136226800
