     244
Tv_1:  11.152900   0.000000   0.000000 Tv_2:   0.000000   9.658700   0.000000 Tv_3:   0.000000   0.000000  26.829700
 Pt         5.5362469134        7.9596147951        1.7026682021
 Pt         6.8363782887        0.5811359986        1.7269089088
 Pt        11.0725921013        7.8276705954        1.8624151981
 Pt         8.2077526328        7.7701287619        1.7950489664
 Pt         8.2781488090        3.0289793375        1.8673732497
 Pt         2.7493492499        7.8656819710        1.8049925611
 Pt         9.7930472928        5.4466712472        1.9051854375
 Pt         6.9114448497        5.3600203300        1.7444316814
 Pt         5.5257329604        3.0030711162        1.7333410699
 Pt         4.1759281632        5.4374310780        1.8165836404
 Pt         9.6707331932        0.5294110184        1.8336987569
 Pt         1.3994142447        5.4509285257        1.9839967537
 Pt         1.2109900045        0.6684062451        1.8391765511
 Pt         2.7551269231        3.0103681008        1.9022236226
 Pt         4.0409268245        0.5956939724        1.7592822140
 Pt        11.1489335096        3.0728520485        2.0261017891
 Pt         5.2167395023        6.5775811790        4.1575094039
 Pt         7.8811212387        6.4593600358        4.2205393155
 Pt         6.3927116357        8.9704972537        4.0593075398
 Pt         6.5558723621        4.0370826691        4.1515754284
 Pt         7.8795428999        1.5769027037        4.0993309632
 Pt         5.0867027832        1.8359346081        4.0944875724
 Pt         9.3582036953        4.0676174266        4.2083172645
 Pt         9.1702881314        8.8807038527        4.1421495153
 Pt         1.0407093596        8.9356268441        4.1711085030
 Pt        10.7453676992        6.5948099806        4.2662871376
 Pt         2.1494864861        1.8470022394        4.1970394763
 Pt         2.3235294379        6.6406804631        4.1520570081
 Pt         3.7758929118        9.1195003152        4.0588566052
 Pt         3.7558571578        4.2407542936        4.2539767348
 Pt        10.5709870206        1.5736050740        4.2113514731
 Pt         0.9634677238        4.2365286431        4.2760875830
 Pt         5.9773344755        2.8509546112        6.5728183594
 Pt         8.8254986393        7.7201223484        6.5388716760
 Pt         7.3937845962        5.2549983701        6.5855597309
 Pt         7.3698907957        0.4566862496        6.6463116198
 Pt         4.5638917503        0.5148100344        6.5245299919
 Pt         1.9685926684        5.2340764447        6.5811791232
 Pt         1.8262514246        0.4822649157        6.5130521377
 Pt         5.9814488144        7.8037405933        6.4073807386
 Pt         3.2541547440        2.8784581211        6.5608302751
 Pt         0.3880190659        2.8198057773        6.6141820163
 Pt        10.0983958095        5.1619648547        6.5498401843
 Pt         8.8087297010        2.7478888301        6.5764947848
 Pt         4.6840641356        5.2982614310        6.6319166128
 Pt        10.1705735043        0.3139875253        6.5324701305
 Pt         0.5759244182        7.6566511922        6.5098376198
 Pt         3.2578722028        7.7554652230        6.4938107264
  O         4.6780420990        5.3073895415        8.7447441299
  O         0.3516045694        7.4719368215        8.5357587048
  O        10.3666236404        5.2357619939        8.6836204237
  H         2.4106822415        2.1476018160        9.7147008753
  H         6.5543646168        6.3011866890        9.1846993748
  O        10.2494009209       -0.0313954038        8.7804952617
  H        10.8189673021        8.7783240910        8.8561566007
  H         3.8460057468        2.6609077912       10.3630815493
  O         7.2038536444        0.6567945878        8.7496260163
  H         7.3853518195        9.3934471246        9.2411130023
  H         9.5977999295        5.4294635181        9.2936517774
  H        10.9683127513        0.6493416522        9.1845464865
  H        -0.2593962086        6.1350495746        8.6207477580
  H         7.4617253796        3.9193770164       12.5278467140
  H        11.4256270550        2.3776998347       10.4072097899
  C         5.5030707045        6.3314094687        9.4167257624
  H         1.2356151508        7.3972867077        8.9131903155
  O         7.5136219449        3.9039411925       11.5781104737
  H         4.0489737057        9.2282923407        9.5940658992
  H         4.0339433038        1.1462073719        9.1696447138
  H         5.4848912314        6.1995563452       10.5360193797
  O         4.4359831182        0.2230904024        8.9620384145
  O         3.2508959746        2.5350159984        9.5103717321
  O         0.8086170732        1.6271182701       10.0873541968
  H         0.9715226604        1.0189856890       10.9165738780
  H         6.6511486250        8.8883593979       11.3052900767
  O         7.1652233785        8.6058463173       10.5017228656
  H         4.9957821170        1.6598203414       11.9763528134
  O         4.7147180778        2.5139023127       11.6680849062
  O         2.2729345781        5.3233409909        8.7496724948
  H         3.5171658561        5.3292979138        8.8612516025
  H         5.0753868607        7.2920009201        9.2615945510
  H         3.5092425895        3.7127062496       13.1126474422
  H         5.5493452756        2.9546768059       11.3428103147
  H         7.6540940241        7.8040692293       10.7585274423
  H         3.8097447293        5.7721403398       12.5344977770
  H         5.0409991977        6.7883894491       12.7524724428
  O         4.1327430807        6.6884863502       12.4357690283
  O         3.2481824808        4.3695741905       13.7744972394
  H         2.1085695157        4.4140608276        9.0594846017
  H         8.5788934796        1.4686986258        9.8976303755
  H         3.9832643592        4.2864354939       14.5128902864
  H         9.8966629047        7.9946383701       12.8233054547
  H         0.5250865041        8.5112032744       11.8691222368
  H         9.3763981196        1.4698951429       11.2517981313
  O         1.2621468225       -0.4010900158       11.8500858129
  O        10.2661443698        7.1640097355       12.4889695677
  O         9.0661550367        2.0178135711       10.5394993392
 Cl         5.9005192143        9.6164847833       12.9708314954
  H         2.3291647690        8.4314373310       10.8145869411
  O         8.6252436563        6.0103865437       10.3987285630
  H         8.3609381243        5.2034454770       10.9635502117
 Cl         0.0352397533        2.8780241919       12.8925115778
  O         8.9604030482       -0.0898079452       12.9202437925
  H         1.2435455347        0.0018963557       12.7491492678
  O         3.0523379476        8.1090416993       10.2030154938
  H         9.3562363963        6.5644543489       10.9081527109
  H         9.3247433221        0.6088644006       13.5078546503
  H         8.0163159898        0.1839003129       12.8737554032
  H        10.6713604533        6.7668846404       13.2411915440
  H         5.3882983709        4.8358956462       19.4555151281
  O         7.2103364029        4.8673667077       14.4340428053
  H         6.4920945751        4.6077218791       15.0840233050
  H         7.1702332086        8.1648915016       15.2659177269
  H         3.5121847168        7.4545994983       10.7755554209
  H         9.3105197576        2.9690885292       14.0362546363
  H         4.6146423465        0.9806045463       14.3942148181
  H         7.5051011774        5.6894459045       14.8524712501
  H         1.2422145890        1.9427960722       13.9595630699
  H         7.9962319192        3.3746969689       14.9028717185
  O         5.7627534246        4.2099018889       20.0755190750
  H         6.2584465232        4.7380070342       20.7142306056
  O         4.2717183762        1.3479859169       15.2052330849
  O         7.4841584550        7.3122783193       15.6231495066
  O         8.6748807282        2.7086036155       14.7759999847
  H         3.2399779206        1.4197008929       14.9589425148
  H         0.5813983579        4.7530908915       13.5976090222
  O         1.8797718972        1.2676611275       14.4286058044
  O         2.7491792918        7.4423311057       14.7816740728
  O         0.6912459254        5.5557275007       14.1055909508
  H         2.3559306302        8.3276735181       15.0465566248
  H         4.9813896690        3.0332294975       15.6174781002
  O         4.9601485180        3.9989936006       15.6806404302
  H         8.2720938827        7.5358430940       16.2077145900
  H         1.3560891073        0.9119779608       15.2100100826
  H         5.6225312109        6.7369022571       15.9463527011
  H         4.0379352434        7.0316545476       15.8984025310
  H         2.9936241335        7.4926013993       13.8492297067
  H         4.5062659213        4.2416126661       16.6399390870
  H        11.0555601269        5.3431076170       15.6635941590
  O         4.8551068385        7.0031890457       16.4996072367
  H         1.6314466944        5.6127358579       14.2941171913
  H         9.2648180911        2.4456651451       16.2582800776
  H         0.9041352238        0.3443443105       17.4271736989
  O        10.5728896224        5.1299198760       16.5119348517
  O        11.3745931148        0.1745842820       16.7332394564
  O         2.4042396534       -0.1323542147       18.6303251713
  H        10.1423847579        4.2374361802       16.4667762888
  O         9.9252770669        2.5247127714       17.0051916718
  H         2.3246878400       -1.0828136638       19.0110707936
  H        10.7069429378        0.9019346518       16.9311417214
  H         3.3038846958       -0.1832821495       18.1852492160
  H        10.6114070413        8.1268663925       17.0649981019
  H         0.7525387955        4.7226152358       17.8587029787
  H         4.8686290168        8.6196139487       16.9854134994
  O         9.9033606564        7.5518464250       17.3112452083
  H         9.3115464609        2.7068859872       17.7578382540
  O         1.3750183738        4.8010213884       18.6007529304
  O         4.8396184955       -0.1553991716       17.3483215441
  H         4.8172909357        0.5059821752       16.5738691881
  H        10.2326355573        6.6189145812       17.1685682632
  O        10.5550056472       -1.1176267490       20.9963969028
  H         1.2543514833        5.5928264733       19.1557266423
  H         2.1585598842        1.6017254396       19.4776815481
  H         4.4262684664        5.7622395270       17.6027470706
  O         8.4908211578        2.6415272972       19.4224470708
  H        10.5877322829       -0.1464795517       20.9553322840
  H         1.6661705222        3.2292999735       19.3343444360
  O         1.7401213076        2.4396134245       19.9193227124
  H         7.8397184841        3.3531845586       19.6796926443
  H         6.1016262515        0.0465114398       18.5953126852
  H         3.1004909327        4.9525229759       18.2267103930
  H         7.9680904597        1.7964290917       19.3685459151
  H         9.6600477385        8.3437408347       20.5740232885
  O         4.0524941892        4.9470577977       18.0147543847
  O         1.4008940254        6.9905276233       19.9528141438
  O         6.6920054919        0.1275130061       19.4010542568
  H         3.2071575546        0.0750824198       20.7050723134
  H         9.6287507438        2.3056117343       20.6561519098
  H         1.7968109813        6.8403685215       20.8243072370
  O         8.3385928164        7.7015410424       19.8681597625
  H         0.5293490852        7.4525228229       20.1005846322
  H         8.8123959034        7.3592503685       19.0164146153
  O         3.7750572233        0.2571474114       21.4908783278
  O        10.3923975002        1.9215738404       21.2153507043
  H         6.0571974206        0.0446971655       20.1567474074
  H         7.7357003653        8.3823403558       19.4464040287
  H         7.5897625908        6.5287695393       21.0213591536
  H         4.3341141206        3.6275943410       20.7817028874
  H        11.1539858598        2.2565198168       20.6757295177
  O         7.1237203810        5.9649259412       21.6330105845
  H         3.9992545515        9.0415908904       21.8752298631
  H         4.3491088136        6.8910857571       22.9565379799
  H         7.9119650803        5.9398322794       22.3002635930
  O         3.6783996671        3.4468175829       21.5140997506
  O         0.3067948501        9.3631228806       23.9971419892
  O         5.0147097797        7.5816372325       22.6733487925
  O         8.1048428131        1.7559100853       23.1691714492
  H        10.5164985103        2.7533834708       22.5281292148
  H         2.8916978734        2.9849398641       20.9873464091
  H         5.7642744031        7.0903522338       22.2589322861
  H         0.6763119592        8.4786890990       23.6984822363
  H         7.1718510248        2.0651071463       23.2462037120
  H         8.7088124940        2.4543986994       23.5069865462
  H         4.6709827068        2.8295037658       22.7138178504
  H         0.8509968121        0.4625250326       23.6198114173
  H         3.4299905566        4.8543059673       22.4877649412
  O         1.0084722370        7.0054186246       22.9919452064
  H         1.5928645450        6.2631649872       23.2093381318
  O         3.2315155404        5.5922516191       23.1305419572
  O         5.4261356894        2.4103536058       23.2795218112
  O        10.2543648624        3.4124120436       23.2685538557
  O         2.0105608196        1.5567685633       23.1755969443
  O         9.1721484350        5.7928406524       23.2924413824
  H         8.3951047798        0.3916299227       23.8021614776
  H         5.4977146052        8.8206264576       23.5118093568
  H         2.2874717120        1.9368871047       24.0297192798
  H         9.0403937984        6.0867300696       24.2382940250
  H        11.2821762605        6.7034353199       22.7188611014
  H        10.9118968825        3.1701824177       23.9215817164
  H         5.4338531655        0.7840704482       23.7912525513
  H         9.7245423920        9.0223268872       23.8502622815
  H         5.4422128998        3.0492050179       24.0120911148
  H         3.3056556889        5.1326977654       24.0140326296
  O         8.7309643157        9.0659486822       24.0148109974
  O         5.8610880098        9.6166677010       24.0354487713
  H         2.7561911339        1.0243548474       22.7550546236
  H         9.6844059608        4.9258967976       23.3036405941
 Pt         2.9763816867        9.2200062823       26.2660649343
 Pt         5.7886369975        9.1529337706       26.0895246136
 Pt         8.5471376133        9.2353067316       26.2384005504
 Pt         0.2877515424        9.2870703103       26.2889934767
 Pt         8.5407335541        4.3560733161       26.2901848610
 Pt         4.4396999368        6.7692544501       26.2677389851
 Pt         9.9319356546        6.6903477803       26.3967948071
 Pt         7.1724655387        6.7516021167       26.2443530577
 Pt         0.2075474398        4.3545246865       26.4204176359
 Pt         1.6109744909        6.7572210249       26.3032802630
 Pt         9.9452790844        2.0372643064       26.2900075840
 Pt         7.1690993849        2.0835052295       26.2080131464
 Pt         2.9149353717        4.3619744810       26.3028952293
 Pt         5.6594414668        4.3567578977       26.2132698484
 Pt         1.5111885564        2.0397875581       26.2981954541
 Pt         4.3439426791        1.9724250646       26.3151482651
  H         6.1883405545        0.7003870028        9.0003230620
  H         8.1341776228        3.2608477057       11.2581844090
