     244
Tv_1:  11.152900   0.000000   0.000000 Tv_2:   0.000000   9.658700   0.000000 Tv_3:   0.000000   0.000000  26.829700
 Pt         5.6345891079        7.8879316951        1.6968643117
 Pt         6.8443943451        0.5503404618        1.8642632576
 Pt        11.1251381940        7.7734924727        1.8193953023
 Pt         8.3021659345        7.9033848158        1.6956369797
 Pt         8.3006873492        2.9371800433        1.8105817402
 Pt         2.8090096766        7.8321993114        1.9065785139
 Pt         9.6560161207        5.3323698008        1.9199722002
 Pt         6.9686518034        5.3974732946        1.8216122905
 Pt         5.4556861134        2.9895459332        1.8450428298
 Pt         4.1954583790        5.4243279262        1.8339690349
 Pt         9.6923108173        0.5713126092        1.7251321517
 Pt         1.3767562198        5.3437489247        1.9899747113
 Pt         1.2862168901        0.5742618497        1.8503985561
 Pt         2.7125029368        3.0756995956        1.7115564408
 Pt         4.0097337911        0.6522071938        1.9421810477
 Pt        11.0106474810        2.9860505916        1.9579563175
 Pt         5.1070827910        6.4768410678        4.1440090721
 Pt         7.9259794555        6.4657741996        3.9911410470
 Pt         6.5316704014        8.8018467868        4.1750260438
 Pt         6.5919063028        4.0617350245        4.0898906596
 Pt         7.8638403902        1.6114463600        4.2096115199
 Pt         5.1148844439        1.5774623263        4.1559301449
 Pt         9.3447547697        4.0381174641        4.1323028379
 Pt         9.2383762966        8.8366631698        4.2118103636
 Pt         0.8148818209        8.8320194839        4.1412298654
 Pt        10.7185404935        6.4894644547        4.2449754392
 Pt         2.2925384234        1.6677099266        4.1427082344
 Pt         2.3712404558        6.5184292461        4.1589936336
 Pt         3.7856546097        8.9711088893        4.2980234298
 Pt         3.8192117303        3.9726955607        4.0779471028
 Pt        10.6584470551        1.5382005020        4.2251202507
 Pt         1.0294415197        4.0573279453        4.2793311773
 Pt         6.0711303040        2.7483146544        6.4183481523
 Pt         8.7205045650        7.6176796094        6.5558785484
 Pt         7.7063121450        5.1220465537        6.3482937361
 Pt         7.3958456707        0.2691847587        6.5808029479
 Pt         4.6000561963        0.3812333340        6.6485500751
 Pt         1.9042794915        5.1064858400        6.5744064909
 Pt         1.8846025130        0.2597093219        6.5496315710
 Pt         6.0771851435        7.4075566342        6.4603676480
 Pt         3.3399909447        2.7961692720        6.5655046219
 Pt         0.5467707904        2.6107737170        6.5279956957
 Pt        10.3425900895        5.1855004651        6.5085886232
 Pt         8.9145505274        2.7633038170        6.4611819461
 Pt         4.8072216820        5.1844726345        6.5054793416
 Pt        10.1212853493        0.3807616347        6.5862848443
 Pt         0.5887255632        7.6047771778        6.4970408489
 Pt         3.4272387978        7.6424841146        6.5364079640
  O         4.6443617585        5.0518052943        8.6470451608
  O         0.6271555863        7.5047889811        8.6626032197
  O        10.3127928213        5.5250100854        8.6664075185
  H         2.3106139045        2.1206098416       10.1957466292
  H         6.5001879160        5.0318928840        9.5058429155
  O        10.0810431306       -0.0169793050        8.7453369848
  H        10.8492373801        8.9328166776        8.7783471877
  H         3.7170393736        2.7356241904       10.8267998427
  O         7.1820167022        0.5928391747        8.9451281005
  H         7.2829904731        9.5738489626        9.6361481837
  H         9.4479252542        6.0152177724        9.0108466079
  H        10.5402356190        0.8438687095        9.0167922731
  H        -0.1182054787        6.1980064174        8.7064200593
  H         7.3974633803        4.6548822939       12.6766433635
  H        11.4955015932        2.3229321879       11.1035950858
  C         5.6120214417        5.5996076219        9.5342606717
  H         1.5634366022        7.4783025774        8.9013691703
  O         7.2242555920        4.5045083358       11.6938559054
  H         3.8977322561        9.5650058409        9.1706279442
  H         4.1301146896        1.4944132863        9.1811810134
  H         5.2454038804        5.7034748454       10.5905389124
  O         4.5615246005        0.5961406287        8.8682392292
  O         3.1795637600        2.5168180877        9.9466263686
  O         0.6537373908        1.5973082444       10.3792818002
  H         0.8623184728        0.7885068056       10.9082719324
  H         7.5816271223        9.2019984057       11.8473425827
  O         7.2444954481        8.5432983731       11.1845331619
  H         5.2475260199        2.4696502923       12.5920724930
  O         4.9112904448        3.3187960412       12.2028945080
  O         2.2010934964        4.9601175027        8.7951430201
  H         3.2296822819        4.9367078677        8.8757836710
  H         5.8404315315        6.6022627444        9.2321736836
  H         4.0418873999        4.6993123079       12.8935100902
  H         5.7629416630        3.8296256425       12.1311725906
  H         7.8394662159        7.7796511760       10.9576827151
  H         4.3212033337        6.6451858997       12.3854898316
  H         5.6131492218        7.6485786636       12.1543934996
  O         4.6429136808        7.5100628002       12.0058441168
  O         3.6062066727        5.5001426069       13.3428658000
  H         2.0477918893        4.0724778207        9.1359559070
  H         7.8908405841        1.7280323968        9.8172843250
  H         3.9556280904        5.3379942178       14.2829764103
  H         9.8846695271        8.0527102446       12.6354043494
  H         0.5361876943        8.3182901019       11.6787563508
  H         9.0620259745        2.7744159836        9.7938400626
  O         1.2746222528       -0.6164447208       11.6813402683
  O        10.3530714174        7.3328167283       12.2330893912
  O         8.4771543869        2.3160395625       10.4357297397
 Cl         6.0715717825       10.4464274489       13.5371367990
  H         2.5760726851        8.5140854134       10.2546419179
  O         8.6623216659        6.4109669333       10.3718133527
  H         8.1791203449        5.6076527324       10.6526786616
 Cl         0.0689481468        3.4828271082       12.7178168774
  O         9.6810146645        0.5730291586       12.2791589481
  H         1.4869069617       -0.6276333031       12.6029359576
  O         3.3146912830        8.0947325504        9.7551773367
  H         9.3990898130        6.7148059416       11.0109187881
  H         9.3309390136        1.0419566672       13.0595329613
  H         9.4049962987        1.1594017326       11.5166309380
  H        10.9884312428        7.0453023914       12.9730212255
  H         4.9947478302        5.1995744181       19.1289101079
  O         6.8450650150        5.1943129010       14.4249403521
  H         6.0472611739        4.8192209952       14.8921549266
  H         6.5659620931        8.8165556795       14.4238374394
  H         3.9394150453        7.7232876251       10.4739166481
  H         9.5161425437        3.5861495929       14.1528632642
  H         4.4617989252        1.6837605046       14.6534645997
  H         6.9767621203        6.2105957343       14.5024349874
  H         1.0570696243        2.0264956265       13.5420950098
  H         8.2048157595        4.1534562012       14.7330981935
  O         5.5120168922        4.7429252702       19.8481998640
  H         5.8892538184        5.2945088026       20.4881584213
  O         3.9007794471        2.0840518331       15.4067910770
  O         6.9974209001        7.9988241729       14.7565967232
  O         8.7938287910        3.3268955703       14.7852394004
  H         2.9236347575        2.0539117013       15.1355403749
  H         1.3241231476        5.8762173630       13.9451951173
  O         1.5012802198        1.3925885617       14.2464360353
  O         2.9794709387        8.4744522927       14.2005264667
  O         0.9507714458        6.6653016802       14.5110050684
  H         2.7437996176        9.4397408518       14.3434392140
  H         4.4134379847        3.6774070937       15.6597573536
  O         4.4971060705        4.6705280333       15.7252465986
  H         7.8118732863        8.2022403764       15.2416442609
  H         0.8320144686        1.3471189441       15.0578363880
  H         5.6340832081        7.8268860832       16.1090479942
  H         4.0353249314        7.9061225158       15.8097340653
  H         3.6003437742        8.3327940131       13.4249480993
  H         4.3406738497        4.9272266192       16.6604559009
  H        11.4417492709        6.2245070165       16.0471237243
  O         4.7215752595        7.9125823067       16.5024845865
  H         1.6288866567        7.3781832303       14.3727127879
  H         9.1755875210        3.5496115769       16.2445020568
  H         0.9597715846        1.3999626989       17.4800967498
  O        10.9583886486        6.1523686500       16.9210070761
  O        11.3874145751        1.6213238967       16.8263223463
  O         1.9893771719        0.4063612790       19.0599273730
  H        10.4683404336        5.2676650108       17.0150087074
  O         9.6195279039        3.7748205857       17.1114786153
  H         1.5521495519       -0.4546730785       19.4034348035
  H        10.8903515653        2.5127290199       17.0357793086
  H         2.7803959490        0.2180172455       18.4560107241
  H         9.5598722405        9.5148679671       16.5629642354
  H         0.7859813594        6.0800142761       18.3851705028
  H         4.5509392472        9.2835675911       17.2563600120
  O         9.1984533338        8.6747977862       16.8302482295
  H         8.8511217650        3.6864715588       17.8080309071
  O         1.4740167703        5.8079766616       19.1118417869
  O         4.2294848569        0.4692643951       17.7911874365
  H         4.1067204827        1.1578492981       17.0833907191
  H         9.9561271438        8.0130116553       16.8983401564
  O        10.0982579367       -0.3689266444       20.9404317133
  H         1.1267187366        6.4381103886       19.8170441223
  H         1.1995191653        2.4477718467       19.6050683199
  H         4.1642369113        6.8367207527       17.7292786038
  O         7.7502597720        2.9535361376       19.2419063003
  H        10.1382021987        0.6280602205       21.0691824536
  H         1.2856042500        4.0419291909       19.3581719409
  O         1.1219840720        3.2964649110       20.0587480573
  H         6.9869218266        3.6210879463       19.3990145958
  H         5.5973331278        0.5060544605       18.9601384088
  H         3.0268415729        6.0390663051       18.5237677251
  H         7.1557426498        2.1570704543       19.3845029046
  H         9.4658820249        9.0392142199       20.2319392521
  O         3.9414702675        5.9603949213       18.1035291849
  O         1.0935325996        7.8970418739       20.5274272028
  O         6.1252797483        0.6167174535       19.8745659280
  H         3.1011226418        0.4097542608       20.3223523815
  H         9.0413934481        2.6538086724       20.2693054318
  H         1.2117521426        7.6659586973       21.5361485684
  O         8.0039775212        8.5199184707       19.4890401644
  H         0.2949634611        8.4896480390       20.6614754570
  H         8.1019741814        8.5311586536       18.5193858199
  O         3.6087870370        0.2672120098       21.1868083377
  O         9.7695679621        2.5072387629       20.9393591821
  H         5.3379923227        0.5087324437       20.4720506495
  H         7.2544162462        9.1521425719       19.7816323184
  H         7.5671597711        6.9973460150       20.6814677867
  H         4.2480932499        4.1112089165       20.8292492259
  H        10.6024965975        2.9338193219       20.5416300170
  O         7.0141945611        6.3931522092       21.2249153551
  H         3.8635738571        8.9512214785       21.2771565970
  H         4.1161082646        7.1150913229       22.8183624065
  H         7.7123852013        6.2117479693       21.9564840098
  O         3.7041718261        3.7229173062       21.6079221743
  O         0.3584128470        9.2698785042       24.1038598656
  O         4.8225167163        7.7911545321       22.4260177808
  O         7.4608859823        1.9163578806       23.9495206066
  H         9.6451157263        3.2805204846       22.4285478215
  H         2.8259119910        3.4758664127       21.1560299229
  H         5.6700802533        7.3083008621       22.1094529180
  H         0.7594722739        8.3665005828       23.8537558586
  H         6.6233116422        2.1285787961       23.4966324266
  H         8.1845012154        2.5638965858       23.7518601108
  H         4.5319782022        2.8045594371       22.5157327197
  H         0.9883969613        0.3160879057       23.8212047356
  H         3.2840291508        5.1609762740       22.5806360842
  O         0.7653764862        6.9240565276       22.9855659280
  H         1.4578501145        6.1816767056       23.1398610855
  O         3.0118107581        5.8116998449       23.2502292071
  O         4.8950514984        2.3364185159       23.3340080180
  O         9.4571350134        3.5063988534       23.4348009542
  O         2.0125322031        1.4849763144       23.0378036297
  O         9.1904439272        6.1488912449       23.0378339486
  H         7.5795812026       -0.0792687404       23.4274673950
  H         5.3772027576        8.6128118518       23.3378034074
  H         2.7617677364        1.8664435826       23.5615897795
  H         8.7488257180        6.7528813144       23.6511287962
  H        11.0253723845        6.5421665734       22.8878434336
  H        10.1535599149        3.1736307723       23.9900557394
  H         5.1371344681        0.6697101510       23.7699683755
  H         9.1161396682        9.3700310251       23.1576251733
  H         4.6394175590        2.8414344426       24.2024792461
  H         2.8853412203        5.3472928472       24.1375539824
  O         8.3394912562        8.9677779513       23.5762187166
  O         5.6509118264        9.4756635475       23.9973940130
  H         2.4612271151        0.8884808045       22.3275374364
  H         9.0524666825        5.2277437720       23.3399651405
 Pt         2.9331163298        9.4195039276       26.4091974631
 Pt         5.6673149583        9.2313605093       26.0911278673
 Pt         8.4567120636        9.1080548029       26.1277021315
 Pt         0.0837716006        9.3336266339       26.2394761567
 Pt         8.4276117914        4.3437417380       26.1414482947
 Pt         4.1750040747        6.8629340041       26.3359582353
 Pt         9.8520549798        6.7417077046       26.4422036702
 Pt         7.0082703229        6.7516350843       26.2828883241
 Pt         0.0194721119        4.4125628783       26.2890227483
 Pt         1.2919358151        6.8277728406       26.4882534338
 Pt        10.0660075148        2.0072865865       26.3360497770
 Pt         7.2904449355        1.8949510292       26.3998561606
 Pt         2.9133034269        4.5075891845       26.2039716747
 Pt         5.6658611402        4.4843081759       26.2483691712
 Pt         1.5861279140        2.0874760678       26.3256904459
 Pt         4.4526762497        2.1241103638       26.2307043713
  H         6.2008467399        0.6349709086        8.7895033325
  H         7.7399313297        3.6952745698       11.5367160296
