     244
Tv_1:  11.152900   0.000000   0.000000 Tv_2:   0.000000   9.658700   0.000000 Tv_3:   0.000000   0.000000  26.829700
 Pt         5.5581893135        7.9639618285        1.6321067045
 Pt         6.7002204475        0.7729024671        1.7700442953
 Pt        11.1461914682        7.7179595470        1.7763288560
 Pt         8.2466530559        7.9388995846        1.6809239796
 Pt         8.1770096455        3.0531004400        1.9590010699
 Pt         2.7566174791        7.8031708094        1.8541239395
 Pt         9.6798238333        5.3398470532        1.8653824752
 Pt         6.9560994144        5.5156894543        1.8525293171
 Pt         5.4470201505        3.1339625545        1.7822982031
 Pt         4.1111809706        5.5620773249        1.8642846068
 Pt         9.6391812631        0.5579041991        1.7710128523
 Pt         1.2788448492        5.3834245359        1.7840848133
 Pt         1.2571137382        0.5609073489        1.8239477658
 Pt         2.6680351913        3.0964649861        1.9229564145
 Pt         3.9254186911        0.7079718047        1.8290104985
 Pt        11.0281396936        2.9720350557        1.9484980855
 Pt         5.1113958839        6.5378352713        4.1408657174
 Pt         7.9077657990        6.4876105794        4.1315146045
 Pt         6.4251560450        8.9581250411        4.1096759128
 Pt         6.5311865784        4.1056981389        4.1114407086
 Pt         7.9815798693        1.6454330128        4.1931812814
 Pt         5.2468863895        1.6983321343        4.1066176027
 Pt         9.4014160671        4.0619350501        4.0993944334
 Pt         9.3159209772        8.8259109341        4.1124879287
 Pt         0.9632331510        8.7925589964        4.1210003090
 Pt        10.6863962726        6.4661937304        4.2041408320
 Pt         2.3325657666        1.5863392049        4.2636028079
 Pt         2.3197317434        6.3821661300        4.1302351781
 Pt         3.6570704379        8.8036729964        4.0933236337
 Pt         3.8271717022        4.0774580507        4.2198251855
 Pt        10.8132153748        1.5900678196        4.2428888760
 Pt         1.0642524372        4.0218331385        4.2550914146
 Pt         6.2070850568        2.8105543987        6.5036604428
 Pt         8.8208667954        7.5065386879        6.4594182733
 Pt         7.5118681917        5.1600707786        6.5882615404
 Pt         7.6340049443        0.2875205293        6.5330768021
 Pt         4.8052276882        0.3867856557        6.4540387572
 Pt         1.9095161088        4.9972630590        6.6048101994
 Pt         2.0415939015        0.2114465604        6.5011955198
 Pt         6.0825886638        7.5640329161        6.4368142826
 Pt         3.3644057479        2.6291177195        6.4353069069
 Pt         0.6623498468        2.6050809033        6.6629615891
 Pt        10.1999644449        5.0184445382        6.5806596309
 Pt         8.9664615729        2.7496656507        6.4916837733
 Pt         4.8250245892        5.1908969267        6.4681899533
 Pt        10.3687816475        0.2558637780        6.4858626830
 Pt         0.4746334265        7.3902373062        6.5332730315
 Pt         3.4932770176        7.6166881749        6.3996890636
  O         4.8265642369        5.5557417703        8.6365053370
  O         0.5096575951        7.3941621743        8.5219378251
  O        10.3105744985        5.3016434903        8.6920393211
  H         2.3760877027        1.6593239964       10.0254158260
  H         5.9967683740        3.9452471447        9.3180549758
  O        10.5831717137       -0.0693953834        8.6799985223
  H        11.0890018269        8.6448973457        8.6731923083
  H         3.2614290875        2.6979413835       10.8544823947
  O         7.5420960886        0.4273151716        8.7637130369
  H         7.9939918935        9.4099444968        9.3913978735
  H         9.5258630485        5.4626499181        9.3540250591
  H        10.9889171759        0.6320336421        9.3018670725
  H        -0.2558145490        6.1034331328        8.7828153316
  H         7.2683351441        2.8495867151       12.1639161608
  H        11.2950196976        1.5262871314       11.3618187132
  C         5.8732405084        4.9938815467        9.4436576259
  H         1.4336407587        7.2278424114        8.8063686977
  O         7.2730104334        3.5977916621       11.5484771556
  H         4.3072911026        9.3119795196        9.0212171917
  H         4.4108323301        1.2736814364        9.1780703204
  H         5.4507920944        5.0863339285       10.4542769515
  O         4.9376635660        0.4715339197        8.7986652648
  O         3.0779490646        2.3385762809        9.9472682649
  O         0.7696962800        1.0773630273       10.7538278557
  H         1.1863129809        0.2386340413       11.2023732307
  H         8.1965318430        8.9696699771       11.4746466716
  O         7.6660742688        8.4509668530       10.8288610729
  H         4.9544884121        2.5524661256       12.8115200512
  O         4.5683144637        3.3310127130       12.2672124393
  O         2.3194360628        4.8073837179        8.8532603249
  H         3.3673479884        5.0760344204        8.8834897064
  H         6.8267655618        5.4508723878        9.2525501870
  H         3.7302541054        4.6449821405       13.0190230635
  H         5.4096953217        3.5357169834       11.7553879796
  H         8.1451642065        7.5564764608       10.8533414142
  H         5.8251815521        6.8540327211       12.2959776091
  H         6.0607886153        8.3830061700       12.0664160794
  O         5.4156240743        7.7035316866       12.4424366361
  O         3.0001974432        5.3749134559       13.2237426585
  H         2.4469239254        3.8700432947        9.2976426141
  H         8.4197337295        2.0611284018        9.0436419416
  H         3.1329622145        5.6300966445       14.1817145614
  H        10.5020718379        7.5714393218       12.2951090606
  H         1.1463177551        7.7749416392       11.3394173422
  H         9.5514259047        2.6880791628        9.9647460778
  O         1.9332704303       -1.3036557918       11.2604292185
  O        10.9251000102        6.7692489147       11.8026718421
  O         8.8419486330        2.8935959708        9.3161255789
 Cl         6.0554647249       10.7566794918       13.5150773363
  H         3.0692783310        7.8697042268       10.2589410284
  O         8.6708776317        5.9133224981       10.6662005724
  H         8.3232292349        5.2017075128       11.2798290045
 Cl        -0.8453120509        2.2396596581       12.8626732891
  O         9.5308882202       -0.9157332886       12.9451450416
  H         2.3510082222       -1.3068556288       12.1382154565
  O         3.5233645428        7.8642897740        9.3464957251
  H         9.5349913924        6.2199474071       11.1739554866
  H         8.9264403787       -1.1750669729       13.7032460868
  H         9.7977807009       -0.0221795860       13.2735875515
  H        10.9782166782        6.0689663692       12.5010092151
  H         5.4949012207        5.7133947429       19.2384947416
  O         6.5543003652        5.5290642232       14.5101375560
  H         5.7259028074        5.4276272118       15.0895231418
  H         7.1181528982        9.3919955777       14.7254213758
  H         4.2442483684        7.1581674635        9.2471991251
  H         8.6524707397        3.5973147543       13.6268142933
  H         4.3714151088        1.7130585535       15.2890616818
  H         6.6540843714        6.4951215918       14.5684165124
  H         0.6444311726        1.4241596882       14.1291338863
  H         7.6340065951        4.3391782985       14.5129153250
  O         5.8788637533        5.1372901061       19.9638258575
  H         6.2601257482        5.8062057350       20.6190025495
  O         3.6321072728        2.2352759221       15.7266545875
  O         7.2115686731        8.4143898644       15.0949747618
  O         8.5061069732        3.8389654505       14.5190595185
  H         2.7484153623        1.9900065342       15.4541616651
  H         0.0053224551        4.1879939946       13.2937198445
  O         1.1866144841        0.8826620645       14.7543283199
  O         2.9320761878        8.5502564079       13.6886244165
  O         0.3892765005        5.0533263025       13.6840333021
  H         2.5581740095        9.4018357839       13.7092454486
  H         4.1652422987        4.3056028605       15.8998124747
  O         4.3797129346        5.2322158459       15.7791472008
  H         7.6570256937        8.4983949276       15.9597429696
  H         0.6365296405        0.8570631552       15.5989688340
  H         5.4456174046        8.2556856464       15.3267724727
  H         3.8850829582        8.3436011510       15.2317110534
  H         3.8794318749        8.5101635537       13.3350548842
  H         4.2662941377        5.5130103958       16.7731837134
  H        11.2813253175        5.3416802287       15.7311097486
  O         4.6417106231        8.2651028687       15.9017634688
  H         1.3630186390        5.0165984166       13.5603984914
  H         9.2985216183        3.2621727866       15.9055955111
  H         0.3295345339        0.8028639188       17.6626288628
  O        10.7982453229        5.5773593609       16.6926861495
  O        10.7922930420        0.7387043742       16.9787564499
  O         1.8782144763        0.4133283676       19.2439052160
  H        10.4135502060        4.7037485816       16.8523583528
  O         9.7735986004        3.0761479916       16.7615520343
  H         1.3866257429       -0.4122788553       19.4780675162
  H        10.3942495376        1.6970068330       17.0171858586
  H         2.4835563328        0.1088669425       18.5381708695
  H         9.8554690057        8.9018992344       17.0794867261
  H         0.9285683294        5.9951501501       17.8728664843
  H         4.4062367414        9.4169801115       17.0550878261
  O         9.1876909710        8.1533339839       17.1065814017
  H         9.1316255867        3.1901597714       17.5374604444
  O         1.6112536976        6.0263344456       18.6723899315
  O         4.0227891721        0.4284833679       17.6492893274
  H         3.8904104376        1.1882075229       16.9529170066
  H         9.5992178796        7.3148756550       16.8534936624
  O         9.8005482366       -0.3149800439       21.0124475650
  H         1.2333066586        6.7423365752       19.2727240007
  H         1.8883539566        2.9200125295       19.2887518486
  H         4.4939579107        7.1990587457       17.3705005311
  O         8.0694485433        3.3489269532       19.1047136437
  H        10.0755067783        0.6338819904       20.9598338945
  H         1.6053847399        4.5483372305       19.4887023603
  O         1.7260415955        3.5985740996       19.9689649972
  H         7.4830377972        4.0382281847       19.4715065024
  H         5.4407774699        1.0791317292       18.5662512844
  H         3.2710590853        6.5299187123       18.1813607843
  H         7.5091512175        2.5187491349       19.2334885725
  H         8.9333539431        9.2959995131       20.5151040039
  O         4.2763969486        6.4685020637       18.0044543607
  O         0.6652206158        7.9251421780       20.0706299384
  O         6.0802473905        1.3263389595       19.3599861763
  H         3.2399382585        0.6669900743       20.5397126950
  H         9.4340940438        2.8684595605       20.1106663534
  H         0.9323014345        7.6861479302       20.9302913416
  O         7.7923178470        8.8499168631       19.3482779591
  H        -0.2601798336        8.2775378718       20.2091208878
  H         8.3968637644        8.6140011221       18.5592365378
  O         3.8125236570        0.5708843376       21.3144566046
  O        10.1483176188        2.5487091121       20.8134166061
  H         5.4957400664        1.2206982010       20.1837053013
  H         7.1722277113        9.5917795870       19.0699296906
  H         7.2943023634        7.7819058413       20.4171915716
  H         4.5973035841        4.6094276335       20.9361666766
  H        11.0154126914        2.9697802671       20.5622122848
  O         6.9532681028        7.2609822227       21.1961701147
  H         3.8011163742        9.2770334504       21.5924233353
  H         3.9223895063        7.1607157639       22.7968737454
  H         7.6710422274        7.0140044800       21.7306857118
  O         3.7847514146        4.2474338949       21.4713033567
  O         0.0005659896        9.3983733245       24.0548784343
  O         4.5015787394        7.9336741235       22.4120159696
  O         7.3793389569        2.0575189969       24.0281068346
  H         9.7336739203        3.1765086172       22.3198986950
  H         3.0811660186        3.8990532787       20.8255006192
  H         5.4353843420        7.6386467807       22.2235494177
  H         0.3456934720        8.5684120767       23.6986797620
  H         6.4588367888        2.1965047497       23.6609924452
  H         7.9192904854        2.7997992334       23.6770719526
  H         4.6805301614        3.2659345357       22.6430901601
  H         0.6418760645        0.5076511229       23.6156943269
  H         2.9949221177        5.2473169263       22.6266249242
  O         0.6608457454        7.2834505719       22.8975425925
  H         1.2523334865        6.5496419417       23.1403828450
  O         2.9131275204        6.0594468170       23.2447851290
  O         5.0652395180        2.6856298955       23.3601074364
  O         9.4344995890        3.6064514082       23.1902152638
  O         1.6379682180        1.5604857068       23.1480920927
  O         8.7788913295        6.1572969050       23.1492999784
  H         8.1158709949        0.4413311044       24.0871963414
  H         4.8877596996        8.8511622583       23.5057005360
  H         1.9333595772        1.8762842048       24.0194117804
  H         8.4828925390        6.3616403271       24.0629093313
  H        10.9311388492        6.9246632066       23.0054493686
  H        10.2289390153        3.5872053067       23.7014629527
  H         4.7793012530        0.7608537892       23.9748315233
  H         9.5691267650        9.3552043266       23.8969946076
  H         5.0661515431        3.2299563977       24.2018294674
  H         3.0418579735        5.6102451814       24.1748617347
  O         8.5892858951        9.1800376974       24.1225894004
  O         5.3828356572        9.5979567691       24.0404148487
  H         2.4850256864        1.4448380040       22.6246688861
  H         8.9490386925        5.2074473789       23.0245145373
 Pt         2.9067669850        9.3128837827       26.3451123948
 Pt         5.5834340376        9.3196147844       26.1253210236
 Pt         8.3788334433        9.1536363666       26.3039692635
 Pt         0.1128744831        9.2279235572       26.3341563143
 Pt         8.4975418924        4.4642143560       26.3117683493
 Pt         4.2771236376        6.7901303884       26.2468885077
 Pt         9.8605319664        6.8214993607       26.3575585877
 Pt         7.0213801375        6.8051471268       26.2200961061
 Pt         0.0192369026        4.4358973479       26.3038452393
 Pt         1.5209158569        6.8660567732       26.2331669823
 Pt         9.8995542319        2.0024170593       26.3716252024
 Pt         7.0352649261        2.1570114021       26.3524000067
 Pt         2.8910442306        4.3595749340       26.3488923296
 Pt         5.6824737855        4.4089883802       26.2714430290
 Pt         1.4326010682        1.9514423459       26.3919335863
 Pt         4.1360990168        2.1192192239       26.2857822266
  H         6.5363360215        0.3348580746        8.9549588813
  H         7.6869539972        3.3862405221       10.6820622858
