     244
Tv_1:  11.152900   0.000000   0.000000 Tv_2:   0.000000   9.658700   0.000000 Tv_3:   0.000000   0.000000  26.829700
 Pt         5.5647200876        8.0515797092        1.5547071260
 Pt         6.8131334388        0.9146332438        1.8713477410
 Pt        11.0617779247        7.9392057342        1.8171145384
 Pt         8.2649659021        8.1131175638        1.7834168621
 Pt         8.2816875807        3.1538255754        1.8870846654
 Pt         2.6753541591        7.8086865682        1.9712401331
 Pt         9.4787463169        5.5469038624        1.9853641526
 Pt         6.8011150049        5.6075565014        1.9436438432
 Pt         5.4132384683        3.2547455370        1.8188618122
 Pt         3.9924782487        5.4999070214        1.8728222945
 Pt         9.5570963499        0.7831024902        1.8282117480
 Pt         1.3011142760        5.3953996372        1.8244409044
 Pt         1.1439913266        0.6647917066        1.8351765429
 Pt         2.5885896351        2.8804721720        1.8497301232
 Pt         4.0343572452        0.5465268689        1.8757908495
 Pt        11.0161515642        3.0540050405        1.9177439617
 Pt         5.1125916714        6.5178490417        4.1110301030
 Pt         7.9017279897        6.5956519693        4.1557659962
 Pt         6.4283532504        9.0118248937        4.0238446668
 Pt         6.5125880878        4.1517096938        4.1587950805
 Pt         7.8652895431        1.7256279614        4.2202257392
 Pt         5.1637356908        1.7799669807        4.0457163344
 Pt         9.4682237658        4.1315720052        4.2065759062
 Pt         9.2526416391        8.8537572979        4.2115102010
 Pt         0.8755756075        8.7901199843        4.2548113171
 Pt        10.7229598131        6.6134552807        4.1811678483
 Pt         2.3651608562        1.5565222600        4.1652190908
 Pt         2.3324118985        6.4882874808        4.1386619080
 Pt         3.6316809189        8.9421531874        4.1800275672
 Pt         3.6674995547        4.0898111844        4.1773380881
 Pt        10.6782541691        1.5859903350        4.3037271564
 Pt         0.9185353529        4.0993399457        4.1743392270
 Pt         6.1148015510        2.7321172406        6.5357664500
 Pt         9.0919366528        7.5971403040        6.4921830131
 Pt         7.8359518713        5.1811146774        6.4083070796
 Pt         7.5081143424        0.3774951923        6.6037087398
 Pt         4.7089862480        0.3167921681        6.5039919554
 Pt         2.2272119151        5.1014040443        6.5112211587
 Pt         2.0899741763        0.3154098997        6.5732312709
 Pt         6.3431605939        7.5805445143        6.5166742751
 Pt         3.3647024515        2.6195976864        6.4428632437
 Pt         0.6207257464        2.6999027702        6.4665771407
 Pt        10.5506816950        5.0763065987        6.5869374777
 Pt         8.8986047133        2.7933849269        6.6133574371
 Pt         4.9179001595        5.1541916834        6.5584678571
 Pt        10.2541883416        0.3824366502        6.5672641287
 Pt         0.6872443162        7.4708209514        6.5426162173
 Pt         3.5184060534        7.5749572504        6.4271243214
  O         4.7203040554        5.2809015235        8.6780225421
  O         0.7691042999        7.3125841533        8.6311354775
  O        10.6963468238        4.6040681524        9.0532521385
  H         2.3001464442        1.6893729787       10.0593417871
  H         5.2559779384        3.3560697150        9.1253978696
  O        10.4673489477       -0.1243245379        8.7839794753
  H        11.1429783848        8.7255383023        8.8548887671
  H         3.4071914493        2.8819508774       10.4591796739
  O         7.2962270905        0.3539987574        8.9006975533
  H         7.2301404067        8.9942108890        9.0529279162
  H        10.0370354424        5.1932147113        9.5126979071
  H        11.0336320948        0.5204914311        9.2916744571
  H         0.3915134242        5.2051375582        9.0748651975
  H         7.0331059894        4.3031387347       12.5476284710
  H        11.2228555398        1.2455762343       11.3640690873
  C         5.6105554579        4.3629133593        9.3057372470
  H         1.6829364034        7.4078564434        8.9404720641
  O         7.2666770364        3.9196583907       11.6763122506
  H         4.1582977694        9.1197022655        9.1533078024
  H         3.9321065043        1.0326688093        9.1032943725
  H         5.7001094102        4.6609545400       10.3931920495
  O         4.5790604862        0.3164981785        8.9335526749
  O         2.8434795989        2.4211167483        9.6794630561
  O         0.8094579121        0.8727632828       10.7572004316
  H         1.1756380165        0.0140106242       11.1568676396
  H         6.4213495535        7.3372447652       10.1777278461
  O         7.0045803403        7.4943215285        9.3439347120
  H         3.8295938989        2.8302694748       12.5747195882
  O         3.9042227641        3.5857535562       11.9245092494
  O         2.1523260883        4.6643001751        8.7157674141
  H         3.1467406246        4.8913850872        8.9044948172
  H         6.6465786254        4.6278669154        9.0438242028
  H         2.4002984439        4.7656908661       12.6932527876
  H         4.8790574003        3.6718313513       11.8414886922
  H         7.8124316887        6.9485874053        9.5777857082
  H         5.3021888207        7.5123687320       12.5843740714
  H         5.5251980499        9.0335593070       11.9926102326
  O         5.5576112887        8.0026840230       11.7350234979
  O         2.1248072382        5.3047294371       13.4263911358
  H         2.1154176027        3.6575605369        8.8823811140
  H         8.5294214179        1.6943874650        9.1302614739
  H         2.8570770543        5.0502009374       14.0763599525
  H         9.9224111200        7.5197299045       12.6323285861
  H         0.9274445911        7.6508653984       12.4443119107
  H         9.5667438052        2.8308080433        9.1716996212
  O         1.7098850150       -1.3623601539       12.2847544455
  O        10.5600002444        6.8730794833       12.3146347063
  O         8.7551369109        2.5834144153        8.7413239364
 Cl         5.3514958903       10.7275362919       13.4319517124
  H         4.2404198517        7.6304399634       10.5473229851
  O         8.8628430223        5.8431526903       10.3792695153
  H         8.1467619170        5.2488444824       10.7805743929
 Cl        -1.6624283777        1.8092350458       12.0641885217
  O         8.5823482526       -1.1581665045       13.0507570590
  H         2.2863343996       -1.8801176011       11.7291683789
  O         3.7042438927        7.6358106864        9.6718726020
  H         9.4127166514        6.2679275210       11.1184157544
  H         7.7049132883       -1.4293673239       12.6482315676
  H         8.7625344780       -0.2722690008       12.6480292502
  H        10.4706423002        6.0456080273       12.8446624200
  H         4.4015503483        5.2102199164       18.9753204615
  O         5.8331746503        6.0928372504       13.5974979591
  H         5.1603924068        5.5504770732       14.0643140336
  H         6.0421025995        9.1057359749       14.6959879385
  H         4.3151576554        6.9846805709        9.1738363247
  H         7.0692601306        2.4803059708       14.0043343620
  H         3.7422952592        1.7169270789       14.4473942003
  H         6.1966249964        6.6820740809       14.2756863054
  H        -0.0039354629        0.5409996626       13.8117037902
  H         6.6446567126        3.7874070943       14.7728274600
  O         5.0334096992        4.8209451292       19.7027058613
  H         5.5639300029        5.5173527554       20.1177640756
  O         2.9768916914        2.1480491672       14.9570363356
  O         6.2527855568        8.3007800036       15.2437528676
  O         7.4647709425        3.3509451818       14.3866812759
  H         2.1394312627        1.6859262154       14.7168104716
  H        -0.8662675912        3.7073854944       13.4284353251
  O         0.6561807183        0.7672608851       14.5618207148
  O         2.1810682046        7.9944986979       15.0539833525
  O        -0.6084438663        4.5551932359       13.7628358704
  H         1.5408893589        8.7359895367       14.9772159294
  H         3.4198538487        3.7236753488       15.3867913141
  O         4.0433953009        4.4840091129       15.2224385760
  H         7.0936686823        8.5535396231       15.7064100465
  H         0.1236762013        0.9435679705       15.3819583972
  H         5.0276496450        8.0351397151       16.1538813325
  H         3.2800129065        7.9358275382       15.8965095031
  H         2.2250204099        7.7619862055       14.0735226314
  H         3.8484913028        5.0178678697       16.0619719161
  H        10.3909198284        6.1566968076       15.6696924678
  O         4.1381025520        7.8955091327       16.5709006651
  H         0.3443743652        4.6760268235       13.5096133289
  H         8.3894015542        3.7158074984       15.8580176681
  H        -0.2749895195        1.2619105726       17.5073256844
  O        10.0966258428        6.0368441076       16.5626933845
  O        10.2397088306        1.2466822586       16.7422667426
  O         1.0481005686        1.2461120238       18.6927118679
  H         9.5180339896        5.2133785917       16.5410351099
  O         8.7327248093        3.9837641192       16.7623921194
  H         0.8522066041        0.5652462226       19.4241084933
  H         9.8370782426        2.1402179671       16.7178938908
  H         1.8372655824        0.9938100416       18.1310151062
  H         9.2794278765        9.1791409396       16.7928220834
  H         0.0204772572        6.0174344534       17.8408533486
  H         3.7492772436        9.5696684507       17.1473891823
  O         8.6943197622        8.3871190795       16.9883615878
  H         8.1600489993        3.9298813174       17.5555548871
  O         0.7743966306        6.0913684082       18.4912763454
  O         3.5151089544        0.8708814075       17.3951656386
  H         3.6524807182        1.3047541655       16.5520817997
  H         9.0984952896        7.5612390885       16.6490545433
  O         9.1767701865       -0.1321647317       21.0669566663
  H         0.6901304879        6.9086712689       18.9719755546
  H         0.9273249101        2.7945377175       19.5189000808
  H         3.9313243609        6.5438958998       17.2632891459
  O         7.1951627063        3.4458188665       18.8602133872
  H         9.2320212478        0.8311113893       20.9293275812
  H         0.8608877192        4.3595939867       19.5705456856
  O         0.9702585093        3.5463112789       20.1216926240
  H         6.4722750768        4.0507513345       19.2482754207
  H         4.6474780894        1.0598145418       19.1195511142
  H         2.6666319509        5.8068983374       17.8333675860
  H         6.7953126898        2.5294483219       18.8309213453
  H         8.4867025840        9.1996819768       20.4063248927
  O         3.5349428559        5.6231788072       17.5716422582
  O         0.4389417925        8.5515989732       20.3338659754
  O         5.4207212320        1.0731315349       19.7125106038
  H         2.0724742378       -0.0405449906       21.0292027371
  H         8.4705979361        2.9466488408       19.9917737160
  H         0.6056898026        7.8438398680       21.0116083433
  O         7.2358241435        8.4989733532       19.4684672060
  H        -0.5206861873        8.7991954388       20.5540802303
  H         7.6347931729        8.3138052369       18.5879191804
  O         2.9041002465        0.2610267901       21.4303141267
  O         9.2737209639        2.8877200552       20.5792588748
  H         5.0483880328        1.2889445544       20.5593720314
  H         6.6035687801        9.2926939010       19.3482029229
  H         6.8726840656        7.1493596076       20.6365266913
  H         4.0598135904        4.0294139816       20.7106472974
  H        10.0411746781        3.2194248589       19.9949700313
  O         6.5647763334        6.6571857636       21.3825845789
  H         3.3507541934        9.0217730504       21.6300154294
  H         3.9026290929        6.9113137828       22.6762972832
  H         7.3022145955        6.5121560907       22.0328106262
  O         3.5646565995        3.3433082393       21.3018498881
  O        -0.1078850186        9.2453478048       23.9714984765
  O         4.3294978245        7.7895911121       22.3761248191
  O         7.7144886942        2.1613748365       23.8666946787
  H         9.6232728180        3.4592127467       22.0185687557
  H         2.5274182097        3.3808754574       21.0316826112
  H         5.2209856261        7.4580036978       22.0563674607
  H         0.2535046842        8.3520347435       23.5954250827
  H         6.8726906386        2.5111796202       23.3437908952
  H         8.5242262581        2.6802531779       23.5740823845
  H         4.3349131368        2.7435890368       22.6773975211
  H         0.4102382498        0.3076824938       23.5448229694
  H         3.2326697625        4.8300715149       22.4193923056
  O         0.5795396462        6.9486405596       22.8608893505
  H         1.3544054937        6.3808419354       23.1440783474
  O         2.9912763885        5.6457317270       23.0189982840
  O         5.0128585059        2.5160614754       23.3821319529
  O         9.6546926347        3.6744128976       23.0475088153
  O         1.4682878712        1.5873665326       23.2451833537
  O         8.8563479005        6.3855007234       23.0376815052
  H         8.0460686383        0.5979160448       23.7743460884
  H         5.1836205625        8.9100038775       23.3768020086
  H         1.9077672258        1.8979934496       24.0686350208
  H         8.8786399474        6.9579121016       23.8595680765
  H        10.9026122521        6.5288684956       22.6761947954
  H        10.5338774002        3.2695696835       23.3685486587
  H         5.1685567641        0.9228400491       23.6129348249
  H         9.2675305579        9.2512575943       23.5775106474
  H         4.7265736523        3.0178584183       24.2190463552
  H         3.0728477405        5.4657212983       24.0245492813
  O         8.4093718810        9.3075880877       24.0272006184
  O         5.6032645896        9.6897222252       23.8869202909
  H         2.2144116809        1.2514808893       22.6881352297
  H         8.9137528351        5.4108052651       23.4436371113
 Pt         2.9048072305        9.1268540885       26.3184748984
 Pt         5.6023959264        9.2300438503       26.0063264611
 Pt         8.5870283519        9.2242733219       26.3129144072
 Pt         0.2814697313        9.1832297839       26.2528417082
 Pt         8.5372589663        4.3935144583       26.3437600647
 Pt         4.3041792746        6.6618324832       26.2359998908
 Pt        10.0100439683        6.7489663236       26.4266404588
 Pt         7.2081089960        6.7457302191       26.3537864181
 Pt         0.2790994115        4.3246951116       26.2721290439
 Pt         1.5158116807        6.7190542548       26.1932030064
 Pt         9.9584293325        2.0487863887       26.3305130307
 Pt         7.1400394375        1.9731066667       26.3087891998
 Pt         2.9590889600        4.3413913949       26.3099402125
 Pt         5.6856616441        4.3835712070       26.1799611993
 Pt         1.7276752428        1.9143751674       26.2426379647
 Pt         4.3668396482        1.9700629558       26.5211972442
  H         6.3313240019        0.6898686708        9.0208281290
  H         7.9705495331        3.2247854871       11.8033125532
