     244
Tv_1:  11.152900   0.000000   0.000000 Tv_2:   0.000000   9.658700   0.000000 Tv_3:   0.000000   0.000000  26.829700
 Pt         5.4769028401        8.0494903833        1.6706745198
 Pt         6.7215213303        0.8054114175        1.9264878409
 Pt        11.0356030840        7.7718597505        2.0117891899
 Pt         8.1776335519        7.9827364364        1.6973071360
 Pt         8.2188076069        2.9739245321        2.0202788255
 Pt         2.6346698217        7.8578188122        1.9164452852
 Pt         9.5928048553        5.4322605032        1.8838464590
 Pt         6.8680428366        5.6195634915        1.7988310641
 Pt         5.3891126685        3.1881328231        1.9274824309
 Pt         4.1214327952        5.5684480471        1.8635326318
 Pt         9.5427387451        0.6207629754        1.8640196735
 Pt         1.3204568455        5.3810493179        1.8516813217
 Pt         1.2178212945        0.4922785513        1.7807852971
 Pt         2.6108132840        2.9338878108        1.9348867726
 Pt         4.0364857773        0.6844739299        1.8136163242
 Pt        10.9545685736        2.9961465755        1.8901965666
 Pt         5.1001949859        6.6198879402        4.0786659870
 Pt         7.9785664396        6.5513622808        4.1312345224
 Pt         6.4268914376        9.0187989433        4.0917900380
 Pt         6.5494640824        4.1798186695        4.1844807657
 Pt         7.8361044759        1.6825570765        4.4330436251
 Pt         5.1243145949        1.7156963645        4.2057386286
 Pt         9.3954138455        3.9558684824        4.3367657968
 Pt         9.1677477156        8.8783030442        4.0589199105
 Pt         0.8926386794        8.8744938730        4.1615962241
 Pt        10.6507919335        6.4527636628        4.3114677715
 Pt         2.1916600643        1.5584574712        4.0971972276
 Pt         2.3190188651        6.3409012230        4.2139262277
 Pt         3.7217857768        8.9734160418        4.1818580340
 Pt         3.8722416949        4.1607539859        4.2441386317
 Pt        10.5493832343        1.5277499391        4.2463904890
 Pt         0.9547524707        3.9344155454        4.0554621718
 Pt         6.2222684712        2.8532806765        6.4961276017
 Pt         9.0467173767        7.7000641820        6.4405327812
 Pt         7.4919749678        5.2596794891        6.4533040348
 Pt         7.6173518701        0.4403044690        6.6351783644
 Pt         4.8672739393        0.3351821199        6.5317034821
 Pt         2.0109648041        5.1740271975        6.5942099741
 Pt         2.1438439252        0.3764038107        6.5160493727
 Pt         6.2848453244        7.7068635710        6.4790004565
 Pt         3.4176062906        2.7327327496        6.3463976931
 Pt         0.6966041795        2.7334848588        6.4179765606
 Pt        10.4946394347        5.2445735324        6.6976603299
 Pt         9.0694973051        2.9280116542        6.7578790514
 Pt         4.7150163441        5.1472597657        6.6775525927
 Pt        10.4561647060        0.4484678406        6.6248256476
 Pt         0.5655744259        7.6511787556        6.5714343937
 Pt         3.5607358742        7.5689288744        6.3807254194
  O         4.8372833807        5.1441369169        8.7674549560
  O         0.5932478622        7.3664679713        8.9423220321
  O        10.8405105643        5.0749455273        8.8774182736
  H         2.4462455311        1.9927082429       10.0688105554
  H         6.4407187490        3.9841346989        9.3086526524
  O        10.3685892548        0.0025906648        9.1035629458
  H        10.9533936659        8.8445078176        8.9762111644
  H         4.0218446505        2.4758925836       10.3059906585
  O         7.3342916849        0.4003611618        8.7534057171
  H         7.7364813651        9.3088336536        9.3805595341
  H        10.0008274387        5.1607671250        9.5201148001
  H        11.0014094121        0.6057233493        9.5640895969
  H         0.0699773262        6.1465964056        8.9234892465
  H         7.3121725453        4.6833718667       12.5999934728
  H        11.6877916655        1.6359606174       11.4679236627
  C         6.1273866445        5.0682574467        9.2497992787
  H         1.5771378767        7.4910305327        9.0191160794
  O         7.7539220748        4.1089981657       11.9023177530
  H         4.3126353109        8.8712163145        9.0879581828
  H         4.2191919557        0.8393254966        9.0826322786
  H         6.1237515490        5.3245456526       10.3090720007
  O         4.7632283971        0.0320923029        8.7182014509
  O         3.3395845687        2.2403832422        9.5947390444
  O         1.0442004762        1.1873177850       10.6869016480
  H         1.3628714916        0.3577404041       11.1244584756
  H         7.0252871288        8.0273249781       10.8171995168
  O         7.9555256802        8.2189224343       10.5055868847
  H         5.3612587986        2.1005658055       12.0699242168
  O         5.1829036723        2.8081501578       11.4303372483
  O         2.3117911730        4.7118585263        8.7256309581
  H         2.8476364366        3.9188974716        8.8696200965
  H         6.8890518439        5.6628748095        8.7294812577
  H         4.0237881737        4.0874087482       12.4339801091
  H         6.0329263321        3.2778492303       11.2835388874
  H         8.3923037942        7.2800629454       10.4810973800
  H         5.7787136888        6.9686536996       12.6188752277
  H         5.4821539427        8.5251449119       12.3167296669
  O         5.6319625608        7.6701989736       11.8814436075
  O         3.3485407363        4.7726241069       12.6350134302
  H         1.3448407417        4.5262767295        8.7952511653
  H         8.2164174464        1.8303597987        9.1769155339
  H         3.7096689338        5.1253337345       13.4983194186
  H        10.2570525453        7.7919112405       12.7424864749
  H         1.1923986227        7.9342332456       11.9078209941
  H         9.5975418556        2.6471362574        9.4603914606
  O         2.0704948956       -1.3120468947       11.7352100706
  O        10.8426785983        7.2303702401       12.2579122913
  O         8.7099771369        2.7332009583        8.9982271241
 Cl         5.9377238483       10.4129185510       13.4923570294
  H         4.5351675433        7.5109644918       10.7824338715
  O         9.2503035080        5.8455622671       10.5506040857
  H         8.6972672568        5.1291723331       11.0246958858
 Cl        -0.7354952769        2.4611853628       12.7642765137
  O         9.0164572931       -0.3111427089       12.9605493338
  H         2.6652740046       -1.7546343824       11.0446953425
  O         3.9028879710        7.5495486160        9.9759887600
  H         9.9166581838        6.2326822996       11.2583435722
  H         8.3224307707       -0.2540380041       12.2883913881
  H         9.4982743542        0.5327322624       12.8645332659
  H        11.1423639884        6.3707743532       12.8609467909
  H         5.5937875329        5.0559694549       18.9376626954
  O         6.3880964632        5.9591786897       13.5030142089
  H         5.8092131344        5.4424698588       14.1297444386
  H         8.2591105602        8.5457951186       14.2800462808
  H         4.1343916507        6.7510200679        9.4249523452
  H         7.4102190941        2.0260250774       14.1649737213
  H         4.1736356868        1.6644661300       14.5136184940
  H         6.8991739771        6.6405255601       14.0563325791
  H         0.4358083295        1.3344642082       14.6517853872
  H         6.9660041656        3.2851052279       14.7981436401
  O         5.9054400447        4.7906520307       19.8634290236
  H         6.3184874895        5.5370048669       20.3386402935
  O         3.7582696362        2.1300741800       15.2206771567
  O         7.8290831129        7.8426565850       14.8427971062
  O         7.7801640924        2.7660163355       14.6413475173
  H         2.7861589072        2.0856789968       15.2564545619
  H         0.2812101916        4.3745752222       13.2077012345
  O         1.1295832304        0.9958855011       15.2510395388
  O         2.5797837271        8.4136181854       14.3737904425
  O         0.9036071886        5.0637511139       13.4082584220
  H         1.8284414001        9.0574409903       14.4676976555
  H         4.2417300307        3.7411241633       15.0574824403
  O         4.7757366115        4.5896939892       15.0412317462
  H         8.4913374846        7.4927475785       15.4835416336
  H         0.5130835088        0.8187282859       16.0989596565
  H         5.9069065816        8.1993326663       15.4321109657
  H         4.3584597896        8.1988263161       15.4364795597
  H         2.6403581603        8.4164665187       13.3503519020
  H         4.6825006068        4.9552691275       15.9361258365
  H        12.6149648259        7.1370329786       15.3439694244
  O         5.1282775135        8.0203317999       16.0340663001
  H         1.7993394515        4.7422361592       13.0372277471
  H         8.3610468626        2.3021942459       16.2420541820
  H        -0.1353863957        0.1842962134       18.3193514405
  O        12.1238195826        6.4201213289       15.8045637565
  O        10.5885183489        0.2540153168       17.4709566366
  O         2.2377448683        1.2202725427       18.8567212510
  H        12.0561070056        5.7474899034       15.1273576072
  O         8.4663985402        1.9090287782       17.1557122043
  H         2.5738565411        0.8508854071       19.6974699009
  H         9.8929576642        0.9696596831       17.4110417104
  H         2.9890022984        1.0757285122       18.2103326907
  H        10.0089354010        8.3377132921       17.1034417912
  H         1.6724214475        6.1208804374       17.3215526049
  H         4.9535414831        9.4921491012       17.1792626509
  O         9.5730684611        7.4255745348       17.1707981688
  H         8.1772478748        2.5360361315       17.8530967219
  O         2.1948556060        6.0350934759       18.1680470466
  O         4.7412324962        0.7325140501       17.5268686528
  H         4.5158292243        1.2966097075       16.7099300048
  H        10.3433799959        6.8707835146       16.8228565985
  O        10.7890980523       -0.0004651842       20.3753922257
  H         1.7509404434        6.4858378787       18.9346006747
  H         1.8523528184        2.9130394365       19.1059594661
  H         5.3950639146        6.4752051890       17.3090331809
  O         7.9599364846        3.0912794720       19.5675487936
  H        10.6963027234        0.9547791032       20.5140187087
  H         1.7844982069        4.4764073987       18.9654362717
  O         1.5105756764        3.7086764790       19.5192502701
  H         7.3373083274        3.8625444409       19.6314611350
  H         6.0948034964        0.6251307599       19.0320824960
  H         3.9602340732        5.9541402306       17.9009666589
  H         7.3438447974        2.2852324276       19.5981552936
  H         9.9525974782        9.2889236365       20.0655068474
  O         4.9234235228        5.6724598193       17.6307926512
  O         1.2343933696        7.3069483947       20.4947331711
  O         6.4975893770        0.7423158722       19.9286726938
  H         2.7388444224       -1.2651351011       20.4729331230
  H         9.6545730155        2.8618007483       20.3102004966
  H         1.0018878413        7.0304174917       21.4368857430
  O         8.6776201837        8.0434226867       19.6448149469
  H         0.6708136917        8.1159299750       20.3679459320
  H         9.0027450323        7.6580378775       18.7540687781
  O         3.4523994823       -0.6707666752       20.7727293518
  O        10.4448139689        2.6958107742       20.8192471013
  H         5.7698797819        0.9540141364       20.5571231036
  H         8.2066043197        8.8584070292       19.5286032611
  H         7.5640184794        7.3420358449       21.0377550754
  H         4.2051982219        4.3959434783       20.7688188556
  H        11.1305644847        3.0991522351       20.2376817718
  O         7.1049731986        6.8073807537       21.6967610851
  H         4.1024452124        8.3609206018       21.2572897102
  H         4.5383804984        7.0641586554       22.9954905772
  H         7.7597372539        6.3614553952       22.2065152427
  O         3.5427569862        3.9355830511       21.3781195015
  O        -0.0252624339        9.3047872960       23.9323012487
  O         5.0660569871        7.8260083718       22.6032539905
  O         7.6034851440        2.2067860135       23.1035446173
  H        10.4715943918        2.9250115924       22.4388715900
  H         2.6900241014        3.7013716340       20.8592602533
  H         5.9917314716        7.4911813794       22.4253375652
  H         0.2751147346        8.3967388651       23.6183431368
  H         6.8084320918        2.7872189311       23.0906511766
  H         8.2960331101        2.8564641357       23.2775692476
  H         4.0204805333        2.8312018771       22.5400166646
  H         0.8320406165        0.1652999818       23.5171408696
  H         3.0947017563        5.1789542161       22.3292692909
  O         0.4556075459        6.9562443201       23.0017667313
  H         1.2356588298        6.4097105226       23.1448858383
  O         3.0993385575        6.0003778988       22.9586784839
  O         4.7703631815        2.3508209646       23.0918337231
  O        10.2819435461        3.2681281634       23.3899173164
  O         2.1354838007        0.5933110088       23.0078088796
  O         9.2057229272        5.7339358077       23.3433104979
  H         8.0351805058        0.7047376833       23.8090296875
  H         5.4756890501        8.8612813669       23.5805438107
  H         2.7495461957        0.6827448221       23.7437324387
  H         8.9867283927        6.0961297075       24.2710146238
  H        10.7964629027        6.3642471714       23.1212102627
  H        10.9852782591        3.1864418108       24.0287438992
  H         5.1468097464        0.7733579569       23.6625942064
  H         9.4903492171        9.5288046577       23.9459759834
  H         4.6255738680        2.6174684801       24.0437428662
  H         3.1736998182        5.7140672665       23.9383077067
  O         8.5135153267        9.5104547328       24.0920880626
  O         5.7148637805        9.7426126344       24.1137778881
  H         2.5348537583        0.0902423579       22.3130870932
  H         9.5736467897        4.8154506348       23.5936615253
 Pt         2.8285880069        9.2264014015       26.2993916143
 Pt         5.3938436744        9.3304432864       26.1651410044
 Pt         8.2842416324        9.2781518629       26.1542643735
 Pt         0.0948868352        9.3034513138       26.1039694390
 Pt         8.2434255228        4.4507136240       26.3707437077
 Pt         4.0343129613        6.9250699781       26.2960397831
 Pt         9.7045946127        6.9515828759       26.3315638356
 Pt         6.8366071469        6.8285817112       26.1970501467
 Pt        -0.0278249805        4.4467813696       26.3990743437
 Pt         1.2324170866        6.8706291686       26.4460357069
 Pt         9.8225674402        2.0618448916       26.3580495254
 Pt         7.0666697158        2.0423874042       26.3256791538
 Pt         2.8214689157        4.4411087236       26.3373519080
 Pt         5.5829899774        4.4995371353       26.2172343710
 Pt         1.4607613942        2.0240248839       26.2209968002
 Pt         4.2578899272        2.1022754521       26.2843373827
  H         6.4037290350        0.2952366763        9.0038726892
  H         8.4211448164        3.5051858909       12.2647785046
