     244
Tv_1:  11.152900   0.000000   0.000000 Tv_2:   0.000000   9.658700   0.000000 Tv_3:   0.000000   0.000000  26.829700
 Pt         5.5619858203        7.8816890421        1.6822403956
 Pt         6.7955187171        0.7168782281        1.8797335005
 Pt        11.0602187980        7.8906847629        1.9647067060
 Pt         8.2958019327        7.9026545303        1.7224393593
 Pt         8.3176448823        3.0271382533        1.8905906244
 Pt         2.6900911346        7.8973804641        1.8965827199
 Pt         9.7978250606        5.3159294640        1.9231738752
 Pt         6.9349715759        5.4334607903        1.9408961240
 Pt         5.4226881694        3.0539636861        1.8764326367
 Pt         4.2014406340        5.4384031612        1.8367480468
 Pt         9.7025912961        0.5908999830        1.8914471984
 Pt         1.3545299558        5.3971219326        1.8685535236
 Pt         1.1834019993        0.6851959706        1.7833975298
 Pt         2.7562973671        2.9801814580        1.9199403551
 Pt         4.0334605491        0.6583506667        1.7415506028
 Pt        11.1020116331        2.9854813666        1.9516598900
 Pt         5.2919923072        6.5133151088        4.2140044568
 Pt         8.0938995524        6.4973626085        4.1063825494
 Pt         6.6218865874        8.8594175350        4.0551222691
 Pt         6.6137878083        3.9955136112        4.1259510104
 Pt         7.9720627026        1.6466191313        4.3818113062
 Pt         5.1813876515        1.6650090763        4.2061991088
 Pt         9.2639169051        4.0155297704        4.3073946221
 Pt         9.3273837078        8.8794452391        4.2777873771
 Pt         0.9083519247        8.8251930613        4.1711106451
 Pt        10.8473063602        6.3490625079        4.1775364141
 Pt         2.3483945754        1.5225287954        4.1896724829
 Pt         2.4391165021        6.4391611823        4.1806412682
 Pt         3.9175440581        8.9561055988        4.0678182059
 Pt         4.0031760875        4.1492720170        4.3209837329
 Pt        10.7436557279        1.6056340734        4.2381154133
 Pt         1.1224879670        3.9483552264        4.1911491715
 Pt         5.9914840498        2.8348059634        6.4358893683
 Pt         8.8923486210        7.6130990746        6.4798747909
 Pt         7.4961462594        5.2838734676        6.5556251167
 Pt         7.5005741756        0.3882294347        6.5587353760
 Pt         4.5621455039        0.4310938309        6.6078637707
 Pt         1.9176966464        5.1642035664        6.4591744278
 Pt         1.8425403080        0.2309228269        6.4204136577
 Pt         6.1779607550        7.7473387579        6.4786286263
 Pt         3.1736913605        2.7738478590        6.6164499259
 Pt         0.5190685615        2.7596756299        6.5981136489
 Pt        10.3564263718        5.1947485200        6.5234595393
 Pt         8.6966798036        2.8238287535        6.6569201712
 Pt         4.6964066683        5.2251248743        6.6545853129
 Pt        10.2347789154        0.3515561125        6.5402968703
 Pt         0.6030111918        7.4341842443        6.5534860541
 Pt         3.4961771322        7.5685284665        6.4422401760
  O         4.7506516276        5.1969455191        8.6720804796
  O         0.6273616168        7.3207687146        8.6279606684
  O        10.4641089489        5.1144527637        8.8984448541
  H         2.5031405307        1.8286019147       10.1037750143
  H         6.7135526326        4.6533341173        9.2480657220
  O        10.4301447523       -0.0243534985        8.8084276712
  H        10.9020919851        8.6761294490        8.7417800855
  H         3.8004178536        2.8226105934       10.4168354844
  O         7.2990787413        0.3577030417        8.7204621948
  H         7.5024065784        9.0851813139        9.2508805180
  H         9.6509719198        5.3256697102        9.4060927982
  H        10.9337711536        0.4649069900        9.5120148401
  H        -0.0852141057        5.8670937544        9.0278311808
  H         6.7520800718        5.3730674158       13.0704116935
  H        11.5974232372        1.7968856900       10.8780356935
  C         5.9378972532        5.4537466434        9.3948748502
  H         1.5302373043        7.2336020851        9.0222467379
  O         7.0859468027        4.5495288420       12.5354895251
  H         4.3577028381        9.1941264624        9.2275856468
  H         4.0857279841        1.1906182990        9.2622379878
  H         5.6503971729        5.5189508916       10.4568861207
  O         4.7395777707        0.4150418981        8.9128716017
  O         3.3228959267        2.2555933614        9.7148156961
  O         1.0405502530        1.0836688904       10.4121931191
  H         1.1490914354        0.3670352776       11.0702434765
  H         6.9978862747        8.0250169380       10.9019827843
  O         7.8192101504        8.2382940140       10.4648249740
  H         4.7379969852        2.7698221234       12.3325317817
  O         4.5091264708        3.5047259501       11.7352914854
  O         1.8316848810        4.4895207990        9.0268852541
  H         2.4328171442        3.6962998163        9.1615955679
  H         6.5274129457        6.3704484532        9.0450107188
  H         3.2381675229        5.1014510745       12.5673377754
  H         5.4114824457        3.9591431467       11.5950884724
  H         8.2336276941        7.2845932526       10.6267386415
  H         5.3827175069        7.6246631302       12.7316067315
  H         5.3385475206        9.1189896727       12.2304991572
  O         5.4079245366        8.2090674316       11.9014823248
  O         2.8453881536        5.6934581264       13.2402202244
  H         0.9346145721        4.1750225728        9.1979864668
  H         7.9768285824        1.8575656147        9.1058658724
  H         2.9475861463        5.1316176780       14.0463692335
  H        10.1702185625        8.0473708777       12.4156754496
  H         1.0367437982        7.7110764585       11.9842707128
  H         9.4014187048        2.7136643474        9.4636837599
  O         1.8008677137       -1.2595605582       11.9641206287
  O        10.5878037050        7.1281856151       12.1587626544
  O         8.6021459136        2.6609247289        8.9102227696
 Cl         5.3090257705       10.7988018524       13.4896057693
  H         4.4414109968        7.6849148082       10.7204365722
  O         8.7796497559        5.6655488085       10.7880919572
  H         8.2078297495        5.2238263672       11.5330587733
 Cl        -0.5848051233        2.8911387476       11.9262189206
  O         9.2660785144       -0.4096386452       12.4237815824
  H         2.4353620904       -1.5234244740       11.3004252615
  O         3.8142338564        7.6664040114        9.9230819307
  H         9.4735143353        6.0549355481       11.3511346225
  H         8.5730489813       -0.5254231619       11.7543003709
  H         9.4539472313        0.5357658204       12.4923406290
  H        10.7360761660        6.6833811047       13.0175038232
  H         4.9091986940        5.6308272817       19.2202706106
  O         5.6699156073        6.4404727650       13.8696090230
  H         4.9615471865        5.9242399922       14.3838031050
  H         6.5483553489        9.2298656885       14.6365105094
  H         4.0411377088        6.7620708211        9.4600331067
  H         6.2961334340        2.5029065398       14.7615897217
  H         4.0292439921        1.8564002173       14.7745613718
  H         6.1616488109        7.0250926276       14.5348894181
  H         0.3959888893        1.9237890972       13.7973696222
  H         5.7849166422        3.8812617633       15.4361123547
  O         5.3999542931        5.2223372889       19.9798618828
  H         5.8173330570        5.9831321874       20.5168337237
  O         3.3481792811        2.3029529904       15.3517940453
  O         6.9009944007        8.3953152903       15.1343838508
  O         6.6011250395        3.2968445053       15.2280719587
  H         2.4157480881        2.0949555219       15.0205004517
  H        -0.2528369086        4.6090579500       13.4248453998
  O         0.9552301958        1.5244121152       14.5044388171
  O         2.0876952696        8.5150569474       14.6615021338
  O         0.1285889865        5.3257036422       14.0688606059
  H         1.7131208776        9.4038516158       14.4632933311
  H         3.8072798479        3.8671699785       15.4036675255
  O         4.1133027400        4.8381828094       15.5702888148
  H         7.7827597420        8.6140014203       15.5569666621
  H         0.3114268202        1.6369663884       15.3366237350
  H         4.9821936660        8.4673639836       15.8497727617
  H         3.4723375850        8.5589688701       15.7132324828
  H         2.3397945389        8.1667457661       13.8130612096
  H         4.1808152277        5.1115370692       16.5535963052
  H        12.2835457730        7.5424337636       15.6678391408
  O         4.2317039810        8.7923519335       16.3537301004
  H         1.0769257392        5.4750672738       13.7031990450
  H         7.8269069793        2.6936861129       16.8491559245
  H        -0.0703416851        1.3629940852       17.2745272098
  O        11.5849838120        7.0682533027       16.1793917774
  O        10.3020151748        1.3199135533       16.6351146856
  O         1.1592501951        1.4630538052       18.6802779310
  H        11.4275331422        6.2462271334       15.7254746183
  O         8.4386173548        2.6951036775       17.6149135785
  H         0.6660059399        0.7094648048       18.9637070907
  H         9.6367542487        1.8768556229       17.1333198925
  H         2.0556764510        1.2587318549       18.3806815989
  H         9.6209313257        9.4780644506       16.6030960208
  H         1.0279193036        6.2498987871       17.4463451527
  H         3.8741902669        9.9180904989       17.5159400629
  O         9.2445903939        8.5495724320       16.6454689426
  H         7.8269861749        2.5184487467       18.3679510057
  O         1.4120475244        6.0601284040       18.3700082282
  O         3.6332145448        1.2423104288       17.8892311461
  H         3.8244632433        1.7057426730       16.9814966631
  H        10.0945608841        7.9649910479       16.3567034710
  O        10.1460270992        0.3186737699       20.5692716605
  H         1.0626926671        6.8492050140       18.8010689057
  H         1.4165766821        2.8393321656       19.5481873832
  H         4.0242211522        7.2681280746       17.5745887122
  O         7.6195496766        3.2942838094       20.1418592521
  H        10.5279663471        1.2361202890       20.5869575117
  H         1.3048629430        4.4464590173       19.1976217499
  O         1.5877052637        3.7643543647       19.8705400917
  H         6.8564958118        3.9684147324       19.9977942650
  H         5.0794737481        1.1945414844       18.5709326316
  H         2.9610348559        6.3388885291       18.1970824001
  H         7.4447717310        3.0608329891       21.0837440993
  H         9.3331741913        9.9804279189       19.9220986603
  O         3.9518265105        6.3726809049       18.0322269018
  O         0.9990806025        8.2900518854       20.2966450148
  O         5.9360621116        0.9935385337       19.0627443762
  H         2.2438515341       -0.2115374753       20.7924164701
  H         9.6252745031        3.4843996527       20.6477254523
  H         0.8307306444        7.7598591516       21.1076287351
  O         8.0065176387        8.8593053894       19.2069753129
  H         0.1242575176        8.7038127922       20.2967436813
  H         8.3870560067        8.6245774220       18.2983979968
  O         2.8442632674        0.4705889625       21.2464908497
  O        10.4095735528        3.1613153049       21.0831501587
  H         6.3727586308        1.9000427898       19.1490721910
  H         7.2611305617        9.5032210449       19.0045312581
  H         7.5011993951        7.7027087811       20.6801094431
  H         4.3646356350        4.2761128563       20.8031489321
  H        11.1391143868        3.5387397895       20.6389179030
  O         6.9429218978        7.1262210444       21.2579031549
  H         3.6396796625        9.6213719122       21.4606162249
  H         4.1212787507        7.3935321781       22.7354040009
  H         7.4814751365        7.0276434437       22.0583332823
  O         3.6616707419        3.9726170562       21.4780945385
  O         0.1097090051        9.6329355503       24.0380564039
  O         4.6637399103        8.1025414344       22.2877944123
  O         7.6661292846        1.9862857219       22.7130227553
  H        10.0590535104        3.6262266837       22.6107740066
  H         2.8470407953        3.8569878154       20.9037564789
  H         5.3697356092        7.5891341889       21.8176840409
  H         0.3659756487        8.8019507894       23.4852945014
  H         6.7013712871        2.3079132840       22.9599494373
  H         8.1588909161        2.6343518873       23.2510184515
  H         4.2737463830        2.9013178682       22.3827041531
  H         0.6823109949        0.7788246342       23.7490894020
  H         3.4783463660        5.3035507431       22.5995115073
  O         0.4628360500        7.1869274709       22.8507983956
  H         1.1810124853        6.5680024928       23.1083986364
  O         3.1126811268        6.0973488010       23.0444349207
  O         4.9632393807        2.3811285043       22.9737024043
  O         9.3789741416        4.0881870956       23.2240843231
  O         1.6163474509        1.8908508091       23.1979100858
  O         8.9721690762        6.5312873412       23.0683017649
  H         7.9388014143        0.5579918453       23.6095119443
  H         5.2207273793        8.9004589241       23.4450702075
  H         2.2627911796        2.1901633573       23.8937294360
  H         8.7269676409        7.0427834065       23.8997419274
  H        10.6475444953        6.9594129780       22.9307801007
  H         9.7710779020        4.1136065266       24.1697781877
  H         5.2014189381        0.6914950781       23.7407030656
  H         9.4587947342        9.7738452303       23.9307721241
  H         4.9872284549        2.8014600319       23.8435997236
  H         3.2715026991        6.0732284829       24.0181048753
  O         8.4897856670        9.5453321854       24.1568632410
  O         5.6915190579        9.5316669527       24.0669202427
  H         2.0980945685        1.3149478791       22.5233876747
  H         9.1947374563        5.5924069847       23.1713547744
 Pt         2.8807912677        9.3235696746       26.2237303871
 Pt         5.6346073648        9.3218019603       26.1712353546
 Pt         8.4871889908        9.4509747781       26.2481872919
 Pt         0.2380247003        9.1866798649       26.3046037738
 Pt         8.5289609282        4.4834787058       26.3719259776
 Pt         4.3338098988        6.9067531617       26.2724674538
 Pt         9.9131646460        6.8980295350       26.5009657453
 Pt         7.0840183095        6.7236360309       26.3251006558
 Pt         0.0836229351        4.4359020596       26.3247008373
 Pt         1.5516812616        6.8281629439       26.3583067963
 Pt         9.7831509307        2.1611594635       26.4217363209
 Pt         7.0219777139        2.1465840806       26.3911294251
 Pt         2.7811577264        4.3077801467       26.2746465904
 Pt         5.6737722905        4.4269551850       26.2320973619
 Pt         1.3328618644        2.0190264237       26.3368175525
 Pt         4.3167824986        2.1141816881       26.2661896982
  H         6.2970078915        0.3701333688        8.6611005566
  H         7.1264592281        3.8753825551       13.2619033470
