     244
Tv_1:  11.152900   0.000000   0.000000 Tv_2:   0.000000   9.658700   0.000000 Tv_3:   0.000000   0.000000  26.829700
 Pt         5.3398398658        7.9973905398        1.7761702911
 Pt         6.7126424764        0.6426807811        1.7872609941
 Pt        11.0527377039        7.8445148807        1.9012240889
 Pt         8.2847137371        7.9010620775        1.8309759729
 Pt         8.3886643897        3.0842752150        1.8459317323
 Pt         2.6009340173        8.0224808316        1.9020090874
 Pt         9.7304734771        5.4592264290        1.9775190439
 Pt         6.7997643593        5.4802352628        1.8368037850
 Pt         5.5104822003        3.1066523449        1.8608354313
 Pt         4.2083859980        5.4998282787        1.7728766768
 Pt         9.6035908459        0.6150397146        1.9270306946
 Pt         1.4160497563        5.5798893987        1.9371249914
 Pt         1.1385825174        0.6776147806        1.8671455567
 Pt         2.7265127513        3.0699976910        1.8928100174
 Pt         3.9934492052        0.6675815496        1.9261715787
 Pt        11.1420393520        2.9851872893        1.9503126799
 Pt         4.9951018466        6.5663660289        4.1824699000
 Pt         7.7993598955        6.5974583301        4.1563835076
 Pt         6.2576711218        9.0340824177        4.1439029966
 Pt         6.6599803246        4.0926730092        4.1413721624
 Pt         7.7407519516        1.6066322587        4.2403817275
 Pt         5.0415302960        1.7807789859        4.1825145453
 Pt         9.3611415428        3.9656149625        4.1289786004
 Pt         9.0082640270        8.9658601719        4.1891706322
 Pt         0.8976547741        8.9516162446        4.2335134959
 Pt        10.5629857677        6.6082843320        4.3775346587
 Pt         2.2280994908        1.7976433076        4.1420155018
 Pt         2.1291271522        6.5721329789        4.2293098126
 Pt         3.5623722140        8.9432579398        4.2740314210
 Pt         3.8406728771        4.2106211535        4.1977804020
 Pt        10.6581667874        1.4879522311        4.3603872879
 Pt         1.0387714159        4.2628329492        4.1562869894
 Pt         6.1674720035        2.8378461485        6.4918222085
 Pt         8.7834004950        7.6087396996        6.5979985758
 Pt         7.5813840542        5.2041681903        6.5048609469
 Pt         7.4000906634        0.3354500342        6.6188286058
 Pt         4.5882429280        0.3843088200        6.6125464537
 Pt         1.9168343658        5.2736149713        6.6353971132
 Pt         1.8823441745        0.3876948115        6.5928065027
 Pt         6.1193994993        7.5978301541        6.4323704930
 Pt         3.3392892628        2.8081027305        6.4905862287
 Pt         0.6137152584        2.8026998114        6.4901823790
 Pt        10.4279988723        5.2151743561        6.5484762684
 Pt         8.9295575948        2.9225663056        6.5726988372
 Pt         4.6674942048        5.2006984508        6.4956683598
 Pt        10.1557594862        0.4598347547        6.7618805989
 Pt         0.5428699988        7.6846387673        6.6469333954
 Pt         3.2709455480        7.7022143269        6.5237708365
  O         4.6471280435        5.1726765712        8.5747090163
  O         0.2273737007        7.5461042090        8.8677127323
  O        10.4661903791        5.2623351793        8.8605570331
  H         2.3228232249        1.9041314417       10.0739060615
  H         6.1359267923        3.7590251871        8.7857292035
  O         9.9886655643        0.1238101777        8.7905863354
  H        10.4030402751        8.8158620147        8.9068600230
  H         3.9146798848        2.4636190385       10.3893653560
  O         7.2069163534        0.5357279406        9.1336738410
  H         7.7263269212        9.6045618112        9.6919442362
  H         9.6486882071        5.3014652162        9.4973818209
  H        10.6448067665        0.7905974347        9.2044450845
  H        -0.3097295598        6.2199011725        8.8509214654
  H         7.0316984960        4.7250507219       12.9661368152
  H        11.6268970030        1.4482634836       11.2455428156
  C         5.8804613833        4.7586980073        9.1371862053
  H         1.1233627494        7.5335378977        9.3611016750
  O         7.2858769962        4.1068837037       12.1749738630
  H         4.3057099370        8.8438144331        9.0612545872
  H         4.0329464077        0.9072703504        9.2170974473
  H         5.7938105262        4.7792153629       10.2456582313
  O         4.6651163338        0.1694409824        9.0052370142
  O         3.1726226533        2.3415099221        9.6666226237
  O         1.0306606975        1.2053475771       10.4157644328
  H         1.4663889398        0.3293750064       10.7483071169
  H         6.9242797827        8.0426402155       10.8238789033
  O         7.8965979580        8.0652763269       10.7846310080
  H         5.2847673551        2.0156336751       12.0195292528
  O         4.9389508610        2.8279734797       11.4587471806
  O         2.1912537316        4.8641715994        8.7072489091
  H         2.8501819690        4.0174356520        8.9846773026
  H         6.7579233375        5.4057876946        8.8217247960
  H         3.4038983718        4.0896840120       12.2617921470
  H         5.7623208115        3.4111585297       11.2349319663
  H         8.0666178085        7.1317174495       10.5577227454
  H         5.7072220182        6.6538515360       12.5397661888
  H         5.2712387237        8.2118610964       12.5807070070
  O         5.1475207102        7.3196236360       12.1351599351
  O         2.7789126645        4.5054218384       12.8980942776
  H         1.3344301063        4.6634438562        9.2634547046
  H         9.4287853551        2.7566940368        9.4362312110
  H         3.2830347262        4.6393782144       13.7198536326
  H        10.4764383619        7.6531896223       12.8837529882
  H         1.2347318886        8.0296243744       12.2439964739
  H         7.9632810588        2.1190472809        9.0908699549
  O         2.0303773641       -1.0768075135       12.2068302569
  O        10.9373182623        6.9527796794       12.3440718460
  O         8.5616091373        2.8899090832        8.9058576066
 Cl         5.5754228272        9.9648379338       13.2464034059
  H         4.1742439334        7.3856476133       10.5700522607
  O         9.0640123258        5.6016581735       10.8387514081
  H         8.5670615463        4.9585917964       11.4015558690
 Cl        -0.7506901510        1.8514783771       12.6278571700
  O         9.0757909260       -0.9767808649       13.2858141839
  H         2.7185830950       -1.5484913547       11.7660794622
  O         3.7647167388        7.4121812361        9.6668697589
  H         9.7540763550        6.0059718644       11.3880726377
  H         8.4828173775       -1.0951270686       12.4819252431
  H         9.4652914416       -0.1211528399       13.2395392853
  H        11.1854857321        6.2219444150       13.0031145721
  H         5.1354893715        4.8126975205       19.0420665979
  O         6.5206469462        5.7330928838       13.9162816069
  H         5.6743085334        5.3014315299       14.2492137567
  H         8.1170663534        8.2527364415       14.8020482922
  H         4.0120335016        6.4816582780        9.2476136752
  H         6.6644825989        1.9452692270       14.4627614355
  H         4.3295797418        1.1865421682       14.6553829298
  H         6.9046445145        6.3075176355       14.6953214510
  H         0.6226657369        1.0390770796       14.3904618650
  H         6.7230732612        3.3842882929       15.2267497422
  O         5.5829070572        4.6392751227       19.9358509835
  H         5.8600576841        5.5264293549       20.2345955371
  O         3.7355247362        1.7379658857       15.2787026484
  O         7.6149563413        7.8267573242       15.5063073485
  O         7.2786738362        2.6542334203       14.8504221903
  H         2.8044933803        1.4941652966       15.0555203790
  H        -0.3810564457        3.7879011302       13.2985874986
  O         1.3571394883        0.8600800938       14.9620745883
  O         2.2027158900        8.0480895619       14.9351011581
  O         0.1621136822        4.5571814712       13.6143639154
  H         1.9016598247        8.9543626750       15.1220710111
  H         4.2415165173        3.4338444059       15.0407159589
  O         4.4561584003        4.4307552847       15.0952690117
  H         8.2279579683        7.8370609541       16.2680026298
  H         0.9144645023        0.9320796282       15.9075203451
  H         5.8026706332        7.8475448334       15.6903213986
  H         4.1756570182        7.7909580577       15.6841274528
  H         2.2803080806        7.9832180680       13.9800130905
  H         3.9994878837        4.7542089440       15.9726216309
  H        12.1686528217        6.7836118059       15.7879859513
  O         4.9499163473        7.5857581088       16.1756585687
  H         1.0692978564        4.3107923806       13.2581100025
  H         8.4580382970        1.7524930107       17.4210534997
  H         0.8819840356        1.0478760293       17.8605929824
  O        11.5590048845        6.1149513183       16.1035664373
  O        11.3723938553        0.6802289044       17.2383468784
  O         2.5536561058        1.4761373977       18.7929205788
  H        11.5136004500        5.3982965289       15.4333009962
  O         9.1770175052        2.0748324948       16.8546952045
  H         2.5942206762        0.7989333421       19.6026042915
  H        10.5883781014        1.2779344481       17.1163435533
  H         3.3703453737        1.2753827653       18.3047401265
  H        10.4882863346        8.7121871418       17.0178866778
  H         1.1638991106        5.9522228696       17.6721665480
  H         4.9780506667        9.4076766902       16.8845869449
  O         9.9915923278        7.8898753993       17.2700242672
  H         8.6635482093        2.2990422756       15.9954088060
  O         1.6428661543        6.0215284429       18.5181581352
  O         4.9627943030        0.5935516513       17.3794114839
  H         4.5968855938        1.2660189962       16.7427340357
  H        10.4854310649        7.1098743381       16.8018350246
  O        10.1817284102        0.0471190539       21.0954713971
  H         1.3268506329        6.7385149226       19.0817310291
  H         2.1605165613        2.8247349830       19.4496640510
  H         4.4594021143        6.1617858283       17.1105325619
  O         8.0316179386        2.9932529722       20.3560354715
  H        10.1155508032        1.0151665486       21.0750168440
  H         1.7819847405        4.4454912250       19.4712339426
  O         1.7438367807        3.6025165994       20.0267173677
  H         7.2238531792        3.6030524286       20.4035798924
  H         6.4503536886        0.9212830998       18.0027544375
  H         3.1690051282        5.8399865333       17.8606167189
  H         7.8426358217        2.2731496690       21.0416915662
  H         9.3403197486        9.3408014904       20.7512049896
  O         4.0028658582        5.3658918912       17.6060030056
  O         0.6556641967        7.6586073366       20.5079245101
  O         7.4044920537        1.0898081643       18.3889499058
  H         1.8363429716       -0.7887746565       20.7379800334
  H         9.7624225637        3.2639935217       20.6081308699
  H         0.4456213515        7.2314930479       21.3843311177
  O         8.2141178655        8.4477942098       19.5196881483
  H         0.0427329157        8.4223841799       20.3686253673
  H         8.8328173240        8.0023682808       18.9011715574
  O         2.5188307034       -0.1120872278       20.9103917199
  O        10.5407265549        3.0762416472       21.1852073924
  H         7.3839621992        1.8853359450       18.9950926060
  H         7.7991152680        9.2379116701       19.0267829372
  H         6.9322317915        7.6900184959       20.4161606163
  H         4.4730799596        4.0581575623       21.1256946536
  H        11.4561627566        3.1992551601       20.7022104967
  O         6.3758317351        7.0883665171       20.9964025074
  H         3.3846461988        9.0175331210       21.1511034992
  H         3.9964950469        7.3538404865       22.6600063011
  H         6.9858340504        6.7726021578       21.7666458860
  O         3.7500508019        4.0011841313       21.7905691374
  O         0.1486430402        9.2218476618       23.9545435518
  O         4.4372113850        8.1923547863       22.3426084126
  O         7.6882761252        1.7693512073       23.1073622801
  H        10.3295973648        4.1337634935       22.4975356554
  H         2.8619293396        3.7506853963       21.3672762712
  H         5.1368520191        7.8288257510       21.7747091264
  H         0.4324146842        8.3522510302       23.5554059141
  H         6.8112543250        2.2527024826       23.1539557261
  H         8.2593707367        2.4219900096       23.5709525061
  H         4.3079283372        2.7969976095       22.6860242692
  H         0.7590747296        0.3249104430       23.6183488469
  H         3.3296353812        5.3385935053       22.7995777439
  O         0.5133367072        6.8356180018       22.8959039856
  H         1.4465131145        6.4931132560       22.8793240447
  O         2.9911029229        6.1255626060       23.3695552683
  O         4.9459175208        2.4205100867       23.3687133480
  O        10.1398444271        4.7212458050       23.3541934078
  O         1.6829031943        1.3747980771       23.0898348684
  O         7.4606792358        6.5597849094       23.3209503774
  H         8.0313975798        0.2572880425       23.6619597763
  H         5.1195156988        9.0262778242       23.2901822195
  H         2.2039521029        1.0736180262       23.8882524878
  H         7.9594607034        7.3262421959       23.6223298456
  H        11.1035408681        6.0598060128       23.1177845919
  H        10.7669329827        4.4830947959       24.0724235837
  H         5.4540817787        0.8124732847       24.0692773726
  H         9.5410296385        9.2799898508       23.7097548536
  H         5.1353790407        3.0535506110       24.0732484883
  H         2.9368894452        6.0666860241       24.3602148469
  O         8.6562944930        9.2591410728       24.1181405564
  O         5.7087498194        9.4934135018       24.0506172040
  H         2.0798304830        0.8836518427       22.3236671607
  H         7.9678855409        5.8540113122       23.7193529670
 Pt         3.1080362983        9.3376491514       26.3365788590
 Pt         5.8345364731        9.2215205078       26.2636300424
 Pt         8.6077974547        9.1019167424       26.3418272576
 Pt         0.3602638211        9.3750411198       26.1529521373
 Pt         8.7135496760        4.3089882622       26.3046970164
 Pt         4.3609427889        6.8888727315       26.1905067676
 Pt        10.0307684239        6.7842131734       26.4445748000
 Pt         7.1825022330        6.7468331467       26.2930964555
 Pt         0.2635114081        4.4462534382       26.5587116993
 Pt         1.5658347814        6.9019792909       26.3633336664
 Pt        10.0157389388        2.0149261539       26.4167792383
 Pt         7.3030604887        1.9340828131       26.3522538876
 Pt         2.9968100775        4.5234752727       26.2448995605
 Pt         5.8565654101        4.4001329767       26.2777907221
 Pt         1.6724500828        2.0828463026       26.3238622703
 Pt         4.3080846855        2.0987895808       26.4456147918
  H         6.2147403522        0.3411961348        9.3329072501
  H         7.7135290423        3.3757547082       12.6885196505
