     244
Tv_1:  11.152900   0.000000   0.000000 Tv_2:   0.000000   9.658700   0.000000 Tv_3:   0.000000   0.000000  26.829700
 Pt         5.4684535248        8.0608863330        1.8059849919
 Pt         6.8074927116        0.7888586506        2.0812135037
 Pt        10.9464511845        7.8055270315        1.8518223450
 Pt         8.0883764967        7.9815121853        1.8232583248
 Pt         8.3281459163        3.0381531446        2.0069913492
 Pt         2.7504554490        7.8332770926        1.9346588139
 Pt         9.6477933780        5.3537117828        1.9476269889
 Pt         6.9704763111        5.4529344170        1.9003245752
 Pt         5.4753843154        3.1232336959        1.8653671079
 Pt         4.1394492600        5.4738601089        1.8733987565
 Pt         9.6223078247        0.5279581772        1.8242089616
 Pt         1.3093368753        5.5424591835        1.8262527531
 Pt         1.2146813621        0.4933734448        1.8609099454
 Pt         2.6216319600        3.1425779031        1.9812219658
 Pt         3.8555825199        0.6449277842        2.0124906898
 Pt        11.0063991390        2.8809185580        1.9611093926
 Pt         5.1296069628        6.5168525569        4.1610417830
 Pt         7.8539485909        6.5169077624        4.1284487615
 Pt         6.4936239781        8.9767449838        4.2083051919
 Pt         6.5857294166        4.1107842651        4.2902216094
 Pt         7.9379447347        1.7033278603        4.2810146528
 Pt         5.2152948248        1.8707981629        4.2348411193
 Pt         9.4085840030        4.0994844115        4.2373203232
 Pt         9.2857902475        8.9406653413        4.3184300447
 Pt         0.9421447584        8.8235193682        4.2806310201
 Pt        10.6738971157        6.4483401975        4.2385613568
 Pt         2.3133569626        1.6497101506        4.1616426992
 Pt         2.3122821838        6.4678280197        4.1921343437
 Pt         3.7462815803        8.9554293228        4.2818013851
 Pt         3.7741584451        4.1742538355        4.2027249844
 Pt        10.7217986973        1.4984850477        4.2771730813
 Pt         1.0230631366        4.1677165990        4.2110444201
 Pt         6.3150882208        2.8884965239        6.6381039167
 Pt         8.9563401492        7.6199466042        6.4653401002
 Pt         7.6405814902        5.2505534142        6.5620005248
 Pt         7.6498347893        0.3847424338        6.6339243753
 Pt         4.9285180038        0.3333515400        6.7252015428
 Pt         2.2315019443        5.1123052810        6.5676052188
 Pt         2.2109622338        0.3335255460        6.4783044493
 Pt         6.2616308797        7.5674039638        6.5362163743
 Pt         3.6727767788        2.7730529163        6.5437715839
 Pt         0.9107326285        2.7573397766        6.4921277410
 Pt        10.3596550708        5.1462610802        6.6130592617
 Pt         9.1950089584        2.7722937698        6.6373782618
 Pt         4.9458061557        5.3273978692        6.5733518386
 Pt        10.5940248600        0.3891745814        6.7138688639
 Pt         0.7008123576        7.5198721176        6.6205351166
 Pt         3.5305867568        7.6130154505        6.6096456136
  O         5.1415778248        5.4842853470        8.6053802968
  O         0.7154647530        7.6257301098        8.7146368432
  O        10.7143536178        5.1762716497        8.8167552054
  H         2.4115468883        2.0574515101       10.0438318509
  H         6.4187617796        3.8573840629        9.0763440072
  O        10.4603969500        0.0056353641        8.8640152181
  H        11.0268156022        8.7922756744        9.0396500587
  H         3.7316883084        2.7118348145       10.6603951483
  O         7.4922511761        0.2292693786        8.8054248220
  H         7.8232428604        8.9878539720        9.2923912695
  H         9.9959975142        5.2911575026        9.6118970362
  H        10.9348707008        0.7048406272        9.3692929808
  H         0.2074063546        5.9934874465        8.8590842007
  H         7.4859659724        4.5357279035       12.9604332699
  H        11.5587798961        1.6968116465       11.3518650519
  C         6.1330615519        4.8710658853        9.4362252247
  H         1.5796478151        7.4477438127        9.0643521063
  O         7.6516907628        3.8814722809       12.1788823743
  H         4.5724953890        9.2351206012        9.3328719080
  H         4.4571123226        1.1999312381        9.4009975616
  H         5.6031697587        4.7417343634       10.3785778775
  O         4.9358899347        0.4090893598        8.9517551503
  O         3.2825331057        2.4749805456        9.8391241258
  O         0.7914471831        1.1975329816       10.6009114308
  H         1.2090497426        0.3596499415       10.8943957003
  H         7.0600579940        8.1092505286       10.9059303629
  O         8.0198371083        8.2865977334       10.6608184586
  H         5.2574547478        1.9734367646       12.4356087810
  O         5.0597627033        2.8426783710       11.9839950361
  O         2.5520425729        5.0020305507        8.8251041065
  H         3.5483789043        4.9768019820        8.9706177146
  H         7.0891109352        5.4637945637        9.6058850109
  H         3.6944487026        4.0947087127       12.9030364432
  H         6.0224707768        3.0768341148       11.9283530563
  H         8.3560993813        7.3444233787       10.6031050056
  H         6.0918704296        6.6903600775       12.5561665296
  H         5.6233803885        8.2754039488       12.4472094263
  O         5.6469750177        7.4378556333       11.9759903486
  O         2.9517310362        4.6417654944       13.1882106638
  H         2.4818008114        4.0091101912        9.0726340043
  H         9.9751107056        2.6899710986        9.4156188447
  H         3.3499042642        5.0861514184       13.9911989407
  H        10.5420159572        7.9857216025       12.9036733590
  H         1.3947691880        8.2092055979       11.8034891469
  H         8.6507016453        1.7417715021        9.1854115785
  O         2.1364104339       -0.8988982949       11.6229416898
  O        10.9993495398        7.3620946222       12.3171404345
  O         9.0880129377        2.6320605252        8.9158915979
 Cl         5.9606754266        9.9464834202       13.3586404512
  H         4.6752063527        7.4572954929       10.8173278498
  O         9.3005357918        5.7089140676       10.8749696377
  H         8.8061506601        4.9155092350       11.2718339951
 Cl        -0.7891483022        2.4147087501       12.8635620488
  O         9.4124123032       -0.3440434393       13.5744819609
  H         2.7895981581       -1.5341778934       11.1592281418
  O         4.1568220592        7.6430590156        9.9550498452
  H         9.8949006393        6.1416495038       11.5694066252
  H         8.7634715393       -0.3490146168       12.8484117560
  H         9.6844273434        0.6366094413       13.5578859193
  H        11.2832964357        6.6462257249       12.9931407121
  H         5.0883806778        5.4574276307       19.4934676583
  O         6.9630664102        5.9201085096       13.7707749223
  H         6.3767751078        5.3943026160       14.3053333720
  H         8.2288586856        8.7754059088       14.8348962517
  H         4.3582946256        6.8686149354        9.3415588183
  H         6.6384508163        2.0835178648       14.9472701119
  H         4.3549787084        1.4722460027       14.3753256673
  H         7.2042815243        6.6991705796       14.3599276432
  H         1.0657870902        1.3429400523       14.4413041287
  H         6.5479378615        3.4481569080       15.7954205513
  O         5.3572737805        5.1080090979       20.3687177060
  H         5.6431103880        5.9565762809       20.8885763443
  O         3.9893955703        2.1684806397       15.0307466463
  O         7.7293030978        8.1499072483       15.3850649215
  O         7.1665751836        2.7329211366       15.4658462339
  H         2.9419063748        1.9756933825       15.0097805042
  H        -0.0368802905        4.2877897086       13.7426231096
  O         1.6901784239        0.9878134921       15.1206922405
  O         2.3624244059        8.2618193502       14.4838175812
  O         0.5468161784        5.0975863084       13.8918012790
  H         2.0593239531        9.1433445510       14.7794221638
  H         4.5498764328        4.0700510359       15.6268683012
  O         5.1954173293        4.7839546992       15.6349573698
  H         8.3687953433        7.9499522821       16.1074293304
  H         1.0572107453        0.8866115444       15.9265954531
  H         6.1621870252        8.4191921814       16.0113034738
  H         4.5909449726        8.1372943219       15.8214905033
  H         2.5296509471        8.3444928023       13.4438205809
  H         5.0713286134        5.2916791579       16.4960547072
  H        12.3725890289        7.3141070989       15.4064052089
  O         5.3014464435        8.2854376206       16.5052424308
  H         1.4346785107        4.9555165187       13.4110050307
  H         8.5457324515        1.9268752043       18.1339024965
  H         1.0765444864        0.9896399114       17.7611373358
  O        11.8814599388        6.6353661361       15.9515045003
  O        11.4467234320        0.8076180321       17.0952860875
  O         2.1743884422        1.5631228428       18.6563851798
  H        11.7544679494        5.8957860884       15.2620156372
  O         9.2144701027        2.2173290253       17.5170296469
  H         2.2869177287        1.1000627623       19.5303075571
  H        10.7874559295        1.4685874400       17.3563543359
  H         3.0435944011        1.3733219925       18.1956093463
  H        10.5744105231        8.9500959173       17.2868065082
  H         1.5081707337        6.2946992930       17.3014975543
  H         4.7987191401       10.0067872257       17.3547193177
  O         9.8790573749        8.3156693719       16.9806519882
  H         8.6240616560        2.5199421812       16.7464573216
  O         1.8059848701        6.0885212747       18.2492962206
  O         4.4597776401        1.2321940445       17.4890304833
  H         4.3387506934        1.6132405835       16.5406146156
  H        10.3776974934        7.5602021112       16.6288414261
  O        10.4639351629        0.2930878023       20.8844330219
  H         1.5672791488        6.8761104712       18.8039856855
  H         1.5686479468        3.2087863746       19.3139373953
  H         4.8960260285        6.9212544354       17.5982398206
  O         7.4464584969        3.0735047382       20.7790576127
  H        10.4322475220        1.2829805174       20.7184716847
  H         1.5440197501        4.8287741006       19.0579814159
  O         1.3272902883        4.1012503381       19.7640080650
  H         6.8329693388        3.8302693924       20.6532480442
  H         6.1839378630        1.2260024467       18.2701117897
  H         3.7706641494        6.1443269091       18.1111762714
  H         7.4593398970        2.7216953483       21.6940897450
  H         9.5819953658        9.6297638285       20.5251099536
  O         4.7164798993        6.0490477767       17.9359357589
  O         0.6903084217        7.9865584813       19.9194642607
  O         6.9626241900        0.9493227470       18.8268783879
  H         1.9003088890       -0.4870393115       20.7682987829
  H         9.4335576668        3.2449294691       20.3804992294
  H         0.4014462627        7.7041201738       20.8324216111
  O         8.5806477478        8.5228086375       19.3450535822
  H         0.2429746159        8.8378190263       19.8861886488
  H         8.9277311467        8.3879652036       18.4624386131
  O         2.5324166410        0.2179515187       21.0732158633
  O        10.2983216626        2.9526438278       20.8577505890
  H         6.8569800613        1.4237099650       19.6928660700
  H         7.8383162843        9.1446036143       19.1713534826
  H         7.4494343298        7.4990695595       20.6814214150
  H         3.9525696229        4.4310446515       21.1458581301
  H        11.0967563348        3.3705531512       20.3556857080
  O         6.7869158643        7.4347430781       21.3682346894
  H         3.3190273930        9.4015274449       21.4392778843
  H         4.1196225360        7.3454782333       22.6907122073
  H         7.3867178990        7.0408963127       22.1393786235
  O         3.2567623500        3.9432215958       21.7321099507
  O        -0.1253808282        9.1593894612       24.0720267709
  O         4.4506225457        8.2814017077       22.4920444455
  O         7.6255180976        2.2417863442       23.4268800672
  H        10.2682975223        3.5271405563       22.6691833781
  H         2.4694410255        3.9589403978       21.0523923993
  H         5.3797523536        8.1386056400       22.1300965273
  H         0.2304429567        8.3319492968       23.4968340667
  H         6.7684791384        2.5164617642       23.8251488878
  H         8.2718833811        3.0260123210       23.6213493032
  H         4.3810385984        2.8888417866       22.5221992287
  H         0.3912452909        0.3325984580       23.7734067858
  H         3.2832957989        5.2642908281       22.5696120133
  O         0.5165860006        6.8768522599       22.8986685173
  H         1.4491621777        6.5478809579       23.1835512489
  O         3.2449133570        6.0950539044       23.1383918256
  O         4.7515713805        2.5309828975       23.3363195365
  O         9.7992185178        4.0968120512       23.3349714037
  O         0.9681337265        1.6336403763       22.9791548649
  O         8.4386738200        6.4348799920       23.2979418614
  H         8.0841341990        0.7678130575       23.7305087069
  H         4.9272585333        8.9631498953       23.7513431561
  H         1.7851788396        1.9803684016       23.3561209477
  H         8.0118659137        6.5534494453       24.2088623762
  H        10.9509255380        6.2694156419       23.2250800759
  H        10.3715659113        4.1062988659       24.1401689278
  H         5.2472112557        1.0109117597       23.8377957160
  H         9.3621935465        9.2978515812       23.8813218447
  H         4.5548665816        3.1804805654       24.0055237752
  H         3.2875669293        5.9035617384       24.0732310763
  O         8.3757854395        9.5438315894       24.1199014927
  O         5.4732075191        9.7533410541       24.2165613866
  H         1.2595654912        1.2218095118       22.1526748267
  H         8.6808398412        5.4464704651       23.1566253070
 Pt         2.6408039688        9.2853926107       26.4475981162
 Pt         5.4627851294        9.3734466170       26.3548853517
 Pt         8.2362579104        9.2550894353       26.2847200454
 Pt        -0.1124030408        9.2103450863       26.3308554099
 Pt         8.2598820905        4.4806477013       26.3738430753
 Pt         4.0777092743        6.9065757297       26.4278565966
 Pt         9.7616652198        6.6890044606       26.4058998565
 Pt         6.8014110499        6.9029190613       26.4175473597
 Pt         0.0309079028        4.4281605890       26.3410025986
 Pt         1.3517260894        6.8494744289       26.2586723696
 Pt         9.5393132504        2.0504291372       26.4589538864
 Pt         6.7322877665        2.1832138624       26.5233723970
 Pt         2.7349658750        4.4104610175       26.4209108036
 Pt         5.4968592217        4.6223486806       26.3115167070
 Pt         1.2184813676        2.0301349741       26.4490360155
 Pt         3.8840189615        2.0553897197       26.5474960431
  H         6.5444074714        0.1593735296        9.0511821180
  H         8.4676997511        3.3943362682       12.5459661894
