     244
Tv_1:  11.152900   0.000000   0.000000 Tv_2:   0.000000   9.658700   0.000000 Tv_3:   0.000000   0.000000  26.829700
 Pt         5.4721991158        8.1301869534        1.7753190264
 Pt         6.7950783991        0.7185252145        1.9291657718
 Pt        11.0018752126        7.8763348339        1.8922021797
 Pt         8.3573939152        7.9799009185        1.9390103593
 Pt         8.2394923256        3.1387064585        2.1646640351
 Pt         2.7613487849        7.9521040851        1.8455968310
 Pt         9.5852079999        5.4067523816        1.9047568997
 Pt         6.8321123043        5.5186268685        2.0559083498
 Pt         5.4196761873        3.1940267614        1.9478103193
 Pt         4.0541454046        5.5445233201        2.0434022251
 Pt         9.4921619460        0.6824223284        1.9116139998
 Pt         1.2320468791        5.4298558150        1.9142418238
 Pt         1.1204586309        0.5609387398        1.9467950309
 Pt         2.5792041200        3.0584065654        2.0281579237
 Pt         3.9672431959        0.7054267254        1.9480475038
 Pt        10.9066272155        3.0425462765        2.1514139283
 Pt         5.2584265787        6.6253167501        4.2151943385
 Pt         8.0618711271        6.4338919214        4.2062458474
 Pt         6.5742795218        8.9121472836        4.1600519198
 Pt         6.4774641471        4.0883461471        4.3065327492
 Pt         7.9011244510        1.6622944354        4.3694669742
 Pt         5.1597615959        1.6148173089        4.3802817394
 Pt         9.4129880859        4.1284672880        4.3261654368
 Pt         9.4135412010        8.8267132290        4.2993157341
 Pt         0.9325335100        8.7779453525        4.2166983156
 Pt        10.7617581049        6.4542068433        4.2630963559
 Pt         2.3839961197        1.5443853606        4.2405865866
 Pt         2.4392217442        6.5469392269        4.2408957557
 Pt         3.8758911838        8.9442070626        4.2075996825
 Pt         3.8292654704        4.0854415595        4.2136852943
 Pt        10.7136024717        1.5239891705        4.3337017678
 Pt         1.0407868554        4.1809890788        4.2783962055
 Pt         6.1674102832        2.8196321710        6.5636556735
 Pt         8.9029218952        7.5466876487        6.6310090774
 Pt         7.5995686238        5.0881902954        6.6155461671
 Pt         7.6449475807        0.2457467324        6.7917374645
 Pt         4.8405320884        0.4451126821        6.8403108470
 Pt         2.0116355482        4.9857958442        6.5321976759
 Pt         2.0282069534        0.2582712058        6.5259860570
 Pt         6.1588585823        7.6021238694        6.5128009646
 Pt         3.3966198203        2.6920135152        6.5957112887
 Pt         0.7694203226        2.6535843158        6.4384484190
 Pt        10.3851645786        4.9523883708        6.6486843804
 Pt         8.9845195551        2.7105889603        6.6959354922
 Pt         4.8650193180        5.2036516592        6.6905879006
 Pt        10.4780314110        0.3518439391        6.7072661636
 Pt         0.8261428863        7.4856987498        6.6772972035
 Pt         3.5782693689        7.6216456639        6.4615951877
  O         4.7651496415        5.4453975685        8.8092649054
  O         0.7613124428        7.4148597748        8.6865028723
  O        10.6242579417        5.2909327054        8.7757082540
  H         2.3410961712        1.8070862976        9.9344098215
  H         5.7213729659        3.5937205777        9.2232385590
  O        10.4848631067       -0.2307922505        8.8125426750
  H        10.9946826706        8.5387454126        8.8410885343
  H         3.4753383610        2.6118765102       10.6322374081
  O         7.2683145616        0.5652406652        9.1182989167
  H         7.6481460728        9.3981699812        9.4464678724
  H         9.7689821148        5.5278459423        9.2615555959
  H        11.1381252338        0.4160326671        9.2831183081
  H         0.1234164776        6.1083249413        8.8801033043
  H         7.5801437852        3.6330497808       12.9211606650
  H        11.7055916379        1.3984098520       11.2329196496
  C         5.7648282680        4.6819274677        9.5247782914
  H         1.6713496553        7.6194742902        9.0727964228
  O         7.7123061928        3.7421722953       11.9248210919
  H         4.3555151752        9.2076501899        9.4582266039
  H         4.0160759434        1.2025767236        9.3812825150
  H         5.6171385373        4.8603841950       10.6130151041
  O         4.6928726750        0.4834474644        9.2936345858
  O         2.9539534829        2.5463852716        9.7920766713
  O         1.1159126432        0.9120077042       10.5653192995
  H         1.3071793343        0.0256862810       11.0154404058
  H         6.3403104245        7.9322648807       11.1901285359
  O         7.2034046861        7.9839622140       10.7126672506
  H         4.9382013095        2.1866444185       12.3839747996
  O         4.5530661363        2.9923539631       11.8585306944
  O         2.2409765272        4.8028803797        8.7530623076
  H         3.2346121427        5.1652935677        8.8883568873
  H         6.8020299882        5.0268979466        9.2353356400
  H         2.1306140534        4.6527236728       11.5827393135
  H         5.2885403071        3.6608393418       11.9784294697
  H         7.6108415995        7.1118431954       10.6435117191
  H         4.7589624424        6.7762995399       12.4811797158
  H         4.8341108972        8.3593347379       12.8686715347
  O         4.3661926156        7.6701309179       12.2614982523
  O         2.5390834719        4.5541533323       12.4446628460
  H         2.3849978428        3.8794772532        9.0729279389
  H         9.9455479070        2.7352133547        9.3184604261
  H         3.3421768283        4.0248548805       12.3408538595
  H         9.7999901309        7.2626428586       12.8953398887
  H         0.7743880829        7.6370747989       11.8311576662
  H         8.6605782650        1.8589439211        9.3759237035
  O         1.6261228049       -1.5101382294       11.5006225028
  O        10.4461893395        6.6860390501       12.4520945065
  O         9.0435691495        2.7149492759        9.0534510586
 Cl         5.7933639417       10.1501798440       13.1512348984
  H         3.9450010988        7.6727533718       10.6067815475
  O         8.7892387421        5.8312132271       10.6333050049
  H         8.4899193189        4.9978399945       11.0513152313
 Cl        -0.8663510658        1.7937935069       12.6458198417
  O         8.6255370336       -0.9754544866       13.1440161884
  H         2.3987570160       -1.9491318796       11.9621071435
  O         3.7915228605        7.8587545615        9.6301632987
  H         9.4709998528        6.0393706446       11.3355358407
  H         8.0396447042       -1.0039917811       12.3292546341
  H         8.6981971691       -0.0234256575       13.3978227076
  H        10.7261630070        5.9495122564       13.0140750857
  H         4.9789849726        5.7867207337       19.3542075048
  O         6.0278743567        5.5641398768       13.1347426313
  H         5.6371851137        5.3093390923       14.0028191728
  H         7.4623370472        8.2956198639       14.6767997841
  H         4.5056785555        7.2294076581        9.2507982986
  H         7.0636276771        1.8413529646       14.2267175086
  H         4.2036917896        1.2907373190       14.3183665211
  H         6.8826661174        6.0176901271       13.2568183444
  H         0.4181973052        1.0911353164       14.1292367359
  H         6.7478346660        3.1939404189       15.0144811434
  O         5.1714072461        5.4895939290       20.2660781145
  H         5.7685315661        6.0366132748       20.8355098444
  O         3.6223417658        1.9615440322       14.8962387250
  O         7.0851389824        7.5354180089       15.2710092291
  O         7.4529469034        2.7381089659       14.4445874519
  H         2.6504266006        1.7762285019       14.8078199221
  H        -0.1453773265        3.7255330739       13.4125022042
  O         1.0579438928        0.8805038037       14.9017639255
  O         1.7908547018        8.0448973991       14.5996903530
  O         0.3670418765        4.3880460493       13.8864341215
  H         1.4133605906        8.9695197015       14.6777744379
  H         4.5070105973        3.3451686877       15.3854529281
  O         5.1302953366        4.1150543505       15.6633555241
  H         7.8298465346        7.4424948253       16.0078774690
  H         0.5097691695        0.8403584036       15.7730716208
  H         5.6922987505        7.5649525531       15.7412035412
  H         4.0627464357        7.5964159524       15.4156305324
  H         1.4363345591        7.7339321033       13.8043791022
  H         4.7514489187        4.3649094393       16.5688106777
  H        12.0785502172        6.8517146615       15.3345307783
  O         4.6876928351        7.6723745561       16.1855923907
  H         1.2935278248        4.3345017475       13.5114700028
  H         8.2432165666        2.1426956063       17.8946827809
  H         0.1978920391        0.3907556126       17.8241506596
  O        11.5914485206        6.3041162595       16.0759412854
  O        10.6617965072        0.5060343315       17.1049520142
  O         2.6297963581        0.8983440413       18.9518894205
  H        11.5920769877        5.3604354414       15.7436220511
  O         8.9644643470        2.4663300319       17.3285980363
  H         2.9591194185        0.6756132227       19.7796992670
  H         9.9492650602        1.1812928687       17.3342449884
  H         3.3967832507        0.6706479441       18.3240579649
  H         9.6416207676        8.6274327505       17.0972994589
  H         1.0144127813        6.0673823236       17.7312979167
  H         4.8614196863        9.1892714154       16.8732024684
  O         9.2098345782        7.7492574887       17.1547557560
  H         8.3955093651        2.7335020422       16.5383132255
  O         1.3985566410        5.7807210867       18.5779239112
  O         4.6905622060        0.5618912123       17.0840062609
  H         4.3891692458        1.0222848082       16.2155485904
  H         9.9625591327        7.1494255768       16.9610573538
  O        10.3042052221        0.5727102374       20.9483107273
  H         1.4523470022        6.6074085161       19.1765495536
  H         1.8260037977        2.4179880556       19.3489859269
  H         4.4426056201        6.3237607874       17.2202946194
  O         6.5356913453        2.8776438319       19.9694343799
  H        10.1235876002        1.4897956701       20.9344858194
  H         1.4277851674        3.9663426804       19.0392292312
  O         1.4340961973        3.2993663172       19.7118308398
  H         6.0448018288        3.7844873095       19.9953108563
  H         6.3525234044        0.5243429789       17.8776702034
  H         3.2897835110        5.8101133408       18.1399829188
  H         7.1113465892        2.8489479628       20.7786638250
  H         9.4693956501        9.6905014505       20.7555024172
  O         4.1625772684        5.5722953852       17.7715054628
  O         0.6765838677        7.9348526459       20.5528843307
  O         7.0452548704        0.7280269417       18.5457667878
  H         2.1227459462       -0.2576587435       21.3282276326
  H         9.4548910171        3.6986609201       19.4950063730
  H         0.4920570509        7.5246707558       21.4004478523
  O         8.1732146439        8.4632314981       19.6961301247
  H         0.1794232329        8.7407976883       20.5688331042
  H         8.6597560303        7.9010176114       18.9829185915
  O         2.9110916858        0.2588843483       21.7267433040
  O         9.9057458618        3.5720422971       20.3565932365
  H         6.5995809137        1.2723438416       19.2603908660
  H         7.8244028177        9.2174971574       19.1789445673
  H         7.2427395044        7.5811590508       20.9224654337
  H         3.9050041067        4.4001011383       21.0177738573
  H        10.8667146112        3.5940778232       20.1804035333
  O         6.9408309891        7.1295011466       21.7435328495
  H         3.4912220118        9.1525257193       21.8416534238
  H         3.7382145622        6.9837019914       23.2249969584
  H         7.7685164677        6.9264007444       22.2145330243
  O         3.2045731175        3.9246047434       21.5515596336
  O        -0.0998779783        9.2502709477       24.1410017816
  O         4.3081978884        7.7167353371       22.8310617535
  O         7.7127612937        2.1681191700       23.4170019192
  H         9.4968576128        3.8920445772       21.8034816404
  H         2.4412125369        3.6890587376       20.8902094313
  H         5.2051233429        7.3718101455       22.6300288369
  H         0.2577865218        8.4254410525       23.6712610779
  H         6.8291022781        2.2647391736       23.0181383525
  H         8.3385501218        2.9791028308       23.2310320310
  H         4.2084187772        2.5932838953       22.4971201342
  H         0.3215265642        0.4175543945       23.8007288760
  H         2.9625756142        4.8623073579       22.6847498732
  O         0.4304057614        6.9990856331       22.9432924697
  H         1.1727150114        6.4368698971       23.3158329583
  O         2.7832874359        5.5231986485       23.4710163405
  O         4.8391485582        2.2323404370       23.1780911742
  O         9.6436204754        3.9762518488       22.8419032104
  O         0.7771507315        1.9918143721       23.3483369599
  O         8.9548579768        6.4922719668       23.3667472003
  H         8.2350350531        0.7251448116       23.8874905616
  H         4.9625641367        8.8029080848       23.8112441631
  H         1.1589229498        2.4178773810       24.2785797081
  H         8.6134923002        7.0410113656       24.1541621764
  H        10.6566221360        6.6249480876       23.1681176899
  H        10.4413366779        3.4208287397       23.0555027673
  H         5.1114942351        0.6753906758       23.8028335623
  H         9.6011378879        9.3867594143       24.0775910523
  H         4.8111250374        2.7268105027       23.9932168215
  H         2.8217348035        4.9895121933       24.3001618214
  O         8.6043603721        9.5038843632       24.2611461852
  O         5.4965833281        9.5417283256       24.2309059272
  H         1.5126789471        1.6113440819       22.8860880441
  H         8.9930872357        5.5190469166       23.7606634698
 Pt         2.8894837313        9.4309479074       26.3589135660
 Pt         5.6321561085        9.3612248930       26.3092264423
 Pt         8.4643494400        9.3028682995       26.3386219406
 Pt         0.2170501014        9.6271139699       26.3340059510
 Pt         8.3156627892        4.5019260373       26.4017625281
 Pt         4.0803347979        6.8516876736       26.5626995341
 Pt         9.7834065798        7.0732401681       26.4501655884
 Pt         6.9679342493        6.8964546285       26.5949342991
 Pt        -0.0673113669        4.6377435906       26.3559399980
 Pt         1.4160735828        7.0357360386       26.4845698679
 Pt         9.7680066318        2.2270549898       26.4883653840
 Pt         6.9880632150        2.1831782606       26.5183777471
 Pt         2.8122629827        4.5853832979       26.5077322591
 Pt         5.5868906214        4.5970339785       26.5044142242
 Pt         1.2324750928        2.3569565243       26.4469476634
 Pt         4.1697179290        2.2713657026       26.5528228813
  H         6.3190552077        0.6242132235        9.4643806181
  H         8.1236924270        2.8393137601       11.7348298606
