     244
Tv_1:  11.152900   0.000000   0.000000 Tv_2:   0.000000   9.658700   0.000000 Tv_3:   0.000000   0.000000  26.829700
 Pt         5.5631970629        7.8872264365        1.8840585936
 Pt         6.8905089896        0.5317417911        1.8092843517
 Pt        11.0733502389        7.9208685165        1.7899848330
 Pt         8.4105007861        7.8478893992        1.8585266618
 Pt         8.1915457983        2.8409129765        2.0516823373
 Pt         2.6732705992        7.8514705495        1.9364952324
 Pt         9.7175510657        5.4249222902        2.1137048165
 Pt         6.9048791202        5.4905886408        2.0277562240
 Pt         5.4267555051        2.9064297852        2.0915008834
 Pt         3.9954318882        5.3696804769        2.0202125759
 Pt         9.6845162399        0.5755915759        2.0154165351
 Pt         1.1492314227        5.4027732090        2.0406255924
 Pt         1.2884265482        0.5611824135        1.8914260767
 Pt         2.6553736348        3.0254184358        1.9092753456
 Pt         3.9600312003        0.6028897743        1.9666030739
 Pt        11.0116752045        3.0061557726        1.9774074945
 Pt         5.1901114135        6.5218508915        4.2150315892
 Pt         7.9461192608        6.5806102991        4.2457935558
 Pt         6.4539810286        8.9443748357        4.2044578182
 Pt         6.4441852450        4.1359160585        4.2270642683
 Pt         7.8609333711        1.5393627964        4.5302578363
 Pt         5.0014425882        1.5867860050        4.3556857726
 Pt         9.2572869224        4.0489976735        4.4110557211
 Pt         9.3456528900        8.9991338993        4.3181303165
 Pt         0.9895628778        8.9821078776        4.2421718459
 Pt        10.7718493473        6.6831225438        4.2679484435
 Pt         2.2213619887        1.7398701287        4.2209636751
 Pt         2.4015245136        6.4152101538        4.2176847263
 Pt         3.7658762074        8.9709633437        4.2482372946
 Pt         3.6421173641        4.1311709639        4.3834895853
 Pt        10.6079925801        1.7069099987        4.3471636285
 Pt         0.8100321083        4.1554613193        4.3277270841
 Pt         5.9028330293        3.1184759057        6.6205516112
 Pt         8.8333749476        7.6558177345        6.5829475790
 Pt         7.5966367254        5.3312718405        6.7099683386
 Pt         7.6574618717        0.4700216786        6.8986359019
 Pt         4.6595271107        0.6219111319        6.7287939678
 Pt         1.7766421554        5.3367058048        6.5793970064
 Pt         1.8914086827        0.6401056937        6.6182057111
 Pt         6.0968003721        7.7353179397        6.5800743857
 Pt         3.2832304877        3.1257490235        6.7729887671
 Pt         0.6016948807        2.9682647440        6.7163553485
 Pt        10.2117036629        5.2589018022        6.6703729990
 Pt         8.7562072207        2.9320117617        6.7952897752
 Pt         4.5903332411        5.5273331734        6.6139157969
 Pt        10.3172078395        0.5928613729        6.7721560651
 Pt         0.5296699812        7.7638092776        6.6171477851
 Pt         3.2612253164        7.8511131949        6.5653399614
  O         4.6605869506        5.6217209521        8.6715956133
  O         0.6421593136        7.5265627564        8.6402055902
  O        10.6117680440        5.1967433027        8.7742554872
  H         2.7283770971        1.9113881082       10.5207312645
  H         5.9656658850        4.0479858183        9.1039237736
  O        10.6673809380        0.3239279761        9.0216038359
  H        11.0096422458        8.9629512230        8.9698626038
  H         4.0046931567        2.9067825757       10.6379298624
  O         7.3728628897        0.3353798805        9.0143412556
  H         7.4978919890        9.1585146201        9.6375971573
  H         9.8153634454        5.3338673414        9.4307362902
  H        11.3437668218        0.8025881407        9.5680636769
  H         0.1062727394        6.0491595854        8.8893223562
  H         7.5516408774        4.7395643379       13.0307931791
  H        12.0521861460        1.4251688203       11.4779490698
  C         5.7506540105        5.0388707681        9.4711084096
  H         1.5681041982        7.4415756599        8.9737579087
  O         7.7340683916        4.1375092391       12.2459101735
  H         4.4647294392        9.4010963120        9.4208648555
  H         4.2498120113        1.3144289239        9.3600651721
  H         5.5044417458        4.9852040808       10.5803811622
  O         4.8677519348        0.5656683127        9.0131890978
  O         3.3112287935        2.5778580588       10.0436563926
  O         1.3739988351        0.9112098470       10.7809800717
  H         1.6320788121       -0.0008372417       11.1874202092
  H         6.8856110906        8.1074071586       11.4203148709
  O         7.7199736986        8.1761941846       10.7737839402
  H         5.1703671293        2.0934216694       12.4389915830
  O         5.0586593885        2.9888363433       11.9594009361
  O         2.2272630259        5.2433454268        9.7256225474
  H         3.0865556330        5.4146053001        9.2036342034
  H         6.6782437163        5.6355307489        9.3527072184
  H         2.9859741027        5.2416584980       11.4012768366
  H         6.0269746297        3.3041533471       11.8711071988
  H         8.1165074012        7.2677060674       10.7094876696
  H         5.7028033079        6.9649082783       12.7915565601
  H         5.4637480948        8.6476738696       12.8279608666
  O         5.4862690360        7.7910281630       12.2285844440
  O         3.2088602049        5.2153426060       12.3794847021
  H         2.2416803074        4.2648874952        9.6476476935
  H         9.6722454633        2.2208197245        9.1319281276
  H         3.9502664844        4.6136748839       12.5782563556
  H        10.1034465612        7.9477918680       13.0184565324
  H         0.8261514557        7.7428251908       12.1431596114
  H         8.1181870032        1.8154919168        9.1762354862
  O         1.7494820700       -1.4002264739       11.9409264384
  O        10.6483850608        7.1939938771       12.5955098368
  O         8.7886210567        2.5672539799        8.9848744059
 Cl         6.0255984958       10.5108577278       13.4463825229
  H         4.4972259987        7.8017336839       10.8512064016
  O         8.9674759215        5.7502995354       10.6372746791
  H         8.5327194699        5.0697414425       11.2368577561
 Cl        -0.6182975694        2.4793402185       12.4937289356
  O         9.4254224463       -0.2120593666       13.3469378998
  H         2.3059280713       -2.1104203928       11.4828244031
  O         3.9411473666        7.8573379540       10.0070720203
  H         9.6479742545        6.1416438047       11.1947896272
  H         8.5134433369       -0.0913996343       12.8159190732
  H         9.9655092464        0.6183907303       13.2064562641
  H        10.9578577705        6.5357519335       13.2037570070
  H         5.0563393570        5.4634395540       19.5910026043
  O         6.7518430939        6.0774708018       13.9836162131
  H         6.2188846391        5.7016034839       14.8092646987
  H         8.2731171603        8.8203197692       14.6696874130
  H         4.1450645523        7.0865709226        9.4616987313
  H         7.9484716033        2.3129036698       15.2114617428
  H         4.5593481138        2.2432025094       14.3087620667
  H         7.2400366173        6.8273957869       14.3984158450
  H         0.5495888539        1.6972115371       14.5357651483
  H         7.0715439747        3.4672242860       15.7626647023
  O         5.3144476241        5.0125418586       20.4146290065
  H         5.9834239599        5.5673602429       20.9699220732
  O         3.9426023889        2.8114308873       14.8516323699
  O         7.8390927630        8.2915125560       15.3740987333
  O         7.9684500717        3.1204284529       15.7566685363
  H         3.0124693952        2.4131342875       14.8274447402
  H         0.4902593930        4.1092098654       13.3102478382
  O         1.3263274118        1.3868050732       15.0703425735
  O         2.3181650838        8.3534736206       14.5368412190
  O         0.8156831793        5.0097843745       13.6205475452
  H         1.8877931822        9.2297236065       14.7195230543
  H         4.6904481116        4.0917074270       15.6838201454
  O         5.4773150442        4.6805915936       15.9246904954
  H         8.5742121815        8.3571361359       16.0474448775
  H         0.9659317601        1.3459334910       15.9734949510
  H         5.6567719279        8.3917766929       15.5547009281
  H         4.1548603673        7.9967095971       15.3654077255
  H         2.1277941997        8.3481471718       13.5898538253
  H         5.2291009798        5.0662776333       16.7868912001
  H        12.7015903940        7.1304986888       15.6503142497
  O         4.8261462969        8.2403953354       16.0275696853
  H         1.7550387374        5.0035335930       13.1668508082
  H         8.3677654301        1.6178361994       18.3091587720
  H         0.7154536947        1.0364570091       18.0571955016
  O        12.1587174608        6.3856768148       16.0425093660
  O        11.2438766038        0.8311188338       17.3058708750
  O         2.6391735038        1.3232253815       18.8481855008
  H        12.0236883980        5.6763452979       15.2930470845
  O         9.1140454742        2.1694081472       18.0073349329
  H         2.7468714508        0.7061770150       19.6376817031
  H        10.3878459168        1.4468002419       17.4249175497
  H         3.2763868229        1.1127465450       18.1405262528
  H        10.5022932364        9.0941555181       17.2938891051
  H         1.4011835424        5.8528188493       17.5738804789
  H         4.4410873388        9.7298652547       16.6696942570
  O         9.9547844289        8.2603268626       17.3093207333
  H         8.7597326163        2.6716341947       17.1264817593
  O         1.8031682240        5.5648992589       18.4673966501
  O         4.5015103090        1.0229731684       17.1187394436
  H         4.3447882148        1.6026990369       16.2918230627
  H        10.4730685773        7.6056928995       16.9577434736
  O        10.5236962811       -0.3377450629       20.6935299456
  H         1.4464101755        6.1992331901       19.2370992321
  H         2.1184129393        2.8369230102       19.4616898173
  H         4.5763277664        7.0837542310       17.4419436916
  O         6.5700035120        2.7064478895       20.6379294989
  H        10.5831782495        0.6432967467       20.5787438799
  H         1.5126151693        4.2463630783       19.3081796516
  O         1.6461361543        3.5064589746       20.0002620595
  H         6.1794078584        3.5826655777       20.5596510634
  H         5.9349323385        0.9469455804       17.9671732898
  H         3.3964275447        6.0002285027       18.0552557136
  H         7.4727443966        2.7874772061       20.2298896945
  H         9.5582394745        9.0913498425       20.4699631468
  O         4.3922236064        6.1927519492       17.9870277726
  O         1.0834755722        7.0340402266       20.4322184003
  O         6.5954324600        0.9806445685       18.7746613891
  H         2.3506000391       -1.1977334479       21.1524723500
  H         9.9425386636        2.9310293676       19.8660821794
  H         0.6649885755        6.7285491262       21.2575353056
  O         8.2754460113        8.6221057044       19.4772437516
  H         0.4775742818        7.7685031209       20.2470452818
  H         8.8064786407        8.4006110014       18.6749412189
  O         2.8291020412       -0.3290029711       21.3040966711
  O        10.3898532235        2.6558380109       20.6825302356
  H         6.2305964048        1.5805899065       19.4896089508
  H         7.6419345054        9.3324004754       19.1497539706
  H         7.7346434811        7.4615788423       20.9245073118
  H         4.1977963486        4.4019619927       21.4038366941
  H        11.2844653662        2.9286718078       20.4072346389
  O         7.2858184203        6.9738056303       21.6090669694
  H         3.6381076068        8.9355309970       21.8001827772
  H         4.1483922806        7.3271098444       23.1960497623
  H         7.9513078626        6.6135245784       22.3100699194
  O         3.4112138075        4.0930783722       22.0105523638
  O        -0.1364723318        9.3776046026       24.0846807535
  O         4.6691389213        8.0509514117       22.6891906862
  O         7.6768721129        2.1300032747       23.8699081153
  H        10.2477787863        3.0934739430       22.3667023610
  H         2.6523652663        3.8586403573       21.3227469511
  H         5.5654003399        7.6595699411       22.5357255750
  H         0.1536217285        8.4829019023       23.7097529143
  H         6.8287411942        2.2578794655       23.3527196618
  H         8.5372707967        2.6974713392       23.5075747272
  H         4.2483804259        3.4162824276       23.1817276465
  H         0.3322340498        0.4755594305       23.6486624688
  H         3.1006685435        5.3911602461       22.7325399678
  O         0.3484063117        6.9856289653       22.9388343596
  H         1.2252957115        6.6686374624       23.3892225013
  O         2.8903587865        6.2206562357       23.4307345276
  O         4.9143821810        2.8353011733       23.7035257577
  O        10.0076994313        3.4271747604       23.3009260697
  O         1.6514766160        1.2856606916       23.2225595436
  O         9.1578531313        5.9683567329       23.4957363752
  H         7.9561204292        0.4955737639       23.9145278492
  H         5.1373475009        9.1197347835       23.6458077946
  H         2.3923829232        1.4637756562       23.8580878004
  H         8.8362860362        6.3583273961       24.3556229675
  H        10.7799791451        6.3664059374       23.2647339332
  H        10.6186753168        3.1496899473       24.0515752496
  H         5.1173646361        1.0243703921       24.0043159509
  H         9.0944751979        9.0344078227       23.8245559671
  H         5.3636137836        3.5195577230       24.3420369625
  H         2.8880360240        5.9238017794       24.4221025588
  O         8.1508426639        9.1078546294       24.0931741123
  O         5.5708373462        9.8170941412       24.1910754175
  H         2.1481826283        0.5992356831       22.5701203376
  H         9.2275907616        4.9880262366       23.7205588228
 Pt         2.8831399119        9.2672300945       26.2791132932
 Pt         5.5800047638        9.2324143447       26.3062619591
 Pt         8.4162750568        9.0946836247       26.2821238378
 Pt         0.0613486886        9.1075617716       26.2466502924
 Pt         8.4576148567        4.3726386472       26.6172668492
 Pt         4.2102287011        6.7801072193       26.6033464707
 Pt         9.8241725529        6.7110738541       26.5365937617
 Pt         7.0509015219        6.6598223776       26.4076469985
 Pt         0.2387295985        4.4079953657       26.4380229220
 Pt         1.6105372877        6.7490992594       26.4137233418
 Pt         9.9391938689        2.0503433510       26.4594044959
 Pt         7.1720232508        1.9977387158       26.4664480141
 Pt         3.0361974473        4.3797195365       26.3693381676
 Pt         5.7127577364        4.3059358436       26.5277706602
 Pt         1.5041522468        2.0827396457       26.4514968575
 Pt         4.1979561559        1.9725565015       26.5218817865
  H         6.3917264011        0.4459999525        9.1809244626
  H         8.5620974541        3.6173839716       12.5455600307
