     244
Tv_1:  11.152900   0.000000   0.000000 Tv_2:   0.000000   9.658700   0.000000 Tv_3:   0.000000   0.000000  26.829700
 Pt         5.5172382676        8.0579199045        1.8676937167
 Pt         6.8538803148        0.7142737027        1.9878447608
 Pt        11.0807104657        7.8049774775        1.9888046412
 Pt         8.2008684417        7.8185711545        1.9387397408
 Pt         8.2777750443        3.0524708337        2.0025835452
 Pt         2.6921527912        7.9568641343        2.0362733724
 Pt         9.6977306907        5.3084190294        2.0672964862
 Pt         6.7774160718        5.5342475312        1.8424922983
 Pt         5.5155681277        3.1457973320        1.8575162860
 Pt         4.0602375779        5.5225368540        1.9344080257
 Pt         9.6261150413        0.5166552827        2.0060492004
 Pt         1.2797816066        5.4181998363        2.0081418035
 Pt         1.2895767328        0.6011573604        1.9913966839
 Pt         2.6536753314        3.1093709551        1.9095693393
 Pt         4.0469333480        0.7358149516        1.9840758345
 Pt        11.0338805368        2.9633050076        2.0893276349
 Pt         5.0261596440        6.6892018523        4.2544770116
 Pt         7.8866214088        6.4240881704        4.2140182475
 Pt         6.5433025865        8.9621233544        4.2550245434
 Pt         6.4988660279        4.1796555515        4.2362252166
 Pt         7.8972357648        1.6382885171        4.2502107649
 Pt         5.1061990173        1.7834908929        4.2703705912
 Pt         9.2861683802        3.9241470940        4.3616417130
 Pt         9.2887084308        8.9968578433        4.2977954960
 Pt         1.0979192372        8.8896249519        4.3002648156
 Pt        10.5525273222        6.5257007288        4.4247557802
 Pt         2.3003062099        1.7674438282        4.2846061942
 Pt         2.2117832389        6.4555196309        4.2901991736
 Pt         3.7885003066        9.1753499846        4.3241282034
 Pt         3.7717016675        4.2897289569        4.3062786596
 Pt        10.7914801160        1.5790481646        4.3606490869
 Pt         0.9631060685        4.1343687969        4.3183332896
 Pt         6.0497005727        2.8966991747        6.6908296046
 Pt         8.8700109723        7.6253228180        6.6421251438
 Pt         7.6181478558        5.2288204036        6.6310886403
 Pt         7.5911351417        0.3729192267        6.6497658903
 Pt         4.7373157948        0.4184888807        6.7314207856
 Pt         1.8552451266        5.2025633509        6.8188614613
 Pt         1.9810257991        0.4055587949        6.6973433015
 Pt         6.1651002049        7.6512894751        6.5477139215
 Pt         3.4064503685        2.8013010536        6.7063677085
 Pt         0.6290758923        2.7705509442        6.6749262944
 Pt        10.3071406753        5.1587569451        6.7623303995
 Pt         8.8786656338        2.8136932084        6.7238853448
 Pt         4.7235636441        5.2427950957        6.6373579523
 Pt        10.4188413279        0.4331571659        6.6961058471
 Pt         0.6506181534        7.6196727361        6.6053929433
 Pt         3.4391419032        7.6457293501        6.5066528934
  O         4.9114570997        5.7006163887        8.6859280395
  O         0.2780704704        7.5362496591        8.6635720170
  O        10.6579328489        4.9053160182        9.0900453838
  H         2.3846715467        2.0717214733       10.2151218324
  H         6.5745175066        5.6079120043        9.8892691226
  O        10.2970439158       -0.0039529377        8.6879639728
  H        10.8199220953        8.6550824087        8.7893360196
  H         3.7730209239        2.6284963315       10.6792412244
  O         7.5262373489        0.3400748122        8.8708638866
  H         7.5479041496        9.1113935280        9.5437150248
  H         9.8308762245        5.1675107034        9.6708655061
  H        10.9290227742        0.5573965276        9.1582761728
  H        -0.0323938245        5.8092357172        9.0681003505
  H         7.1364697883        4.6345863588       13.2353528268
  H        11.4871393169        1.7102720115       11.0540716352
  C         5.8254070122        4.8635722908        9.5422668846
  H         1.0382673633        7.6588925295        9.3102618726
  O         7.3501369094        4.1332072723       12.3948826221
  H         4.7394950261        9.3440383130        9.4872542666
  H         4.0704591455        1.3672293912        9.3681668253
  H         6.3057670370        3.9594465729        9.0878360619
  O         4.8310468680        0.6867936354        9.0148927786
  O         3.2184336740        2.4882593185        9.8445634668
  O         0.8704239893        1.2071722346       10.4059009078
  H         1.2157138964        0.4025300236       10.8968870611
  H         7.1328660396        8.1425702148       11.5089697807
  O         7.7808277401        8.1966302910       10.7279182205
  H         4.6460763118        2.1655985865       12.8777553976
  O         4.7745135415        2.9335513507       12.3131173450
  O         2.4346717999        5.0585883473        8.9701197513
  H         3.4016287878        5.3767342882        8.8530726001
  H         5.3325977765        4.5235439366       10.5118031022
  H         3.0765784999        5.3120286960       11.4896895469
  H         5.7539949505        3.0274903040       12.1655229133
  H         8.1303935158        7.2749805308       10.5095123806
  H         6.0246694748        6.9854747771       13.2642733782
  H         5.5416838090        8.5689798218       13.2221629542
  O         5.8798647307        7.8290609525       12.6853394507
  O         3.2263550639        5.3294280791       12.4698662898
  H         2.5536638168        4.0916423143        9.0387219336
  H         9.9723966310        2.7822582245        9.1901636123
  H         3.8289243965        4.5102889577       12.5116500901
  H        10.2555771914        7.7658939620       12.8612092830
  H         1.0480248103        7.6301467101       11.5510935730
  H         8.7099435200        1.8020939156        9.1349035963
  O         1.7488065769       -1.7413976348       10.8684881717
  O        10.7270290468        6.9295746300       12.4724982366
  O         9.0045303687        2.7522911164        8.9978433841
 Cl         4.4351017697       10.2299934496       14.0301681297
  H         4.8374109533        7.9396221360       10.9710000122
  O         8.7766638034        5.8259565599       10.9047138278
  H         8.1230970223        5.2779882685       11.4025321983
 Cl        -1.0388570300        2.7637936999       12.3503424198
  O         9.4711427814       -0.4516488677       12.9216328088
  H         2.4353961707       -2.3656699492       11.0795412600
  O         4.6334108872        8.0185428153       10.0286466527
  H         9.4318383678        6.0906474054       11.6171185233
  H         9.2483326169       -0.6359357907       11.9761320227
  H         9.8643340404        0.4602045927       12.9093053178
  H        11.3473932942        6.5687465800       13.1183925288
  H         5.7879279463        5.4390215401       19.5048093779
  O         6.4560636413        5.6785582751       14.3403760765
  H         5.7378002801        5.2425979346       14.8885964894
  H         7.8722825111        8.6311517947       14.4983572303
  H         4.7524675560        7.2099091243        9.5008071856
  H         6.1958330579        1.7709022905       15.5658859033
  H         1.8610796382        2.7055814058       15.5514108113
  H         6.8613713838        6.4498640269       14.8953117440
  H        -0.2123553762        2.1943809355       14.7066229094
  H         5.7031861074        3.2565567672       16.0003008702
  O         6.1413009276        5.1177839571       20.3386497420
  H         6.5064439292        5.8293217296       20.9786512116
  O         2.2633556204        3.5513563830       15.8728030264
  O         7.6622369500        8.0294043988       15.2166955869
  O         6.3405001878        2.4558734401       16.2716627079
  H         1.9412220445        4.1957199729       15.1938038141
  H         0.4352081946        4.0967371731       13.3719158174
  O         0.3716435912        1.4498828748       14.9242944229
  O         1.5646245027        8.9565186408       14.6481070690
  O         1.0288101416        4.8407993582       13.6858955811
  H         1.0066663915        9.6935416424       14.3002233126
  H         3.8162587162        3.9837831906       15.5757650498
  O         4.6248367108        4.4400712866       15.8855157869
  H         8.4507030683        8.0380284949       15.8912087232
  H        -0.0111137858        1.0277752089       15.7436791666
  H         5.9576765671        8.1692723503       15.9948835349
  H         4.5127315311        8.5546801518       15.4233495403
  H         2.4541133175        9.3705270949       14.7915707374
  H         4.5858770317        5.0797072930       16.7040278031
  H        12.0504064628        7.5807899576       15.4163833631
  O         4.9003505778        8.1122282545       16.1572432601
  H         1.8346590395        4.8763488612       13.0936554966
  H         7.3427484181        1.6197298681       18.6111021441
  H        -0.1275113898        0.3735937116       17.7999446109
  O        11.6346257225        6.8458929954       15.9370488852
  O        10.3847965842        0.6447148549       17.1149986723
  O         1.7005585464        0.8617464697       18.4885274861
  H        11.7116816034        6.0399853875       15.3679118822
  O         8.1125617211        1.9668890045       18.0692666475
  H         2.3464600129        0.6872063139       19.2009096139
  H         9.5220017864        1.1099763164       17.4798046019
  H         2.2775186351        0.7044611082       17.7356502723
  H         9.9035829234        8.8454644588       16.9774905170
  H         1.3461652263        6.1992856301       17.4172530600
  H         4.3672094011        9.1457583425       17.1698420505
  O         9.4695948555        7.8903435184       17.0288164138
  H         7.6312614048        2.3848519700       17.3151976732
  O         1.9232657770        5.8738222021       18.1481859809
  O         4.2763651996        0.3836608839       17.6467954190
  H         4.6188021298        1.0503193670       17.0129900459
  H        10.0767698089        7.2195663970       16.6712257409
  O        10.2036528178       -0.1888951546       20.4893483741
  H         1.5123088201        6.4115874523       18.8682653755
  H         1.7646635475        2.6542687555       18.4782633885
  H         4.5557898596        6.9826252633       17.5287374138
  O         5.8804197313        2.5710612423       21.3603182667
  H        10.3572718750        0.8162150721       20.4501431900
  H         1.7252648573        4.3049278617       18.5690410375
  O         1.4678240696        3.4116858226       19.0034043411
  H         5.9048797575        3.5281871593       21.0355378968
  H         5.4971023237        0.5020173476       18.8611605543
  H         3.5251381715        6.0426400407       18.0207046498
  H         6.5756220484        2.5606335321       22.0926345181
  H         9.3713088098        9.2277374230       19.9223035163
  O         4.5137503424        6.1809226583       18.1234896261
  O         0.9036278328        7.4984927699       20.3160151461
  O         6.2702887549        0.5630253440       19.4320333798
  H         2.0602183732       -0.7797522104       20.7884976002
  H         9.3729367591        2.6110024181       19.5352812656
  H         0.7621193070        7.2116972385       21.2859119378
  O         8.0263623343        8.3147286233       19.4077818818
  H         0.1896745145        8.2261705314       20.2872044960
  H         8.2357701904        8.0114798953       18.5056586048
  O         2.6636387950       -0.1193516510       21.2387741391
  O        10.2820701821        2.7089107025       20.0100498285
  H         5.9676628240        1.2317587660       20.1611428497
  H         7.0759521482        8.9001303969       19.3985103042
  H         7.7832816277        7.4640581460       21.1395689493
  H         3.4780231559        4.7884858910       20.4020117913
  H        11.0440754563        2.9585920337       19.3854539427
  O         7.5215008388        6.9959955795       21.9884603827
  H         3.3916826192        8.9797426913       21.5398755773
  H         4.3282989549        7.2642680166       22.8435259727
  H         8.2944409851        6.6595249128       22.5466363117
  O         2.8335474846        4.5483205259       21.0849005203
  O         0.0174082900        9.4217519338       24.1540429481
  O         4.9991188431        7.9819318942       22.5309007115
  O         7.7949649390        2.3052491768       23.4256340453
  H        10.5644221017        3.1988094255       21.5210269782
  H         2.2051475532        3.9612349289       20.6581248424
  H         5.7812234375        7.5152940638       22.1442017250
  H         0.5618515420        8.6157045939       23.8194756662
  H         7.5419792452        2.7672041604       24.2254224434
  H         8.5778455284        2.8036798558       23.1554870726
  H         4.4957970848        2.4902798336       22.5270390585
  H         0.4067199693        0.6341685336       23.8150405452
  H         2.6762096691        5.2909006055       22.7612754344
  O         0.7533809775        7.3542690310       23.1392998026
  H         1.6298600905        6.8671314517       23.2597799594
  O         2.9381743891        6.0480716660       23.3341690739
  O         4.0569305289        2.4481439807       23.4523182157
  O        10.7237763955        3.6808026965       22.3828041411
  O         1.4666254924        1.5114276071       23.0323000703
  O         9.6966308485        6.0127638866       23.3219736146
  H         8.2872071599        0.6545193427       23.9412316807
  H         5.4850290229        9.0086746054       23.6351550732
  H         2.3421254526        1.9202805409       23.3115867818
  H         9.4804957315        5.9619047964       24.2975654575
  H        11.1047575721        6.7804764764       23.2136207128
  H        11.3725973206        3.1615268785       22.8876503457
  H         4.9936092134        0.9029357591       23.8649212819
  H         9.5433782750        9.3108561402       23.9119144802
  H         4.3907125935        3.1485480335       24.0260788825
  H         3.2675287751        5.6881653432       24.2301382187
  O         8.5788468993        9.4233935689       24.1044071267
  O         5.6599413631        9.8716300681       24.1063831434
  H         1.7268955113        0.8959433321       22.3203466514
  H         9.9305288634        5.0919770052       22.9574402162
 Pt         2.9138640435        9.2915443936       26.3712110608
 Pt         5.6875983941        9.2256824543       26.3201628615
 Pt         8.4874048327        9.2383892350       26.3482271627
 Pt         0.1204397509        9.3833969915       26.3667144784
 Pt         8.3989965065        4.4002710968       26.3641213612
 Pt         4.2391803682        6.8341421701       26.4484606429
 Pt         9.8014856154        6.8406918689       26.6378557018
 Pt         7.1744005499        6.8374756827       26.4048118645
 Pt         0.1157303112        4.4409012387       26.5339626490
 Pt         1.5295666355        6.8985705221       26.6210852028
 Pt         9.7941417261        2.1305507353       26.5102002952
 Pt         7.1326135573        1.9659605075       26.4527308118
 Pt         2.9226677835        4.4937925460       26.3813090340
 Pt         5.6663133617        4.3849607377       26.2044230389
 Pt         1.4134377869        2.0948907007       26.5628932051
 Pt         4.1465354016        2.0825640905       26.3772015008
  H         6.5893204360        0.7532994690        9.0342693858
  H         8.1769221630        3.5933209045       12.6049762370
