     244
Tv_1:  11.152900   0.000000   0.000000 Tv_2:   0.000000   9.658700   0.000000 Tv_3:   0.000000   0.000000  26.829700
 Pt         5.4958267974        7.9983697110        1.8805694702
 Pt         6.9189850101        0.6331275137        1.9593556710
 Pt        11.0837134390        7.7760068707        1.9323229857
 Pt         8.3096997952        7.8851829555        1.8952388240
 Pt         8.1822024614        3.0854324803        2.1196992086
 Pt         2.7517328986        7.9333095431        1.9228449206
 Pt         9.6732849531        5.3354884597        2.0572644502
 Pt         6.8900232813        5.5271821656        1.9605495244
 Pt         5.3595076530        3.0206781172        1.9518758664
 Pt         4.0033839031        5.5386483070        1.9520611976
 Pt         9.5722681601        0.6125821359        1.9074733097
 Pt         1.2810962224        5.4452855412        2.0136897102
 Pt         1.0873949378        0.5561257313        2.0864425473
 Pt         2.6488128492        3.0009643668        1.9225362155
 Pt         4.0030811684        0.6441102054        1.9098523375
 Pt        10.9731161361        2.9719597600        2.1278708474
 Pt         4.9689316303        6.6054454935        4.2085268161
 Pt         7.8457073906        6.5585584348        4.2347020740
 Pt         6.5411598940        8.8974802688        4.2377792065
 Pt         6.5752124574        4.0742544393        4.2281037299
 Pt         7.8753714552        1.6761806235        4.3405490324
 Pt         4.9170167572        1.6928880189        4.3002965661
 Pt         9.3556043582        4.0242748114        4.3355722601
 Pt         9.2767003321        8.8899338409        4.3214878325
 Pt         0.7469352794        8.8774950222        4.2846021325
 Pt        10.6923560030        6.4545375658        4.3732595040
 Pt         2.2039262458        1.7018887094        4.2323877136
 Pt         2.2237192900        6.6564124378        4.3272679708
 Pt         3.6041324018        9.0810290071        4.3067059853
 Pt         3.8319545979        4.1777250713        4.2477387077
 Pt        10.6713196460        1.5324144319        4.3290096339
 Pt         0.9748353858        4.0975545673        4.2378128112
 Pt         6.1090119307        2.7727028474        6.4581179794
 Pt         8.8660319345        7.5243474338        6.6709729831
 Pt         7.5372159764        5.0475411884        6.5006888836
 Pt         7.5884373671        0.3510196537        6.7262962841
 Pt         4.6729706755        0.3979431743        6.6420923484
 Pt         1.9731691189        5.1769235671        6.7080543083
 Pt         1.9688088479        0.3272384351        6.7472190395
 Pt         6.0493527333        7.4831509490        6.5256654182
 Pt         3.3958861289        2.8240144712        6.5503847698
 Pt         0.7199142060        2.6956018689        6.5020620965
 Pt        10.3344474669        5.0901934757        6.7069623097
 Pt         8.8613548320        2.7961276750        6.7869642937
 Pt         4.7097142739        5.2319786310        6.6857412623
 Pt        10.3728737306        0.4443730501        6.8529751687
 Pt         0.5174853301        7.6452482896        6.6398334347
 Pt         3.3961456035        7.6068132505        6.6535272246
  O         4.8016334438        5.5306437403        8.6952914184
  O         0.6462865286        7.6228837014        8.7749234691
  O        10.7680133346        5.3088715276        8.8315621716
  H         2.3910771405        2.2027573903       10.0897218728
  H         5.7020854287        5.3626414091       10.4335187681
  O        10.3931484730        0.1176241104        9.0807179003
  H        10.8567203827        8.8515596186        9.1794073593
  H         3.8831894412        2.6856245459       10.6775804405
  O         7.1245633142        0.7128157582        8.9586834372
  H         7.5010899937        9.5825090724        9.5975390129
  H         9.8976839033        5.6095115710        9.1769938927
  H        11.1739863617        0.7181967291        9.3049370032
  H         0.1696270914        6.1679761600        8.9219933025
  H         7.4473848616        5.4695553909       12.9171168473
  H        11.5374415721        2.2114599617       11.0892311731
  C         5.8337928111        4.9318660673        9.4071918606
  H         1.5791421323        7.8248455691        9.0454971981
  O         7.5824487924        4.7024450498       12.3282990926
  H         4.2611188753        9.2226543111        9.2295045772
  H         4.0580000870        1.2375400098        9.2268282868
  H         6.8364986499        5.2543749023        9.0679669782
  O         4.6732158655        0.4291038425        8.9656557810
  O         3.3998645195        2.2820084031        9.9059277969
  O         0.9665168900        1.6143276147       10.4461103786
  H         1.3172622415        0.7071598935       10.8663170774
  H         6.6843988576        8.4588192196       11.2749472811
  O         7.5807253896        8.6648339827       10.8448557119
  H         5.4531197987        2.2959469263       12.3723857635
  O         5.2305384144        3.1696526688       12.0218518203
  O         2.2351908777        4.9530055235        9.1742598179
  H         3.2092784636        5.1334099475        8.9385155599
  H         5.8327762092        3.8478458345        9.3512231152
  H         2.5169524305        4.5824801473       11.2072106118
  H         6.0364228892        3.6635215077       12.2393866377
  H         8.0884957266        7.7638043408       10.7621534394
  H         5.6301822014        7.3715689284       12.7874588201
  H         5.1121602095        8.9557971970       12.8364308824
  O         5.3568591536        8.1585919612       12.1993021027
  O         2.7372821359        4.3405937920       12.1378769262
  H         2.0237265120        4.0848420779        8.8313862622
  H         9.4857224242        2.8042103959        9.3782637219
  H         3.6724913203        3.9183176871       12.2257031943
  H        11.7417797019        7.4993785171       12.0215660700
  H         1.7124665839        9.0550456257       12.5172507658
  H         8.0239785751        2.1125163160        9.2329576486
  O         1.6686882534       -0.6785818135       11.4797862963
  O        10.9598746575        6.9522943639       12.2924198941
  O         8.6180213143        2.8436815722        8.9087757384
 Cl         4.4806404722       10.4563397591       14.0134985304
  H         4.5252659564        7.7921115990       10.8640562511
  O         8.9979361386        6.3751940174       10.4928636475
  H         8.3912119272        5.6887556629       10.9204124078
 Cl        -0.8273949944        3.2726182531       12.2916672025
  O         8.2752025778        0.6796683717       13.0919331228
  H         2.3158238278       -1.3163769213       11.1103313442
  O         3.7973070679        7.8030266763       10.1616038041
  H         9.7470237402        6.5484216417       11.1106966566
  H         8.3051229436        0.2485298756       12.2033363294
  H         9.0563461549        1.3797247836       13.0987197083
  H        11.3153334708        6.0775208584       12.4071348376
  H         6.1443445016        5.4996002315       19.5341084799
  O         6.6004874309        6.5324880909       13.8774174926
  H         6.1841438447        5.9235412304       14.4955102764
  H         8.4293900435        8.9690983754       14.1025543781
  H         4.0385343785        7.1120479462        9.4849848124
  H         7.1664113456        2.3775536021       15.8732193246
  H         3.4473280856        2.4782322731       15.1190427076
  H         7.1534699740        7.2263403919       14.3526365587
  H        -0.4627170328        2.1792337745       14.6952828322
  H         6.1382207437        3.6395235751       16.0350701728
  O         5.9744546936        4.9260035554       20.3778986756
  H         6.6328934907        5.1292983929       21.1278593463
  O         3.0189052402        3.1845874488       15.6460517568
  O         8.2176208055        8.3522768704       14.8706544655
  O         6.7075000820        2.8823099442       16.5863644268
  H         2.2421061596        3.3605175146       15.1492436850
  H         0.2129230788        4.4223597067       13.7175703967
  O        -0.3898955512        1.2744866769       15.0519405548
  O         1.6504333935        9.3353190781       14.1880485204
  O         1.0506645881        4.7042115807       14.1269574936
  H         0.9314981850        9.9141401251       14.5145932817
  H         4.1560556173        4.5263510839       15.6612814312
  O         5.1371983559        4.8409856474       15.7901327076
  H         9.0699632746        8.2225864866       15.3532126546
  H        -0.2715626321        1.4049049905       16.0256120686
  H         6.7565391050        8.8606874304       15.8820646719
  H         5.3233510686        9.2824923436       15.4672849694
  H         2.5103992632        9.7654259541       14.4524761515
  H         5.2048561460        5.5330204431       16.5924997418
  H        12.8962870059        7.8804070339       15.0142972716
  O         5.8115442231        8.9636990316       16.2788859230
  H         1.7260996088        4.5013438167       13.3615187906
  H         8.3480769405        2.1659908636       19.0165214411
  H         0.8764830781        1.0916180751       18.0008430938
  O        12.5908229119        7.1724565732       15.6719669600
  O        11.0895783681        1.0718378822       17.6934234798
  O         2.4913114731        1.1774838823       18.6566466092
  H        12.4409734065        6.4552896075       14.9962847304
  O         8.9427979824        2.8398686463       18.5654402610
  H         2.4483847915        1.0400668824       19.6139907144
  H        10.4820020114        1.8340852742       18.0367992650
  H         3.4769186045        1.0598840532       18.4723767540
  H        10.4111450729        9.0555329141       17.0610115828
  H         2.1366457567        6.7390758266       17.1740937323
  H         5.3528840972        9.8839929455       17.5699070434
  O        10.0615333431        8.1737546147       16.6557380797
  H         8.3949212803        3.1369856341       17.7501282487
  O         2.5516656423        6.4107316386       18.0271959789
  O         5.1918864373        0.9090230150       18.2577283447
  H         5.3959937852        1.7995275336       17.8700390483
  H        10.8571261399        7.6277871886       16.3819121441
  O        10.4281487313       -0.5017791382       20.3721882869
  H         2.2313335278        6.9225781978       18.7868191264
  H         2.2076572246        3.1160579303       18.3456002581
  H         5.3182594805        7.4819202574       17.0846223112
  O         7.6869072709        2.4111974487       21.1907645463
  H        10.2010208471        0.2987675523       19.8573026229
  H         2.3198939578        4.7642644869       18.5739057735
  O         2.0032774853        3.8944989905       18.9448155505
  H         7.2889197183        3.1968590714       20.8476397902
  H         6.4848560257        0.4565242611       19.4121163653
  H         4.2206043784        6.6720742440       17.8924804852
  H         8.0800612381        2.6309084177       22.0557557029
  H         9.7491238844        8.5596747958       20.0114873932
  O         5.1885239644        6.7006262160       17.6915653791
  O         1.7144997637        7.7304492873       20.3436884680
  O         7.4215231189        0.1893684921       19.7409574627
  H         3.0896755177       -0.8268928013       20.9175556240
  H        10.2116078711        3.4874055149       19.8431947579
  H         1.5655065670        7.1207672865       21.0720075998
  O         8.4282113476        7.3394038909       19.2907358610
  H         0.9808243624        8.4218984623       20.2170364061
  H         8.5757255016        7.2835560631       18.3155450063
  O         3.3285882874        0.0653525476       21.2288681630
  O        10.8939261660        3.2614698083       20.4912441742
  H         7.5100774313        0.6990175480       20.5318786760
  H         7.7896054653        8.1276000593       19.4844478135
  H         8.1777687294        6.5666022793       20.9937489676
  H         4.4886488565        4.2817280055       20.5453555005
  H        11.7823867241        3.5059837104       20.0129050008
  O         8.1439653786        5.9670368109       21.8162293050
  H         4.2723491744        9.8814094512       21.4726950576
  H         4.9971213624        6.5265647907       23.1062514607
  H         9.0898862563        5.6746209860       22.0502517331
  O         3.7767891071        3.7319077548       20.9908912468
  O         0.4183068056        9.0123574781       24.1830803116
  O         5.7639739754        7.1237400481       23.2744850867
  O         8.6897808584        2.3005733815       23.4988024920
  H        11.0769425877        2.8128274003       22.0612399052
  H         3.1184402789        3.7037656317       20.2456093107
  H         6.5986622885        6.6436804744       22.9662504475
  H         0.6784343106        8.0996442984       23.9065901978
  H         8.4422375366        2.6867058510       24.3386193338
  H         9.6792499999        2.4415849839       23.5006377392
  H         4.7199085500        2.2948306365       22.0306105920
  H         1.1837450040       -0.0444640153       23.9605958684
  H         3.4356014904        4.6972510507       22.3805884093
  O         1.2169091844        6.8478176026       22.8655281285
  H         2.1021607241        6.4501288389       23.1285318197
  O         3.5443111798        5.5449274915       23.0801738869
  O         5.3278638427        1.5817670556       22.2744791876
  O        11.1520767983        2.6731190743       23.0167375960
  O         2.1934091271        0.9837910742       23.4199847640
  O        10.1581742694        5.2834358633       23.5204442790
  H         8.6235856953        0.6222777790       23.8160753863
  H         5.6818187688        8.6571856676       23.8756214403
  H         2.9176248105        1.0330928157       24.0608854868
  H         9.8246061377        5.4007185585       24.3724234030
  H        11.6061029903        6.2046019613       23.0634378542
  H        11.8652602463        2.0042934560       23.2009875401
  H         5.6283167808        0.5684122042       23.7775710044
  H         9.8053874425        9.3243728250       24.1669051656
  H         6.2131244621        1.7990759862       21.8741439290
  H         3.6015817565        5.1594210405       23.9860760404
  O         8.8366520364        9.3588405557       24.1249322123
  O         5.9605101016        9.5033224335       24.3107616520
  H         2.5533890825        0.5434295679       22.5352658653
  H        10.5878865964        4.3998263297       23.5287702959
 Pt         2.8553742356        9.3512434428       26.4015369476
 Pt         5.8823645737        9.4022078975       26.3791414524
 Pt         8.6251602506        9.2690931628       26.4328603056
 Pt         0.2816553699        9.3590878014       26.4147440891
 Pt         8.3824917389        4.4561946065       26.4807008663
 Pt         4.2276674865        6.9435333897       26.3498142891
 Pt         9.7777640246        6.7900950158       26.5630194588
 Pt         7.0963663127        6.7981961023       26.4423297925
 Pt         0.0770803696        4.4317552140       26.4323339981
 Pt         1.4945522312        6.8802466701       26.4608338055
 Pt         9.7522419634        2.1297676758       26.5780963789
 Pt         7.0407409539        2.1677097727       26.4439137002
 Pt         2.7159766865        4.4591411566       26.4431180038
 Pt         5.6041833302        4.5371490206       26.4666048817
 Pt         1.4339382972        2.0468651629       26.4994230954
 Pt         4.2948602085        2.1494230636       26.4696362990
  H         6.1030377657        0.6493672424        9.0739547369
  H         8.4555391048        4.3346237995       12.3996613227
