     244
Tv_1:  11.152900   0.000000   0.000000 Tv_2:   0.000000   9.658700   0.000000 Tv_3:   0.000000   0.000000  26.829700
 Pt         5.5382501651        7.9521485232        1.8470077881
 Pt         6.7703249954        0.6831229797        1.9291880754
 Pt        10.9752008857        7.8305567581        1.9039089820
 Pt         8.2649613944        8.0293813250        1.8226356916
 Pt         8.0942789306        3.0950601473        2.1269294053
 Pt         2.7544935269        7.8486450542        1.9312589167
 Pt         9.7435016039        5.4579354212        2.0228198336
 Pt         6.8998081127        5.6344343937        1.7620864488
 Pt         5.3577944654        3.1214572607        1.9700089589
 Pt         4.1163491515        5.4694048037        1.9993380455
 Pt         9.6705998588        0.6249785361        2.0208144684
 Pt         1.3261568907        5.4758784426        1.8610020244
 Pt         1.2429005872        0.5937121394        2.0619406671
 Pt         2.6611007846        3.0564839801        2.0875006523
 Pt         4.0244128539        0.5980064253        1.8212313696
 Pt        10.8877250013        3.0319884306        2.0328853205
 Pt         5.1574816952        6.5045529377        4.2589800159
 Pt         7.8843091485        6.5920545827        4.1866345136
 Pt         6.4848073455        8.9559819267        4.1628128702
 Pt         6.4412999807        4.1510711243        4.1812295965
 Pt         7.7012106422        1.6227484911        4.4451425758
 Pt         4.8953683201        1.5841637282        4.2208806355
 Pt         9.2412650598        4.1340314415        4.3423520632
 Pt         9.3092391590        8.8884876166        4.2041199398
 Pt         0.9115789446        8.9292042836        4.2623370332
 Pt        10.7691629110        6.5187047150        4.2838279033
 Pt         2.1956667532        1.6937319338        4.2991581605
 Pt         2.4238244481        6.5418774980        4.1747671353
 Pt         3.7495867164        8.8983068092        4.1572978698
 Pt         3.7318521898        4.1481434387        4.3024958221
 Pt        10.4709440910        1.7807255551        4.5148361365
 Pt         0.9271841812        4.1846475685        4.2779680670
 Pt         6.0002218324        2.7864733444        6.4963059002
 Pt         8.8749645399        7.6482287206        6.5198527021
 Pt         7.5734718944        5.2714035583        6.6139915118
 Pt         7.3585805272        0.3791613967        6.7833652898
 Pt         4.5881438411        0.4185167762        6.7013865345
 Pt         1.9774971919        5.1612091897        6.6665964848
 Pt         1.9417366951        0.3949147776        6.6514942012
 Pt         6.0945075419        7.7189975949        6.4337610529
 Pt         3.2328939098        2.8068895707        6.5928282245
 Pt         0.6881330539        2.8677592990        6.7049136410
 Pt        10.3473113372        5.1513960644        6.6538841320
 Pt         8.8517298897        2.7954061560        6.6794666388
 Pt         4.8219935465        5.2349199804        6.6033253130
 Pt        10.2818208804        0.4459031863        6.8066665101
 Pt         0.5252726338        7.6446116381        6.6511059642
 Pt         3.2310264203        7.5882630284        6.5664169358
  O         4.7906454627        5.5796745934        8.5586536801
  O         0.6807930609        7.5901906255        8.8187646199
  O        10.6088327532        5.2497990027        8.8332798970
  H         2.5809752003        1.8435495268       10.3652191639
  H         5.6247519457        4.8471318216       10.4139514682
  O        10.3582229854        0.2014532223        8.9311302580
  H        10.6552244399        8.8593465432        9.0178097421
  H         4.0834874105        2.3877239517       10.7851616109
  O         7.2242509998        0.4595296012        9.0294498808
  H         7.6364201713        9.3047434930        9.4524454726
  H         9.8323616621        5.5901376246        9.3792089176
  H        11.0694301895        0.7326392072        9.4192857726
  H         0.2055349996        5.9607284305        8.9339941696
  H         7.3320669594        4.5606961964       12.7216166713
  H        11.4541951987        1.5169277492       11.2341452131
  C         5.6942148865        4.6773404048        9.3426439029
  H         1.5806599229        7.6755967596        9.1593912663
  O         7.7172146509        4.0806230184       11.9812904400
  H         4.2217160161        8.9163246813        9.2317994455
  H         3.9250004183        0.9823363721        9.2180080472
  H         6.7310870821        4.8233805082        8.9940819514
  O         4.5760902543        0.2730215658        8.8617493334
  O         3.4048521890        2.2527224198       10.0008927966
  O         1.0103868308        1.0666700087       10.6404615011
  H         1.3921498333        0.1744293063       10.9446879910
  H         7.0224821622        8.2058898028       11.1159544591
  O         7.8635331910        8.4240580868       10.7856125130
  H         4.8639083807        2.0246515032       12.7441794421
  O         5.0224127464        2.7802032675       12.1204642816
  O         2.4673794398        4.6269788062        9.5722064178
  H         3.1752307390        5.1602620654        9.2244525479
  H         5.4706755416        3.5816134628        9.2337561584
  H         2.5261258073        5.0015298891       11.2506437010
  H         5.9684143997        3.0030044445       12.1055581312
  H         8.1611570777        7.5023687032       10.6833472202
  H         5.5948153232        6.9874555405       12.4287655785
  H         5.2816674343        8.5297105289       12.4232331385
  O         5.5229608766        7.7708490637       11.8075001038
  O         2.8474891707        5.2596856421       12.1474239155
  H         2.7542651264        3.6670104067        9.5750055525
  H         9.5726869967        3.3021650999        9.3223551852
  H         3.6858409621        4.7557580527       12.3627669939
  H        11.2380313986        6.6985625076       12.3529904579
  H         1.8143589492        8.4087533778       12.7228664874
  H         8.4863339635        2.0929191961        9.4193003138
  O         1.6124546007       -1.4794041322       11.7739191412
  O        10.5028940795        6.0163884262       12.5983902522
  O         8.6961926937        3.0017595028        9.0133068996
 Cl         5.0804325379        9.9633987568       13.9626967806
  H         4.5593177524        7.4790828395       10.5145559500
  O         8.9446546443        6.0306864426       10.5294430541
  H         8.3193120427        5.3079413844       10.8406153444
 Cl        -0.8571053881        2.5292399382       12.5861549314
  O         8.7376949972       -0.1153203623       13.2643281957
  H         2.3456074603       -2.1486704354       11.6356595930
  O         3.8958393401        7.6588072075        9.7392633363
  H         9.6294398853        6.0662530161       11.3798778172
  H         8.5285687023       -0.5450031769       12.4396201467
  H         8.8997474475        0.8387923110       13.0650902292
  H        10.0215674009        6.5679524900       13.3807999187
  H         6.9851865826        5.7991099620       19.4856433519
  O         6.1495820993        5.6498323801       13.6652890823
  H         5.8315843740        4.8556727520       14.1637319899
  H         9.4296375600        8.6024906689       14.2376599131
  H         4.1044071894        6.8949895464        9.1040339115
  H         7.5268555726        1.1257687567       15.4274603030
  H         3.5444568167        1.8915694651       14.6472839887
  H         6.5162033197        6.2142442226       14.3352268045
  H         0.2611167554        1.4065155875       14.7142092411
  H         6.6607896984        2.2711223578       16.1817726952
  O         7.0164844874        5.4222885267       20.3603506431
  H         7.7403966087        5.8363322766       20.8983506128
  O         3.2518929443        2.6540762243       15.2208507781
  O         9.5513563122        7.5887477945       14.6362073489
  O         7.2914242832        1.4985288969       16.3529550353
  H         2.4474551271        3.1038804578       14.7802690712
  H         0.6554927268        3.6858517448       13.3759408976
  O         0.4337284559        0.6252823417       15.3220780073
  O         2.3229264391        8.7410318143       14.2925493154
  O         1.3628629535        4.1963505545       14.0171094426
  H         1.6603189485        9.3838472210       14.7075383403
  H         4.7167343808        3.4230771482       15.8411091488
  O         5.7004564771        3.6184011708       15.9384079178
  H        10.3067463452        7.6626532287       15.2794990408
  H         0.4106866204        0.9974541612       16.2781385010
  H         7.9750229536        7.6725897580       15.3826781782
  H         6.4657392001        8.3074328307       15.3874771090
  H         3.2311474313        9.1243193429       14.1883919177
  H         5.7691915811        4.3879179186       16.6215268155
  H        13.1394297211        7.1017367494       15.2761811900
  O         6.9963821605        7.5538846124       15.5463666196
  H         1.9446198660        4.6458583951       13.3190106573
  H         9.0158230223        2.6675148807       19.0632033300
  H         1.4127086402        1.0347734971       17.8578587809
  O        12.7364443140        6.3866251437       15.8021854214
  O        11.5959486328        0.7002961966       17.9832946506
  O         3.0051883467        1.3315520156       17.6109721599
  H        12.6127594248        5.6440747609       15.1845077773
  O         9.3949691317        2.4926517211       18.1112599394
  H         3.9025817603        0.9579097871       17.8479090177
  H        10.9386735524        1.4548107842       18.0975191294
  H         3.0858345403        1.8045634298       16.6816162798
  H        11.0391370785        8.5552420630       18.0868496817
  H         2.6258794053        6.2542049822       17.2992959642
  H         5.3689646611        8.8110944688       17.7226430167
  O        10.5131370666        7.7628972567       18.2514828236
  H         8.5979537988        2.2785858708       17.5085546858
  O         3.1521936251        6.2850558859       18.1591797424
  O         5.3999352917        0.0690815145       17.9452366947
  H         6.1242618767        0.5251353127       17.4233983483
  H        11.2070373073        7.1320071162       18.5138373563
  O        11.6449267750        0.0393983202       20.9256919280
  H         2.8048025795        6.9720351840       18.8127299420
  H         2.9837371355        2.6713246724       18.6259633197
  H         6.1929297106        6.6883271540       17.1350759691
  O         8.1794617694        3.0311190964       20.6433027054
  H        11.7179981044        0.5054593540       20.0872846264
  H         3.2685829230        4.2338570661       18.9358907683
  O         3.0753242300        3.3603005120       19.4161025548
  H         7.8489167232        4.0118777026       20.4454950733
  H         6.4381325525        0.2705770629       19.5264675922
  H         5.1210594058        6.2492321122       18.2190888109
  H         8.7197691519        3.0726936560       21.4150450214
  H        10.8203918195        9.1432877027       20.8032366021
  O         6.0348748174        6.0984219612       17.8865512376
  O         2.4647608060        8.0070797590       20.2947189591
  O         7.2232502100        0.4416117255       20.0605280898
  H         3.5702905873       -0.3197144170       21.2995229255
  H        11.0539288973        3.8005293229       19.3579917470
  H         2.5776706338        7.3396254468       21.0149676724
  O         9.2342277952        8.3831114427       20.5209623123
  H         1.7206356540        8.5971513304       20.6160839877
  H         9.4806628803        8.0246195607       19.5963519697
  O         4.0135219928        0.5474787867       21.3601460100
  O        11.6237558193        3.7084588964       20.1418033347
  H         7.2528231738        1.3889339129       20.3004420476
  H         8.5039439094        9.0217253807       20.3297700342
  H         9.1651186507        7.0048977887       21.7909005394
  H         5.7280869350        4.2984496123       20.8838549304
  H        12.5612891987        3.5396801428       19.8924594997
  O         8.8484481302        6.2040349695       22.2472856122
  H         4.7419185010       10.0098209678       21.9257906012
  H         6.1188371515        6.5424509100       23.6802558938
  H         9.6985927361        5.8801544549       22.7543338417
  O         4.9466827930        3.9339275829       21.3862351044
  O         0.2356233551        9.2686401208       23.9052829055
  O         6.9728258892        7.0378198905       24.0372405510
  O         9.0039225147        2.7555659854       23.8252343653
  H        11.2764989015        2.9018785098       21.7472661263
  H         4.3579000698        3.5147010260       20.7708346544
  H         7.7381475356        6.7270770575       23.4354797815
  H         0.6588604852        8.4098785884       23.8496193612
  H         8.8095765426        3.2149103440       24.7026043770
  H         9.9716831631        2.8989101078       23.6008959390
  H         5.6127241786        3.1039946121       22.6514842666
  H         0.9925030294        0.2341550127       23.7278537024
  H         4.4968537897        5.3126013016       22.5872387608
  O         1.9505260394        7.1370002410       23.1505421997
  H         2.7802950483        6.8412082619       23.5763016234
  O         4.6277566020        5.9261482174       23.3556678123
  O         6.0542228955        2.4758641327       23.2400247907
  O        11.3450324245        2.9145789645       22.7750992549
  O         2.4915493644        1.6401870471       23.1970225752
  O        10.9751817121        5.4127311415       23.4559183311
  H         8.6139838051        1.1725149958       23.9619735485
  H         6.6418196115        9.2070532244       23.8862296373
  H         2.9516572918        1.6899224335       24.0341842732
  H        10.8975862183        5.3611888999       24.4229016044
  H        12.3174956702        6.5136433921       23.2693866770
  H        12.2677734503        2.4713342099       22.9380048957
  H         5.7631196884        0.9385415565       23.9282539045
  H         9.6505677309        9.6462796679       23.9321458774
  H         6.8926703460        2.9278094829       23.5767092277
  H         4.4697303203        5.1848105042       24.1240389298
  O         8.6645645000        9.8180323214       24.0809456035
  O         5.7669289591        9.5660757941       24.0628106735
  H         3.0008744676        1.2425586077       22.4730675698
  H        11.5170770859        4.5687004370       23.2994169976
 Pt         2.9206832413        9.2244183309       26.3871058649
 Pt         5.7223697908        9.2757864419       26.3262120907
 Pt         8.5029408617        9.2602443573       26.3017398977
 Pt         0.2073201150        9.3002180033       26.3464532409
 Pt         8.4514680654        4.4488199391       26.6719096796
 Pt         4.2684702593        6.7963261549       26.4813132867
 Pt         9.8466371842        6.7316724946       26.3219075166
 Pt         7.1223187883        6.7750555969       26.2176418037
 Pt         0.0041440654        4.4226124655       26.4189300398
 Pt         1.5428803531        6.8168485502       26.4404619419
 Pt         9.8051951383        2.0180601294       26.6908009616
 Pt         6.9876813653        2.0555119883       26.5802655206
 Pt         2.9261510530        4.4276835732       26.3747176500
 Pt         5.6796844007        4.3984098444       26.4098586070
 Pt         1.4505408590        2.0803873851       26.5830680716
 Pt         4.2126566387        2.0744431980       26.4039972916
  H         6.2522576307        0.4459686082        9.1904629147
  H         8.5569098278        3.5875355593       12.2418263833
