     244
Tv_1:  11.152900   0.000000   0.000000 Tv_2:   0.000000   9.658700   0.000000 Tv_3:   0.000000   0.000000  26.829700
 Pt         5.5023172220        8.0546529228        1.8181028235
 Pt         6.8537177179        0.7260256949        1.9036627751
 Pt        11.0950249572        7.8823871011        1.9331867141
 Pt         8.3370686301        7.8537588018        1.8345886904
 Pt         8.2574246275        3.1303427630        1.9880570204
 Pt         2.7284223378        8.0044792860        1.9128722625
 Pt         9.8644809824        5.4991082727        1.9851884362
 Pt         6.9778333529        5.5220146564        1.9385536639
 Pt         5.5105604329        3.1298295346        2.0409183849
 Pt         4.2101694498        5.4356465251        1.8996626918
 Pt         9.6146882747        0.6275011028        1.9403866983
 Pt         1.4279842762        5.4240272285        1.9247175617
 Pt         1.1239268304        0.5534045952        1.8905595119
 Pt         2.6078761461        3.0757652999        2.0185485809
 Pt         3.9845244854        0.7543019743        1.9422764404
 Pt        10.9758832453        2.9551048251        2.0970187498
 Pt         5.1585681241        6.5131146542        4.1022120804
 Pt         8.0704315654        6.5685399582        4.1913759730
 Pt         6.5668160617        9.0408044109        4.2546085197
 Pt         6.5941283273        4.1406784572        4.3313436698
 Pt         7.9214163152        1.6895459775        4.2873049183
 Pt         5.1124372864        1.7017331879        4.2785696797
 Pt         9.3373605914        4.0168839125        4.4428415205
 Pt         9.3929383321        8.9147714138        4.1548523580
 Pt         1.0427716823        8.9058287964        4.2490512660
 Pt        10.8320073147        6.4636087287        4.2346435197
 Pt         2.2816411966        1.5494029356        4.1558615149
 Pt         2.3111267388        6.4047419848        4.2501163740
 Pt         3.7621713038        8.8793151600        4.2280061294
 Pt         3.8147791357        4.1492445102        4.3122354176
 Pt        10.6631954240        1.5494522537        4.3714235509
 Pt         1.0823728804        4.0333462021        4.2777413775
 Pt         6.0676224678        2.8076866095        6.5719770697
 Pt         8.9597689059        7.4899784472        6.4905877619
 Pt         7.6732798208        5.1298648876        6.6709363266
 Pt         7.5898212259        0.3034853409        6.5689786187
 Pt         4.7420713108        0.2938146231        6.6153829460
 Pt         2.0107483207        5.0611833751        6.7811555514
 Pt         2.0529332223        0.3038083811        6.6476181170
 Pt         6.2187043444        7.4841724588        6.3957476430
 Pt         3.3028129126        2.6557699294        6.4875223833
 Pt         0.5782055995        2.6447999687        6.5918130895
 Pt        10.3672789376        5.0945421032        6.7036105623
 Pt         8.9609436484        2.7414094712        6.7719678361
 Pt         4.8097011392        5.1292675368        6.7043363139
 Pt        10.4290820377        0.2743695111        6.7280459544
 Pt         0.7426080587        7.4922024193        6.5761561384
 Pt         3.4495501289        7.4686839511        6.5523645371
  O         4.6843500727        5.0567271921        8.8222403818
  O         0.7740607996        7.4119262485        8.5961979846
  O        10.5799133286        5.3982922464        8.8024783939
  H         1.8807925424        1.8154589438       10.2470921609
  H         5.5786102100        4.6364173239       10.5659988891
  O        10.3085370821       -0.3183393581        8.8316701369
  H        10.9472530279        8.6004660552        8.8485104338
  H         3.3135217066        2.5237940872       10.6989693878
  O         7.3004939328        0.3538974067        9.0066084807
  H         7.3479619611        9.1861426627        9.7243854348
  H         9.7187527391        5.5732790383        9.2327669782
  H        10.7651287582        0.2871984872        9.5023390547
  H        -0.0752836349        6.2539116850        8.7870253838
  H         7.1216148921        4.4811597217       12.9791868660
  H        11.4320653678        1.3721007629       11.4663494679
  C         5.6709735874        4.2814349497        9.4829395040
  H         1.6479027244        7.2040318229        8.9985172271
  O         7.1575717048        3.8460232135       12.2245831086
  H         4.2745406310        8.9913182483        9.3159617704
  H         4.0394524959        0.8722845733        9.0966250259
  H         6.6484578826        4.5430289897        9.0157507559
  O         4.6984345645        0.2111037997        8.9312073348
  O         2.7085592282        2.3777369293        9.8893919412
  O         0.7741065266        0.7903244231       10.7617327547
  H         0.9636179712       -0.0171242513       11.3350051267
  H         6.0767195514        7.8549909943       11.3416490344
  O         7.0337949714        8.0707440495       10.8843044482
  H         4.4227872912        1.7032863900       12.5039633020
  O         4.4961391741        2.6461670964       12.1670101500
  O         2.1479064557        4.6900889006        8.9317425036
  H         3.1014298607        4.9056964870        8.9858088654
  H         5.4772858649        3.1355099262        9.4427834152
  H         1.5965911790        5.2017542917       10.6161430199
  H         5.4345102981        2.8787452667       12.0608875386
  H         7.6029728653        7.2517425227       10.7587601011
  H         5.1725745695        6.6988985801       12.7342261045
  H         4.1717960012        8.0319368422       12.4736161029
  O         4.7404894520        7.3152326091       11.9705352110
  O         1.8942285737        5.3554541398       11.5270476418
  H         2.2792552309        3.7529482606        9.3463086151
  H         9.3733860519        2.6126569456        9.5825888804
  H         2.7484587228        5.8212115660       11.3180913287
  H        10.4553893694        7.0268262145       12.9482897437
  H         0.9919332316        8.2985856325       13.1556924799
  H         8.1282541939        1.7016978562        9.3640113612
  O         0.7707106132       -1.4983332371       12.1978832440
  O         9.8216986766        6.2682330356       12.8717342231
  O         8.4615579125        2.6025055882        9.1939985654
 Cl         4.3780483909        9.4195282111       13.8532170909
  H         4.0405773081        7.1831429267       10.6672485472
  O         8.4761820797        5.7954123452       10.5999270149
  H         7.9665361502        4.9893235066       10.8674725611
 Cl        -0.9963067122        2.6902029936       12.3638587079
  O         8.3166268637       -0.1546836193       12.9694391143
  H         1.1566819602       -2.3606720861       11.9945918737
  O         3.5771262128        7.3776080642        9.8035321306
  H         9.0577649072        5.9347230805       11.3992759976
  H         7.8984073081       -0.6149803709       12.2276171302
  H         8.7567548620        0.7517859862       12.8061304505
  H         9.2136216669        6.4921395452       13.5934348709
  H         6.3353996674        5.4368511435       19.0083510250
  O         5.9171605262        5.8745019690       13.6255713320
  H         5.6101327956        5.1316297397       14.2560301276
  H         8.4209428064        8.6958930515       14.2785905633
  H         4.1700503490        6.9228665775        9.1520693746
  H         6.3430502561        1.2075299735       14.6274954867
  H         3.2053923190        1.9677649447       14.4705615703
  H         6.2573180255        6.5188148461       14.2794307787
  H        -0.3201254808        1.3653559996       14.1388862449
  H         6.2846892283        2.6018508389       15.3379418042
  O         6.7168434693        4.8899476147       19.7888351165
  H         7.2647733519        5.4438731316       20.4269895576
  O         3.0283705268        2.7940901106       15.0241289465
  O         8.3909337175        7.8154219825       14.9108558261
  O         6.5883519522        1.7092583670       15.4447255226
  H         2.2225621100        3.2784686110       14.6569208117
  H         0.2678458761        4.1591605114       13.9783373412
  O        -0.1214703055        1.0634553613       15.0751660323
  O         1.5807470969        8.6028691645       14.7600037940
  O         1.2224330901        4.4126346961       14.0698481368
  H         1.0285297370        9.4487897085       15.0373784434
  H         4.3958190647        3.6554753270       15.4545462297
  O         5.2848642216        4.1315348543       15.5678291195
  H         9.0394746526        7.9985527902       15.6653597766
  H        -0.8986739684        1.4744721382       15.4714858500
  H         6.9847871763        7.8381316565       15.6796883028
  H         5.4379603397        8.2010870356       15.3089918532
  H         2.5828119071        8.8812102200       14.6779396780
  H         5.1089611850        4.7387829211       16.3318998630
  H        12.4802064412        7.2477017626       15.7802506990
  O         6.0388038302        7.9278970962       16.0608370821
  H         1.5396061534        4.6780172335       13.1245263348
  H         8.8980087168        2.5158905471       17.6814967881
  H         0.7510260237        0.8693274224       17.6838507243
  O        12.2582609659        6.3421952037       16.2004091709
  O        10.9548647444        0.5298438926       18.0123628709
  O         2.3333718664        1.5989294242       17.2935126199
  H        12.3097673578        5.6710475470       15.4196682401
  O         8.9864106123        2.2819384341       16.7212019996
  H         3.0981939227        0.9435619600       17.2596804391
  H        10.2751617989        1.0941435487       17.6801111108
  H         2.4044306972        1.9544034952       16.3453407827
  H        10.4131097238        8.6277221919       17.4904033870
  H         2.0799085812        6.3252181270       17.7558087586
  H         5.4862001470        9.3712879763       17.2885737956
  O         9.8244430472        7.8403991514       17.1901249727
  H         8.0900252419        1.8726849830       16.4019563919
  O         2.6452362736        6.2625727139       18.5636129586
  O         5.0330799197        0.5349923127       17.5423560419
  H         5.2424279015        1.0602267435       16.7473889331
  H        10.3817273478        7.0071501090       17.2314623262
  O        10.5618217561       -0.0495608083       20.5895919203
  H         2.2567355615        6.8999342812       19.1851849358
  H         2.7701211369        2.9052206469       18.5634549318
  H         5.4720280119        6.7886544101       17.1173706559
  O         8.6699258191        3.0383538225       19.4438606237
  H        10.7325581551        0.2533376347       19.6562796646
  H         2.8645426856        4.4205641046       19.0905335816
  O         2.7440933929        3.4652474041       19.3650366683
  H         7.9680977364        3.6776610565       19.5805710722
  H         5.6348754826        0.6082706042       19.4339073749
  H         4.3142886059        6.2558969803       17.8679708087
  H         9.5338668248        3.5611725970       19.4822896948
  H         9.6374789256        9.2946786835       20.7298436931
  O         5.2758475298        5.9917820194       17.6726617776
  O         1.8501155398        8.1582201595       20.6364432170
  O         6.2563379162        0.4111247758       20.1747623965
  H         2.7825377910       -0.1132660816       20.8854330459
  H        11.1177048270        2.2195709223       19.8945810309
  H         1.8211833808        7.6346622867       21.4672152991
  O         8.1615154072        7.9490521176       19.6191752617
  H         0.9315820267        8.5171366136       20.4990868001
  H         8.5557416067        8.0121975768       18.7348928967
  O         3.1414209444        0.7485680145       21.3083147286
  O        11.3241380641        3.1856364997       20.0304272457
  H         6.4646043238        1.2410732507       20.6613780080
  H         7.4418873505        8.5900993252       19.6792399709
  H         8.5213366637        7.0051257109       21.1167197672
  H         5.4485928013        4.0515867619       20.7169779581
  H        12.2798595070        3.2054373592       19.8042008441
  O         8.1704299554        6.4129936942       21.8438385776
  H         4.0336854620       10.2520708353       21.6113593553
  H         5.0998428901        6.6933833840       23.0689827201
  H         8.8948734809        6.1385091996       22.4334585239
  O         4.7065126636        3.6098995945       21.3103204966
  O         0.3497186833        9.4333532318       24.1349509374
  O         5.8948568988        7.3263032515       23.2865519050
  O         8.4784044912        2.6209393167       23.5087614027
  H        10.8404092960        2.9523255392       21.7631814209
  H         3.9144416129        3.2839969652       20.7287496339
  H         6.6653089688        7.1701280362       22.6845930156
  H         0.7611534732        8.5870506947       23.8973292733
  H         8.2850222290        3.2259295000       24.2816077026
  H         9.4990251223        2.7834897853       23.2922631410
  H         5.5870092466        2.6207125775       22.1277042274
  H         0.9877814768        0.5459664127       23.7479673778
  H         3.9560366766        4.8257005829       22.3742905147
  O         1.5424956751        7.2009194501       22.9816227573
  H         2.3937153673        6.6435501536       23.1854128025
  O         3.8661792606        5.5148254106       23.1307174275
  O         6.1142052784        1.9762305797       22.7346148053
  O        10.8637913694        3.0432054524       22.7712451036
  O         1.8389860736        1.6483610263       23.1730949932
  O        10.3019197438        5.9040183764       23.4577249097
  H         8.6356047052        1.1874311693       23.9378943454
  H         5.6280285046        8.5390184968       23.7333307711
  H         2.3823049139        2.0011993892       23.8636792783
  H        10.0536565812        6.0087463489       24.4295217827
  H        12.0082849293        6.5089995250       23.1996918222
  H        11.6855246101        2.5926239772       23.1195427414
  H         5.7553157176        0.5775535362       23.7383435138
  H         9.8175902531        9.8348974584       23.9173847988
  H         6.9966085086        2.3701744001       22.8533863242
  H         3.8998938614        4.9922405263       23.9800727452
  O         8.8521857621        9.8872223206       24.1295872033
  O         5.5278252863        9.4383838916       24.2325776522
  H         2.3934321252        1.3122405334       22.3844015192
  H        10.3057318957        4.9592285850       23.2259535656
 Pt         2.9821105124        9.4905122629       26.2832176230
 Pt         5.7602348613        9.2542131418       26.3090823660
 Pt         8.6145936822        9.3311976864       26.3095597458
 Pt         0.2006504978        9.4054102171       26.3863573862
 Pt         8.5709631425        4.5534788243       26.4610504461
 Pt         4.2910795559        6.9104014635       26.4890355563
 Pt         9.9204428063        6.8701638468       26.5034172265
 Pt         7.1063988234        6.8645755123       26.3489378483
 Pt         0.3054708840        4.5975844894       26.5250187525
 Pt         1.4528602481        7.0509818983       26.4691052359
 Pt         9.9819976980        2.2060061351       26.5909348549
 Pt         7.2346585650        2.1142949900       26.4699059305
 Pt         3.0422125585        4.5658197786       26.4423563355
 Pt         5.7848947512        4.4369310793       26.5341855727
 Pt         1.5932424373        2.2312413817       26.4786667713
 Pt         4.5312656749        2.1349808425       26.4723999709
  H         6.3115924608        0.4750602491        9.0587908822
  H         7.9033221092        3.2714208418       12.4896205254
