     244
Tv_1:  11.152900   0.000000   0.000000 Tv_2:   0.000000   9.658700   0.000000 Tv_3:   0.000000   0.000000  26.829700
 Pt         5.5985942969        8.0109174842        1.7994691988
 Pt         6.9667660938        0.7731737842        2.0711870201
 Pt        11.2720667173        7.8329906734        1.9164805361
 Pt         8.4296015492        7.9457761233        1.8650070081
 Pt         8.4159964178        3.1016391396        2.0211533679
 Pt         2.8314570840        7.8456619640        1.8385793282
 Pt         9.8094269891        5.3781155435        1.9097172456
 Pt         7.0867441181        5.5019967517        1.9109037285
 Pt         5.5184246322        3.0645305299        1.9910205654
 Pt         4.2841894335        5.4523614503        1.7221743895
 Pt         9.6854863654        0.7328089979        1.9834147483
 Pt         1.5002482240        5.3723195685        1.9513176002
 Pt         1.3143185765        0.5607468270        1.9447363593
 Pt         2.7697456721        2.9928190893        1.9666621899
 Pt         4.2235556447        0.6634765716        1.9474759747
 Pt        11.2715791630        2.8964686380        2.0171940709
 Pt         5.1469904617        6.5882979130        4.1404000315
 Pt         7.9746298300        6.5139252115        4.0969418628
 Pt         6.5787300439        8.8507063286        4.1234472315
 Pt         6.7188620159        4.1436751973        4.2200520767
 Pt         8.1994362051        1.7939554801        4.3374944444
 Pt         5.3527124376        1.7109669405        4.3007730197
 Pt         9.4937992515        4.1338206848        4.2706289065
 Pt         9.3476037939        8.8980454829        4.1928517828
 Pt         0.9525377959        8.8804309874        4.2893871584
 Pt        10.8334870362        6.4715153886        4.2522874445
 Pt         2.5063683098        1.5917401364        4.1374594144
 Pt         2.4506333348        6.4243075440        4.2306943431
 Pt         3.7811131113        8.8819672095        4.1072396597
 Pt         3.9903411969        4.1795013509        4.1592436423
 Pt        10.8551952609        1.5553412632        4.2654600259
 Pt         1.0604840622        4.0266500455        4.3311474896
 Pt         6.1131399285        2.7978992460        6.6225890283
 Pt         9.0957519257        7.4560838399        6.4846217032
 Pt         7.6698838627        5.1716659538        6.5471798459
 Pt         7.7689500243        0.3961753359        6.5465038315
 Pt         4.8727695437        0.4372582619        6.8102967623
 Pt         2.0899601750        5.1437400474        6.6546168878
 Pt         2.0532824799        0.3240303508        6.5779009804
 Pt         6.3808137232        7.6382722994        6.5735488306
 Pt         3.3681528818        2.6808817223        6.4017614287
 Pt         0.5280275130        2.7244494812        6.6408498084
 Pt        10.5641206267        5.2461750779        6.6514745156
 Pt         8.9164329215        2.8517741014        6.6690664715
 Pt         4.7930117855        5.2445460670        6.6049654859
 Pt        10.5187536007        0.3413127974        6.7318196376
 Pt         0.8286779854        7.5624887356        6.6199244882
 Pt         3.6782279770        7.7228946784        6.3920839875
  O         5.0395203177        5.7166388485        8.7080787754
  O         0.8948232039        7.4233127355        8.6944291949
  O        10.7490940186        5.1377880943        8.9069935494
  H         2.1419491172        1.9160254404       10.0049038574
  H         6.1173642701        5.3015272901       10.3700070624
  O        10.4597923666       -0.1356664556        8.8935887889
  H        10.8854879879        8.6472579159        8.8125309189
  H         3.6023063698        2.4767203910       10.6364391502
  O         7.6681084985        0.6758274686        9.0215918686
  H         7.4762631743        9.5549085154        9.6026999233
  H         9.9221106559        5.5091659379        9.4100157093
  H        11.1107804576        0.4165062738        9.4118088680
  H         0.3328218346        5.8469228082        9.0118781547
  H         7.0899475982        4.4780749339       13.0375537826
  H        11.5946544203        1.2093918790       11.1756014446
  C         6.0994491626        4.9734641297        9.3084596049
  H         1.8413463325        7.4678944479        8.9246425303
  O         7.3897234231        3.9565550141       12.2471498191
  H         4.5967517215        9.2303541135        9.2396331844
  H         4.0932547137        1.1010653691        9.4505683137
  H         7.1036464463        5.2303838634        8.7651548434
  O         4.8679656589        0.5433102557        9.0337318624
  O         3.0722283778        2.3388233219        9.8224252612
  O         1.1093522242        0.7376862281       10.5485953339
  H         1.3778442098       -0.0680337636       11.0486519866
  H         6.4680608116        8.2017735572       11.0480301009
  O         7.3013890749        8.3366171846       10.5421720611
  H         4.2561158759        2.7906889650       12.7835769837
  O         4.6814103692        3.2009871271       11.9803299566
  O         2.5501612519        4.8657028241        8.8523969628
  H         3.5543092947        5.1679361364        8.8839088953
  H         5.9272003636        3.8762055476        9.1216262514
  H         2.0872389144        5.1664877501       11.1678173227
  H         5.6495350287        3.1700003586       12.1499120575
  H         7.8152800015        7.4865916532       10.5883752859
  H         5.1953349535        7.0302452484       12.5690021250
  H         4.6580955906        8.5023693746       12.5607424165
  O         4.8523566501        7.6887363688       11.9328233899
  O         2.5421708711        5.2086388331       12.0391175111
  H         2.6136512271        3.8404004802        8.9532713986
  H         9.6336537771        3.1618715956        9.3605124805
  H         3.3033349645        4.6287741908       11.9586540838
  H        10.9442284728        7.1167218764       12.4090553516
  H         1.5068725302        8.4451074432       13.0524575880
  H         8.6938165087        1.8280761187        9.1838241643
  O         1.3689844389       -1.6358401327       12.1794576078
  O        10.2110191344        6.4933482178       12.8016891942
  O         8.9302358657        2.7368304472        8.8958540640
 Cl         4.2329838986       10.1813979719       13.7056915267
  H         3.9617106749        7.8702469314       10.3750189126
  O         8.6312239256        5.9305245637       10.6167994752
  H         8.1316410414        5.1378349044       10.9780261336
 Cl        -1.2187266623        2.6020293335       11.9422469608
  O         8.7550156683       -0.9031966765       13.3961913703
  H         2.0638217424       -2.3488389781       12.1701398690
  O         3.9080634754        7.9969593849        9.4255396503
  H         9.3140289032        6.0940569817       11.3380164694
  H         8.4472472711       -0.3175122429       12.6775796758
  H         9.3471103036       -0.3368796217       13.9518958985
  H         9.5972974470        7.1756424910       13.1303234709
  H         5.6630135175        4.7587414176       19.2288839998
  O         5.8042399567        6.3063215345       13.8956824973
  H         5.3512602434        5.5629795234       14.3832548968
  H         7.5404877078        8.9546000678       14.8833436448
  H         4.5907728985        7.2952551145        9.1662043926
  H         5.8974415961        1.3109611853       15.2410053430
  H         2.7980900952        2.0593481834       14.7903945246
  H         6.2918399177        6.9346435934       14.4372087115
  H        -1.1407516096        1.4667451074       13.6372754173
  H         5.6690602728        2.8520335170       15.6014595742
  O         5.9947891401        4.3539459106       20.0936901543
  H         6.2881025790        5.0275056550       20.7085291272
  O         2.4393658209        2.7828861687       15.3415789597
  O         7.1229781431        8.4210244885       15.6432167218
  O         6.2205624903        2.0468766273       15.7648551335
  H         1.7522760893        3.3056686819       14.7981482347
  H         0.0791215521        4.0792908023       13.4900044620
  O        -0.9606685328        1.0898502060       14.5182912153
  O         1.5727277141        8.9430218860       14.8019405850
  O         0.8553161253        4.3189973371       13.9687008860
  H         0.8695950158        9.5245773025       14.8779188997
  H         3.8291792937        3.9967999636       15.1901620997
  O         4.7459373590        4.2761131924       15.2265280403
  H         7.8318511905        8.2024692804       16.3528089371
  H        -1.4799779009        1.5646405346       15.2123234021
  H         5.4288056031        8.2799322409       16.2957770989
  H         3.8287186428        8.2952153749       16.3016749618
  H         2.4032749063        9.3841355453       14.5881482919
  H         4.8076811418        4.5981626078       16.1745719634
  H        12.2199592257        6.9805567039       15.7019434094
  O         4.6283958244        8.0474340051       16.8934624942
  H         1.4543340779        4.7724440206       13.3191648623
  H         8.3262397450        1.9009640885       17.9413259664
  H         0.4095117517        0.2361177070       17.3935545888
  O        11.8037563632        6.1505503763       16.1240568026
  O        10.6710404509       -0.1835479015       17.5147308842
  O         1.7764458763        1.5121071201       17.7258130785
  H        11.7212301410        5.5797063789       15.3076512906
  O         8.6392514340        1.8474417291       17.0194994389
  H         2.6790207152        1.1693494291       17.9162592375
  H        10.0443130482        0.5702469817       17.2787705852
  H         1.9881949946        2.1265357630       16.8991000388
  H         9.4671512742        7.2023792884       17.6732325036
  H         1.4283620644        5.9082585357       17.6293047171
  H         4.7031899631        9.6472423868       17.4468219089
  O         8.6429131160        7.0734610251       17.2249671266
  H         7.7057301253        1.8034890331       16.5988535850
  O         1.8975387641        5.6235045509       18.4450930462
  O         4.5652127222        0.8728461709       17.9047420567
  H         4.9605574222        1.5533597159       17.3502382557
  H         9.0263241672        6.4411013849       16.5268716823
  O        10.1761484202       -0.2191617354       20.2760998182
  H         1.9400001541        6.3949593644       18.9664723303
  H         1.2909900513        2.5309377534       19.0069571543
  H         4.4181991846        6.1516974369       17.3320553868
  O         7.9378037106        2.5396954020       19.5461593421
  H        10.4616561087       -0.4022526619       19.3372928850
  H         1.3222861983        4.1156364089       19.2756307406
  O         1.2995647983        3.2611970595       19.7866100928
  H         7.4090005079        3.3535915303       19.8484486124
  H         5.3655953207        0.8640627880       19.3136054111
  H         3.5269078844        5.0026049973       18.0548966289
  H         8.8613371799        2.6749827476       19.9265735571
  H         9.2102624897        9.1271143569       20.1498287643
  O         4.4650577450        5.2067081810       17.7703176632
  O         2.0503238525        7.9646583668       20.1511071028
  O         5.8360028187        0.5848753440       20.1493332089
  H         3.1629325161       -0.5064245856       21.3972285654
  H        10.1879719030        1.5497164653       20.8354891452
  H         1.7579697499        7.5891336085       21.0392184728
  O         7.6085675447        8.2569984421       19.5064070640
  H         1.4412277730        8.7624321093       20.0529899756
  H         7.6097497882        8.2455042280       18.4999815762
  O         3.5269697779        0.2421141326       21.8984012641
  O        10.1915586302        2.5509913032       20.9163774535
  H         6.4388357928        1.2581811202       20.4438377847
  H         6.8972954293        8.9266642660       19.7995479876
  H         7.6437713713        7.0641537823       20.9758314895
  H         4.2190619014        3.7755751138       20.9836673994
  H        11.0521476348        2.9543797935       20.7357676797
  O         7.1896275594        6.3558665088       21.4885840869
  H         4.3239133215       10.0626919393       21.3177277162
  H         4.3888888139        6.8546967710       23.0998275147
  H         7.8745595640        6.1141083013       22.1734746642
  O         3.4376119547        3.4909116152       21.5101154293
  O         0.1216936906        9.2200947562       23.9201251738
  O         5.0876974309        7.5467608961       23.0982598750
  O         6.5813612041        3.6065372805       23.2491092674
  H         9.5303931584        2.8504842848       22.4686162144
  H         2.6802686689        3.3936803361       20.8736950424
  H         5.7144979095        7.2049204851       22.4346833905
  H         0.4257397300        8.3981687787       23.3551065270
  H         6.5457437619        4.4693422559       23.6395807434
  H         7.4691539124        3.2005513582       23.4846437345
  H         3.6808380942        2.8481320335       23.5868497701
  H         0.7959955087        0.3436765098       23.5025057010
  H         3.1696026178        4.8089306525       22.6290462745
  O         1.0621474166        7.0338374999       22.5244526424
  H         1.7663250384        6.5378776584       22.9598081766
  O         3.1476050982        5.5321478088       23.3055466800
  O         4.4246151040        2.4012553423       24.0663089577
  O         9.1202457252        3.0332400556       23.3655414069
  O         1.5937177779        1.4986246335       23.2607651195
  O         9.6667842486        5.8244198451       23.0928491269
  H         8.6348218076        0.7326822104       23.7347948810
  H         5.4699995469        8.8233856746       23.7670485231
  H         1.7799143636        1.7679873412       24.1776385722
  H         9.4534096629        6.3058521500       23.9263680952
  H        11.4349002747        6.4612611291       22.5440124661
  H         9.8764913691        2.7728228830       23.9411152488
  H         5.0988663011        0.6232725779       24.0793894862
  H         9.7794439293        9.3414220058       23.6953211801
  H         5.2927170198        2.9922878694       23.9745988297
  H         2.9419603815        5.1938812330       24.2183100323
  O         8.7754505403        9.4410173479       23.9626661565
  O         5.8729596124        9.6937782579       24.1303595730
  H         2.4799664967        1.1236958650       22.8870325852
  H         9.5107949474        4.8871321793       23.4664850655
 Pt         3.0247025665        9.1716942928       26.3649713287
 Pt         5.8657473590        9.1944816339       26.2360654621
 Pt         8.7876981577        9.3163490981       26.3416406804
 Pt         0.2873350748        9.2170821848       26.2722276678
 Pt         8.6421910500        4.3590295183       26.3580323665
 Pt         4.4021104974        6.7127076796       26.3517859392
 Pt         9.8664421065        6.7787681586       26.4041537096
 Pt         7.2166434329        6.8600039753       26.3669705691
 Pt         0.1994914894        4.3793501015       26.4804277134
 Pt         1.6826222297        6.8253470402       26.3760737150
 Pt         9.9466836145        2.0620648163       26.5172347835
 Pt         7.1882626962        2.0300108933       26.5692354973
 Pt         2.8724754028        4.4608801372       26.4412348129
 Pt         5.7932846031        4.3865666015       26.3722262687
 Pt         1.7278867110        2.0712264068       26.4457420675
 Pt         4.3760315005        2.0393547891       26.5083423026
  H         6.7241207932        0.9847549391        9.0152588746
  H         8.2789492419        3.5671900621       12.3924955943
