     244
Tv_1:  11.152900   0.000000   0.000000 Tv_2:   0.000000   9.658700   0.000000 Tv_3:   0.000000   0.000000  26.829700
 Pt         5.7054022233        7.9832556179        1.7294562813
 Pt         7.0681576271        0.6315690587        1.9216151908
 Pt        11.1658068201        7.6631290400        1.8752671862
 Pt         8.3637475668        7.8097594259        1.7832237380
 Pt         8.3010792727        3.0303599081        2.0564367046
 Pt         2.8516725785        7.9058000029        1.8013728277
 Pt         9.7430266115        5.3228079704        2.0548777858
 Pt         7.0515770573        5.4734282132        1.8472118519
 Pt         5.5183247270        3.0767705053        1.9085644883
 Pt         4.2553387990        5.4965986896        1.9232500406
 Pt         9.9474034405        0.4413129327        1.8802469868
 Pt         1.5075120042        5.4357313109        2.0158176480
 Pt         1.5185176368        0.5138202665        1.9101868615
 Pt         2.8309160415        2.9149507976        2.0333264746
 Pt         4.3231012498        0.6289605182        1.6868753198
 Pt        11.1207733058        2.9308410505        1.8637706397
 Pt         5.2934342366        6.6679142678        4.1820715442
 Pt         8.1104882708        6.5266170724        4.1443369802
 Pt         6.7397731896        8.9743314012        4.2531716934
 Pt         6.6246107416        4.1881223409        4.2317013454
 Pt         8.0156306970        1.6797053095        4.3344175788
 Pt         5.0785730190        1.6803968559        4.2070462132
 Pt         9.3468028501        3.9986113978        4.3756938374
 Pt         9.4473241256        8.8045589780        4.0372631347
 Pt         1.0832848380        8.8021523773        4.1125705176
 Pt        10.9482454024        6.3840802524        4.3278538051
 Pt         2.3365239579        1.6252685625        4.3246553887
 Pt         2.5908633107        6.5669284778        4.1785369416
 Pt         3.9309471029        8.9579689422        4.0078993227
 Pt         3.8227757989        4.1386890726        4.2451979942
 Pt        10.7478468600        1.6009644453        4.2646896271
 Pt         1.0767716774        4.0001086168        4.2293619455
 Pt         6.2390376067        2.8606109483        6.4164935303
 Pt         9.0673769004        7.6187488086        6.4139688639
 Pt         7.7096690744        5.1975785464        6.6555851547
 Pt         7.6205970404        0.4453021460        6.6925726431
 Pt         4.8060744735        0.4062868471        6.5239302145
 Pt         2.0745174556        5.1129725292        6.5723968673
 Pt         2.1095666298        0.3356924640        6.6218354401
 Pt         6.2766227762        7.6831095226        6.5128123508
 Pt         3.3746694039        2.7574630320        6.5709628486
 Pt         0.7327392732        2.7222810104        6.6025620093
 Pt        10.3606490299        5.1402871075        6.6388257941
 Pt         8.9490634509        2.7791599281        6.8261126936
 Pt         4.8287012556        5.2650051693        6.6429826731
 Pt        10.4041520339        0.2873057937        6.5049844385
 Pt         0.7455136566        7.5124758938        6.6396936984
 Pt         3.4413677854        7.6598226038        6.4205461956
  O         4.8520444724        5.3157293596        8.8300087956
  O         0.9203558603        7.5489291919        8.6986213852
  O        10.6222664197        5.1566095987        8.8098523127
  H         2.9704123510        1.8263739865        9.8974004309
  H         6.0619402978        5.0956319225       10.5088075065
  O        10.7219181194        0.1002054637        8.7758255229
  H        11.1540482763        8.8709326466        8.9086239680
  H         4.5086892903        2.0706651599       10.7483210608
  O         7.4882060811        0.3437503112        8.8429910048
  H         7.9485795705        9.2075744559        9.3147283641
  H         9.8110883884        5.2904220847        9.3856858439
  H        11.5111665229        0.6580118917        9.1199690886
  H         0.0464478888        6.0039525359        8.8876850254
  H         7.4283106902        4.7464550522       13.0973587447
  H        12.1653549361        1.9015002930       10.7091065783
  C         6.0559400377        4.7581435397        9.4686836818
  H         1.8400919442        7.3206415769        8.8947134033
  O         7.6156204058        4.1422029311       12.2984092308
  H         4.5413827413        8.4349456913        9.2546170673
  H         4.6453260057        0.9285115942        9.1474448363
  H         6.9184140645        5.2037173371        8.9379829227
  O         5.0634185430        0.1530425318        8.6068681705
  O         3.9918197284        1.9689333190        9.8769602795
  O         1.5359559513        1.2418278713       10.2404165734
  H         1.9563456041        0.4862990526       10.7775489104
  H         7.4421258484        8.2902539814       11.0169767831
  O         8.2206522755        8.2766107605       10.3944463992
  H         5.4373057281        1.8603272431       12.5726150670
  O         5.3156968587        2.7391929568       12.0546802198
  O         2.2045062457        5.0802554114        9.8802831389
  H         3.0264668787        4.7480384927        9.5129410265
  H         6.0905417464        3.6395120457        9.3401404723
  H         3.3619666465        5.2106674348       11.6600616243
  H         6.1616605404        3.2464239772       12.0326386472
  H         8.4675286522        7.3037263303       10.4462494408
  H         6.1709305994        6.8334651695       12.4456823834
  H         5.6256710107        8.2969667441       12.2156166175
  O         5.9405426483        7.5486294108       11.7365292652
  O         3.7736612209        5.0651636619       12.5354878101
  H         1.5728176753        4.3409257383        9.8084702855
  H         9.3132569793        2.4611274948        9.8523086761
  H         4.2054766014        4.1552245889       12.5136617378
  H        11.9179658048        7.2647979665       11.8607294957
  H         2.8261549254        8.8279776150       12.2064731671
  H         8.1558763724        1.7691300917        8.9369862567
  O         2.4789051540       -0.8599941262       11.3202711647
  O        11.0804669093        6.7969506098       12.3642345055
  O         8.6465720930        2.6327620238        9.1672808866
 Cl         5.2748010632        9.8265174301       13.6172452359
  H         4.8660016099        7.4303803208       10.5876110535
  O         8.9799225138        5.9011813701       10.7339274979
  H         8.2784167619        5.3141590121       11.1554268807
 Cl        -0.7044601501        2.5787374383       11.7782575068
  O         9.2306832845       -0.4796600063       12.8067214753
  H         3.1164636291       -1.4217909711       10.7388992957
  O         4.2479075894        7.5781170515        9.7757639395
  H         9.7768381446        5.9306369193       11.2721708490
  H         8.7892886799       -0.8454742599       12.0025762365
  H         9.6038263282        0.4248203521       12.5467937223
  H        10.6116147115        7.5728023995       12.7204524826
  H         5.9361887234        5.3623818780       19.4370235413
  O         6.6242669977        6.0172399621       13.7759758212
  H         5.8720742866        5.6370794490       14.3071032099
  H         8.5555011939        8.5972231432       14.3265961504
  H         4.6309341803        6.3232757315        9.1792654154
  H         6.3436849698        1.4540961782       14.9267424535
  H         3.7805964124        2.0694796927       14.3279090580
  H         7.2141125162        6.5382002136       14.4018705293
  H         0.3056327392        2.2941721291       13.9202646638
  H         6.3250344512        2.8452352656       15.5335647780
  O         6.5911055772        4.8922213202       19.9925627862
  H         6.8386497803        5.6217792854       20.6856621382
  O         3.4110266783        2.8627785155       14.7379886949
  O         8.0838797013        7.9904135617       14.9896253610
  O         6.7225455982        1.9421976811       15.6781977105
  H         2.4498960191        2.7808890478       14.4524288389
  H         0.8313814067        5.4629534745       13.2990939361
  O         0.8186178752        1.9267363031       14.6799718020
  O         1.9564522534        8.8631674366       14.8626735432
  O         1.4688797281        5.0673180846       13.9163624013
  H         1.4237816353        9.7249513206       14.8877096475
  H         4.2971390370        4.0545596497       15.6319848645
  O         5.2304311128        4.3006826830       15.8054327292
  H         8.7312341012        7.7954284563       15.6864555941
  H         0.4374061878        2.4614895091       15.4035063073
  H         6.5875603405        8.1740316912       15.9050462996
  H         5.0101585430        8.2947461312       16.0940991106
  H         2.8116133782        9.1704179675       14.5643256357
  H         5.1965408793        4.6524008288       16.7349683176
  H        12.4686586967        7.5460733999       15.8736972635
  O         5.8576531741        8.1188755657       16.5449241620
  H         2.3372276383        5.1726209007       13.5456157917
  H         9.2248115139        2.3205355870       17.5662655692
  H         1.3088825768        0.7895625005       17.3632672535
  O        12.2321185239        6.6684216504       16.2829425043
  O        11.5657181395        0.4858785701       17.5058245300
  O         2.6009702210        2.1454970378       17.3697373175
  H        12.3219883186        6.0189788205       15.5985060866
  O         9.5771464547        1.9758472310       16.7091221097
  H         3.4032517108        1.6478982137       17.6524306243
  H        10.9659421493        1.1724374464       17.0021811868
  H         2.9053437356        2.5982668297       16.4857423733
  H        10.4316290214        8.6408477890       17.0935310388
  H         1.7890730546        6.6369871279       17.7241768650
  H         5.5766140359        9.4903449150       17.2847782628
  O         9.8473599856        7.7721820833       17.1879097703
  H         8.7759310877        1.9094863069       16.1450184578
  O         2.3946333354        6.7359644817       18.5251733330
  O         5.2878199018        0.7132944791       17.8033429721
  H         5.7877686928        1.3889720305       17.3226690005
  H        10.5276362926        7.1189816856       16.9905644780
  O        10.9086111531        0.3494622343       20.0508792609
  H         1.9732818633        7.3525134926       19.1762846161
  H         2.3300925111        3.4566625184       19.1092445541
  H         5.4753052500        6.4519148956       17.6336882819
  O         8.5941515018        3.3287367033       18.9362843221
  H        10.9401119355        0.4752547325       19.0000652724
  H         2.3139080591        5.0381935174       19.4063316508
  O         2.0881383829        4.1156477723       19.7710602772
  H         7.9005449104        3.9360971339       19.3032157032
  H         6.0744298040        0.4952367117       19.2515535003
  H         4.0233333748        6.3021292823       18.1038537483
  H         9.2830843578        3.2623489132       19.6222215093
  H        10.0102860719        9.6726028603       20.2552240911
  O         4.8726771897        5.7884910621       18.0801872832
  O         1.6838138560        8.1911970516       20.6944429788
  O         6.5743989053        0.4495889526       20.1446104556
  H         2.9856606023       -0.3553262323       21.0218623577
  H        10.7973496131        1.7959682636       20.7313465377
  H         1.4996989480        7.7874579600       21.5841314991
  O         8.3796051658        8.1849177440       19.7515721351
  H         1.0379358851        8.9245123264       20.4492801775
  H         8.7613077347        7.9330342633       18.8588787524
  O         3.3821153897        0.4990122419       21.2365034392
  O        10.7614124896        2.7814173382       20.8340466918
  H         6.9462807423        1.3581779961       20.3595715321
  H         7.7792482899        9.0130559967       19.7542772627
  H         8.1617048828        7.5053182591       21.2250693494
  H         4.8880355821        4.0404861671       20.6788219929
  H        11.5347598422        3.1761631203       20.3862109099
  O         7.7013625466        6.9257937121       21.9261045957
  H         4.3357577287       10.1429599193       21.1001461398
  H         4.6414208240        7.0536877319       22.8222515323
  H         8.3157327409        6.5870981348       22.5934069165
  O         4.2213232443        3.8284251482       21.3950937293
  O         0.5456003206        9.3968089356       23.9646900711
  O         5.0939263697        7.8541516509       22.4422493336
  O         7.6438893134        3.8029256687       23.4483508397
  H        10.4745616646        3.1690481061       22.3091488789
  H         3.3472208950        3.7701935780       20.9215532108
  H         6.0082763437        7.4247659894       22.2087490719
  H         1.1156714165        8.6094432128       23.9025438439
  H         7.7080603155        4.1567403142       24.3731789976
  H         8.5670850353        3.4563466942       23.3087437313
  H         4.9940243527        2.7248322077       22.7837094163
  H         1.1834190708        0.5496817141       23.7219705327
  H         3.9592831522        4.8793178218       22.5423344697
  O         1.4153734288        6.9681490738       23.1703573138
  H         2.2064530524        6.3757811145       23.0322659853
  O         3.9172336932        5.6304022528       23.1999614067
  O         5.3288776129        2.4578204293       23.6632833226
  O        10.3878553400        3.2163414489       23.3594776471
  O         2.2648152250        1.8104193309       23.2576013309
  O         9.9572814485        6.2004777234       23.4559549407
  H         7.6815309752       -0.0079953888       23.8601437446
  H         5.4867632385        8.8196608580       23.5055926125
  H         2.7441300261        1.9968525492       24.0705736310
  H         9.6168428592        6.6368236610       24.2976974389
  H        11.7086297033        6.4384096038       23.2308743570
  H        11.0670820843        2.6283932640       23.7281798717
  H         5.4652177248        0.9405063412       23.7812725976
  H         9.0953859136       10.3136216783       23.9323535022
  H         6.2512575667        2.9256244422       23.6875653668
  H         3.9670173943        5.1776253626       24.0653187697
  O         8.6680339662        9.4195533905       23.8974605428
  O         5.8881253665        9.6824192250       24.0455645157
  H         2.9054875434        1.1776032486       22.7578632684
  H        10.0969176047        5.2440628822       23.6869890202
 Pt         3.0733898204        9.2050410614       26.2325880513
 Pt         5.7756970215        9.1786773653       26.1321606648
 Pt         8.5539483841        9.0017173877       26.2605821020
 Pt         0.2338306465        9.1647786882       26.3115838722
 Pt         8.6528955840        4.3169572525       26.3661444612
 Pt         4.3585068595        6.6941618327       26.3625019190
 Pt         9.9606184964        6.6894274662       26.4948664669
 Pt         7.2647006509        6.6302485983       26.2994239597
 Pt         0.2391105201        4.3087772412       26.3505565056
 Pt         1.6628574297        6.7910398741       26.2508812798
 Pt         9.8111473189        1.8185870244       26.4659072142
 Pt         7.1599903144        1.9004972829       26.4620113308
 Pt         2.9945748898        4.3300702542       26.4915437936
 Pt         5.8056466005        4.3858138705       26.4485643674
 Pt         1.6147613465        2.0371831633       26.3912012495
 Pt         4.3961029172        1.9927286135       26.3215816452
  H         6.4322682633        0.1711670692        8.9079815178
  H         8.4736376840        3.6467406554       12.3289563743
