     244
Tv_1:  11.152900   0.000000   0.000000 Tv_2:   0.000000   9.658700   0.000000 Tv_3:   0.000000   0.000000  26.829700
 Pt         5.6935908946        7.8562471138        1.7442378708
 Pt         7.0406104138        0.5303786547        1.8574100577
 Pt        11.2308578957        7.8400069498        1.9211135954
 Pt         8.3838046856        7.8418114982        1.8709668833
 Pt         8.5134114500        2.9132077864        1.9441916806
 Pt         2.7390979655        7.9021769250        1.7007741770
 Pt         9.8108915891        5.4318140474        2.0101703282
 Pt         6.9568669808        5.4568221429        1.8691363705
 Pt         5.7034367837        2.9795205550        1.8192826450
 Pt         4.1602039653        5.6275459930        1.8328697760
 Pt         9.7998302143        0.5038597872        1.8904601490
 Pt         1.5421806964        5.4211560947        1.8223615645
 Pt         1.3279848655        0.6123813073        1.8529668799
 Pt         2.8703050305        2.9820523985        1.8108520010
 Pt         4.2218837134        0.5408866922        1.7934598887
 Pt        11.2297211266        2.9118590680        1.9890695906
 Pt         5.3452101312        6.4870610855        4.1499157517
 Pt         8.0676028109        6.4084327372        4.2274620176
 Pt         6.6042463185        8.8662784913        4.1740662451
 Pt         6.6208262057        4.0755393878        4.1571447644
 Pt         8.0404969981        1.5214220554        4.2966123695
 Pt         5.2847524549        1.5893991967        4.1501749428
 Pt         9.6369555892        3.9642614804        4.2495112561
 Pt         9.4679089040        8.7675418802        4.2614405058
 Pt         1.0548807524        8.8316444352        4.2853386046
 Pt        10.9272737707        6.4579463121        4.2559630318
 Pt         2.4884499053        1.7069851924        4.1011799218
 Pt         2.5222529602        6.4860070898        3.9797793072
 Pt         3.7916107138        8.9568720489        4.1404264357
 Pt         3.9017714916        4.1076369747        4.1060748251
 Pt        10.9143169458        1.5159583197        4.2089612058
 Pt         1.1167509750        4.0636410865        4.1229156708
 Pt         6.4505017996        2.6304747472        6.3608783600
 Pt         9.0096341908        7.3887354471        6.5694034692
 Pt         7.8158613038        5.0187725795        6.5219775360
 Pt         7.8168258918        0.1233828252        6.5945173927
 Pt         4.7534181054        0.1192516651        6.6111003505
 Pt         2.1904667081        5.0797364947        6.3920202190
 Pt         2.1850293535        0.3344168214        6.5584379492
 Pt         6.3267610650        7.4344723046        6.5205792950
 Pt         3.6481439101        2.6873785197        6.4494990943
 Pt         0.8873670989        2.7508644662        6.5333432365
 Pt        10.5652299291        4.9726525135        6.6022916311
 Pt         9.1588896796        2.6017066550        6.5628508528
 Pt         5.0026518266        5.0099320492        6.5469453368
 Pt        10.6278669123        0.3405805588        6.6660033158
 Pt         0.8710136731        7.5247288081        6.6643809962
 Pt         3.6497946905        7.3786742097        6.3263841770
  O         4.7605665159        5.1627032748        8.9553113582
  O         0.7508549678        7.2038794972        8.7400224503
  O        10.7747730772        5.0381749193        8.8111480488
  H         2.5798377150        2.0527204673        9.4106215244
  H         5.9860411818        5.1967088094       10.5175363873
  O        10.7632305856       -0.0810873216        8.8779371619
  H        11.1315045306        8.6201809856        8.9849058374
  H         4.0954029618        2.5273894185       10.0186610952
  O         7.4571495968        0.3705862885        8.8117146383
  H         7.8968123643        9.4397914331        9.4713303870
  H         9.9548339232        5.2539962388        9.3428944573
  H        11.5038841674        0.3994154846        9.3102475970
  H         0.1635490936        5.9683175510        9.0551290671
  H         7.5590817177        4.4154366210       13.1013769570
  H        11.8005295812        1.8939331175       10.7101010305
  C         6.0999921406        5.1017575237        9.4435258445
  H         1.7093526129        7.3485850495        8.9047924062
  O         7.6471080394        4.0364145874       12.1806654260
  H         4.2442882224        8.3408623463        9.4557531401
  H         4.3177743376        0.8210806796        8.9855516817
  H         6.6993737169        5.9186591946        9.0515905645
  O         4.8384624669       -0.0340094623        8.7307736619
  O         3.5419498510        2.3193029026        9.1988315605
  O         1.3159752172        1.3281182685       10.2255932765
  H         1.5086124240        0.6598001332       10.9970050472
  H         7.0902445389        8.2819961602       11.2231888080
  O         8.0067886622        8.5839230201       11.0738957016
  H         4.7549119129        2.1951050765       12.3409776765
  O         4.8739284821        2.9796965670       11.8090930715
  O         2.1818555167        4.7051667100        8.9192252180
  H         3.0213172204        4.1534801209        8.9389080896
  H         6.6112770844        4.1714063501        9.1865907787
  H         2.8136804547        5.2351043126       10.8463830076
  H         5.8120045619        3.1851459884       11.9643208195
  H         8.4588056539        7.7756733561       10.8060959799
  H         5.9997094130        6.6915195658       12.6878911954
  H         5.2138660321        8.0603150354       12.6471677622
  O         5.5803458499        7.3518739280       12.0333175761
  O         3.1462381640        5.2938354215       11.7448365971
  H         1.3647208572        4.2017459485        8.8489498175
  H         9.7371147212        2.5918228397        9.5104506705
  H         3.7537104317        4.5315444898       11.8636283621
  H        12.0631121015        8.1344570709       12.0283730323
  H         2.9080800346        9.1827232094       12.3585885394
  H         8.3126576525        1.9686851380        9.1075985661
  O         2.2707164568       -0.6525795363       11.6008241257
  O        11.2195385539        7.5367086307       12.0174404437
  O         8.9036345663        2.7738236138        8.9871650390
 Cl         4.4385521435        9.8125490884       13.5647184899
  H         4.6988411302        7.3016889298       10.6868831338
  O         9.2356369147        6.1498538442       10.6930354709
  H         8.8189568006        5.4196339116       11.1944733192
 Cl        -0.4963120064        3.0193076598       11.9166692669
  O         9.3632170397       -0.9649297217       13.5411426658
  H         2.8600172644       -1.1018170210       10.9313247986
  O         3.9903624596        7.5246992227        9.9894614110
  H        10.0881244291        6.4531499660       11.1877534672
  H         8.9928746135       -0.6130293512       12.7094017649
  H         9.7265321472       -0.1830020138       14.0521145690
  H        10.7775864725        7.9803334295       12.8578150648
  H         6.0698750368        4.4413160917       19.3983068493
  O         6.7054711087        5.6942313000       14.1075925401
  H         6.0138717776        5.1697165498       14.5174288513
  H         7.9320744230        8.1598912814       14.7043000493
  H         4.3815226959        6.0397988255        9.0930673254
  H         6.7312761480        0.8657232708       14.8728055844
  H         3.1309350381        1.9089593409       14.1459128798
  H         7.2432913963        6.0801187052       14.8226819285
  H        -0.4233544364        1.9113062184       13.6484043725
  H         6.3428324215        2.2990721315       15.4207411903
  O         6.1801996252        4.1696189505       20.3149559051
  H         6.5815887098        5.0353374615       20.7331512812
  O         2.9096300467        2.7079864220       14.7098135678
  O         7.7879501317        7.7905946060       15.5784306674
  O         6.9753746535        1.5278733865       15.5035208217
  H         2.2522096872        3.3157215054       14.1789115404
  H         0.6469002667        4.3206001883       13.1220610684
  O        -0.3540586475        1.3498000522       14.4665332514
  O         1.2494709680        8.9235102029       15.1486663013
  O         1.4189176937        4.5778578098       13.6913395254
  H         0.6002268311        9.5898122347       14.8240955604
  H         4.2400065571        3.5061621450       15.2805169423
  O         5.1454332281        3.7400795550       15.6197292755
  H         8.6215085959        7.7954691329       16.1529507871
  H        -0.9499808132        1.7866095284       15.1390383169
  H         6.0581385352        7.9156576261       16.1692423703
  H         4.7180242921        8.1965480271       15.3714988330
  H         2.0690411419        9.3834565745       15.2122330917
  H         5.0510435863        4.1656257021       16.4756562777
  H        12.3043855999        7.1509598995       15.6708171852
  O         5.0376438791        7.9702218586       16.2727032240
  H         2.0074809456        4.9830802411       12.9964379563
  H         9.0751900964        2.5382261741       17.9346403399
  H         1.1333977631        0.6077698048       17.5361426227
  O        12.1903670474        6.1880158019       16.0053003404
  O        11.4610250466        0.0202853360       17.7756867979
  O         2.7988390177        1.7788454775       17.5044650147
  H        12.1979862132        5.6973975105       15.1254056863
  O         9.3849158332        1.8196649277       17.2795007458
  H         3.5829777109        1.2102289494       17.6605626346
  H        10.7142296603        0.7207618465       17.6999117913
  H         2.8812882207        2.1031591297       16.5860234976
  H        10.6100655431        8.3937271814       17.0439061925
  H         1.7238032537        5.7598643065       17.4164444779
  H         4.9800256720        9.3889779795       17.0602256213
  O        10.0798541883        7.5659844243       17.1540894621
  H         8.6233442681        1.6646433511       16.6484089302
  O         2.2045176288        5.4760132136       18.2995472271
  O         5.2142165470        0.5595547482       17.5489130153
  H         5.8645093141        1.0245129901       16.9489677757
  H        10.6460531178        6.8460140677       16.8091178327
  O        11.1218459016       -0.3950612463       20.3513995425
  H         2.1792283072        6.3053459273       18.9318495150
  H         2.2645067990        2.4977126368       18.9593423267
  H         4.7076574329        6.0731190194       17.2841172517
  O         8.3730054356        2.5590620534       19.8609787696
  H        11.0877449210       -0.2600049972       19.3574867017
  H         2.0655178099        4.0315449698       19.2360718387
  O         2.1006506739        3.1428559479       19.7291495988
  H         7.7624422119        3.1324901054       20.3778696442
  H         6.4215210110        0.2727105908       19.0952378109
  H         3.8347053626        5.1569242103       18.0490199179
  H         9.2690833789        2.5734098869       20.3534359092
  H        10.2787242780        8.6925510772       20.4516478461
  O         4.7882285050        5.2582212101       17.8180707147
  O         2.0322250232        7.5376969182       20.3031899737
  O         7.0354125999        0.1284172708       19.8253433108
  H         3.2520714241       -0.5341462372       20.4901602487
  H        11.1969607473        1.2058413865       20.7546272342
  H         1.8403405567        7.3452226174       21.2447713801
  O         8.9374582902        7.9992991629       19.7215759910
  H         1.2690296514        8.2061598190       20.2295912383
  H         9.1952596768        7.8280444752       18.8058830689
  O         3.7396719822        0.1656509597       20.9806792222
  O        10.9656221898        2.1683793273       20.9194569487
  H         7.5171436624        1.0356412752       19.8769936881
  H         8.2087243421        8.6863928417       19.5787948464
  H         8.1292035624        6.9098139944       20.6568834243
  H         4.6136389328        3.8550976231       20.9924323322
  H        11.7796740033        2.5966756892       20.5227994238
  O         7.4824760831        6.4228258186       21.2346231317
  H         4.4130328887        9.2398002017       21.3657954853
  H         4.8378519190        7.0518923513       22.5486379248
  H         8.0000697657        5.9657766253       21.8950067356
  O         3.8250363160        3.7584396006       21.6115787594
  O         0.1538322985        9.7770547225       23.9905119209
  O         5.4669085034        7.8016489346       22.3922893509
  O         7.3968046563        3.9256868460       23.5104777129
  H        10.3599541401        2.5468790562       22.5046195281
  H         3.0743177824        3.3711244114       20.9550492924
  H         6.1843783546        7.2780856064       21.9788395795
  H         0.4908457763        8.8399465038       23.9029767252
  H         8.2716257843        3.5119944317       23.3373711238
  H         7.5234906872        4.3736253671       24.3658397451
  H         4.5900850848        2.7320410781       22.6303059460
  H         0.9284673362        0.6885087988       23.5446564100
  H         3.3272513481        5.2731802268       22.3689377971
  O         1.1398459217        6.9954656968       23.9299158960
  H         1.9762436659        6.5908738807       23.4641694024
  O         3.3152189889        6.0540712742       23.0105537137
  O         5.1845853223        2.3179882565       23.3482811382
  O         9.9270144093        2.9666644069       23.3368563393
  O         2.2595688141        1.2485917281       23.0901120196
  O         9.7363466581        6.3222034539       23.1622126225
  H         8.0603733168        0.1865546224       23.8979606930
  H         5.8736899549        9.0008251400       23.4363271012
  H         2.8232691085        1.7888183420       23.6476388051
  H         9.2691052163        6.4757106554       24.0690734274
  H        11.4796722444        6.5640031848       23.5783801469
  H        10.1505291530        2.3738634371       24.0960922767
  H         5.5967012088        0.9845365348       23.8051286387
  H         9.6491766653        9.9073147880       23.9203685141
  H         5.7944282135        3.0173368615       23.6577697191
  H         3.7049970983        5.6316531532       23.8286024315
  O         8.8405726922        9.3431135058       24.1234304948
  O         6.1357137830        9.7760726070       24.0960570965
  H         2.7870095251        0.9513445666       22.3261639083
  H        10.0039208781        5.3834179369       23.3014646711
 Pt         3.1037504653        9.4614849935       26.2682549784
 Pt         5.9376575769        9.2576515638       26.2033441963
 Pt         8.7639234400        9.3309106228       26.3753995107
 Pt         0.3004169225        9.4077195284       26.3948128344
 Pt         8.6576954589        4.5115415165       26.4608153124
 Pt         4.4343717638        6.9310699207       26.2569884067
 Pt         9.9574564483        6.8332919120       26.4532008015
 Pt         7.1993572996        6.8184320849       26.1824585330
 Pt         0.2172633325        4.5060217492       26.3801580581
 Pt         1.6651053975        6.8738252905       26.3129233130
 Pt        10.0484585598        2.1360878579       26.4552893044
 Pt         7.2599547665        2.0186007755       26.4254234700
 Pt         3.0334224275        4.5582707363       26.1685025433
 Pt         5.8369904122        4.5088470744       26.3597966522
 Pt         1.5930636305        2.1225419369       26.3531875688
 Pt         4.3946357260        2.1474140475       26.3198059928
  H         6.4198718849        0.2070465365        8.9066441057
  H         8.3280068024        3.3113715989       12.2157659027
