     244
Tv_1:  11.152900   0.000000   0.000000 Tv_2:   0.000000   9.658700   0.000000 Tv_3:   0.000000   0.000000  26.829700
 Pt         5.7581191188        7.8177414128        1.6111911786
 Pt         7.0167986872        0.6123776519        1.9524625628
 Pt        11.2635872933        7.8745111300        1.8246651957
 Pt         8.5122664875        7.9573212242        1.6514403362
 Pt         8.4505427040        2.9835970380        1.9231452928
 Pt         3.0151502159        7.7379964970        1.7567585434
 Pt         9.9975875921        5.4124037024        1.8642800112
 Pt         7.3145963631        5.4665849392        1.8869046141
 Pt         5.7724178092        3.0102602030        1.9258010831
 Pt         4.4511043330        5.3154888993        1.7959989164
 Pt         9.7800382921        0.5268742378        1.9211002425
 Pt         1.5038055850        5.3466309735        1.7900675022
 Pt         1.3737390204        0.5038962587        1.6647182814
 Pt         3.0180548038        2.9549046712        1.8538524034
 Pt         4.1678749807        0.5172906526        1.7834749107
 Pt        11.2030185882        2.9343720249        2.0044729863
 Pt         5.3835568219        6.4562588764        4.0053600763
 Pt         8.2995950500        6.4139374379        4.1129860490
 Pt         6.8334894816        8.7711384783        4.2373346866
 Pt         6.8732179864        4.0633992734        4.1481411268
 Pt         8.0322550752        1.4949476767        4.2629932356
 Pt         5.2645950557        1.5055202091        4.1260577327
 Pt         9.7294420185        4.0919166607        4.1512140352
 Pt         9.4419298025        8.7462776659        4.1809011531
 Pt         1.0806623265        8.8434014632        4.1237318522
 Pt        11.1266224360        6.4604464308        4.2523043894
 Pt         2.4997027262        1.5322113690        4.0475782270
 Pt         2.7150807494        6.5257811928        4.0083915185
 Pt         4.0150949244        8.7845012342        4.2065000222
 Pt         3.9899584944        4.0326429679        4.1933039795
 Pt        10.8145171867        1.5859050253        4.3043280628
 Pt         1.3622252309        4.0239929348        4.1252172156
 Pt         6.3135651048        2.6010277761        6.4422727144
 Pt         9.0679621947        7.6049186034        6.4844616234
 Pt         7.8528433476        5.0741459017        6.4345197013
 Pt         7.8112618120        0.2894853255        6.7030381025
 Pt         4.8639849872        0.2777421998        6.5716806316
 Pt         2.1754529166        5.0055977330        6.5097619248
 Pt         2.2445787974        0.2227718174        6.4818186274
 Pt         6.4031184386        7.5444592743        6.5437073821
 Pt         3.5799377551        2.5577417810        6.5602250475
 Pt         0.7512946109        2.5753052298        6.4602443126
 Pt        10.5656046459        5.0643942769        6.6939566582
 Pt         9.0888056428        2.7394671104        6.4750955819
 Pt         4.9842339847        5.1116027516        6.5586512308
 Pt        10.5770770025        0.4007362421        6.7083239133
 Pt         0.7826052938        7.5209534257        6.5735835370
 Pt         3.6227196536        7.4787856251        6.5820752541
  O         5.1042743528        5.3037579858        8.7219712164
  O         0.7805914914        7.5349153056        8.7298335982
  O        10.7440712426        5.3370135189        8.8966926139
  H         3.0286837891        1.6718055765       10.0654517173
  H         6.1637975567        5.3583702713       10.5521852700
  O        10.5350228091        0.0849056058        8.9393200341
  H        11.0753578622        8.9023215256        9.2243095993
  H         4.0911017137        2.9563467223       10.3837060534
  O         7.6780973830        0.3918737282        8.7853465335
  H         8.0058853769        9.3652405585        9.4577438807
  H         9.9424345012        5.3980939607        9.4929441654
  H        10.9386658261        0.7921106049        9.4493910325
  H         0.0286909490        6.2247215403        8.8970001171
  H         7.1357013618        4.7478972447       13.2053340770
  H        12.4095876836        1.5599707848       10.8557009564
  C         6.3731757527        5.2707914866        9.4818567131
  H         1.7226626117        7.5073724218        9.0707305381
  O         7.2506414189        4.1427671606       12.3932574954
  H         4.2844638741        8.4406439613        9.3376378034
  H         4.7408337035        1.1688273946        9.0883038694
  H         7.0470389142        6.0654047446        9.0551712477
  O         5.2346229373        0.4006398373        8.7259550140
  O         3.6369797176        2.4177564843        9.6368853875
  O         1.8153825434        0.8124211996       10.4216924813
  H         1.9493654137        0.0569318711       11.0568882978
  H         6.9971352091        8.3653549526       11.2468496735
  O         7.9456105574        8.3792030601       10.9392672348
  H         4.4858815720        2.8678001084       12.3613784989
  O         4.6774272419        3.6461881068       11.7485899593
  O         2.1857567216        4.6779784393        8.9636904552
  H         2.7840993537        3.9063616447        9.2006787422
  H         6.8153467798        4.2818043170        9.2547669091
  H         2.9045204817        5.6506589265       10.8940558942
  H         5.6447628009        3.6675381894       11.9735369833
  H         8.3228525215        7.4559530393       10.7529657520
  H         5.2550173105        7.6336777163       12.5483473534
  H         5.1132508610        9.1824608628       12.2825779311
  O         5.3745779784        8.3200427874       11.8336001529
  O         3.1689433433        5.7329878066       11.8182540507
  H         1.2609252760        4.4336018297        9.0431590825
  H         9.4461143430        2.8667282143        9.3137219655
  H         3.8210431963        4.9184566513       11.7917143446
  H        11.3523780254        7.4326160365       12.4150019798
  H         1.8076253129        8.7196770535       13.0153995456
  H         8.4332185485        1.7081458551        8.9534596944
  O         1.8039330493       -1.3794302438       12.1486136026
  O        10.6525979452        6.8679655075       12.8353352431
  O         8.6600402629        2.6984996667        8.7479677114
 Cl         4.5989788106       10.8927256078       13.5488126108
  H         4.1702147659        7.6445206151       10.6314131937
  O         8.9172654464        5.7892093510       10.9206529211
  H         8.3046038882        5.1117316362       11.3396973057
 Cl        -0.4750083616        2.5237513715       10.9669067743
  O         9.1757876968       -0.5141852822       13.1940686328
  H         2.2778963670       -2.2603152323       12.1038676956
  O         3.9937944505        7.5235108616        9.6642386298
  H         9.5584127635        5.9291175577       11.6676691345
  H         8.8626897725       -0.6447937184       12.2631526868
  H         9.9341211708        0.0810779915       13.2582411835
  H        10.0401903555        7.6766296130       13.2270433212
  H         5.8801062191        5.0084754218       19.3011195472
  O         6.4606331638        5.7741996874       14.2724456821
  H         5.9360917698        5.2577681075       15.0148601623
  H         8.4317197495        8.3709422132       14.6708394847
  H         4.6834437979        6.2101557625        8.9721826799
  H         6.1319480590        1.6045975619       15.2677373179
  H         3.5274911197        2.7026606029       14.6557183550
  H         6.9414458717        6.4806178298       14.8006339122
  H        -0.2658327330        2.0225341018       13.1408673176
  H         6.1652520086        2.9788972944       16.0392067688
  O         6.4222761844        4.3652753795       19.9097987879
  H         6.9145374643        4.9912808995       20.4863627513
  O         2.9238269081        3.2471401734       15.2743016186
  O         8.1375500570        7.7797897533       15.3927114350
  O         6.5077035445        2.0340067411       16.0542134923
  H         2.1439325549        3.6593960480       14.7185987282
  H         0.6112598228        5.5786737035       13.8707190450
  O        -0.1624072675        1.5593179307       14.0390319365
  O         2.1126654390        9.3330275326       14.4580477200
  O         1.5382178192        5.2631676865       14.1136988099
  H         1.2975391291        9.7436736792       14.7442434789
  H         4.2419968534        4.1524054957       15.8464478281
  O         5.1202047761        4.4673691701       16.1233036455
  H         9.0980290220        7.5583459701       15.6016696413
  H        -0.8649954177        1.8853508776       14.6720592984
  H         7.0965972596        8.0842035973       16.7140799792
  H         5.7394515500        8.8381715426       17.2363127667
  H         2.6984467456       10.1157116729       14.1161061496
  H         5.1098044844        4.9511881400       16.9845169869
  H        13.7961955999        7.8432874482       15.6674336323
  O         6.4344894293        8.1189140471       17.4969890919
  H         2.0155471720        5.4447298396       13.2302345689
  H         9.2459356048        2.7157257821       17.0447963834
  H         0.6666098088        1.1955354529       17.1184592205
  O        13.8053114195        6.9384917063       16.0630108538
  O        11.0895202722        0.5320483937       16.9502289735
  O         2.4403724667        1.5568112473       17.5343482868
  H        13.5799361507        6.3308678582       15.3236014720
  O         9.2172727506        2.2171053767       16.1869865663
  H         3.0991325350        0.9110585169       17.8137313946
  H        10.2778820309        1.0586790090       16.6498225493
  H         2.6919193340        1.9191757619       16.6461366564
  H        10.8642086548        8.7877669322       16.1818186695
  H         2.0871708690        6.0604924841       17.6450144805
  H         3.9742713070        9.6299532372       19.6332565456
  O        10.7158244170        7.8279773465       15.8937614201
  H         8.2566126907        1.9551485132       16.1475181185
  O         2.1477379277        5.8235268877       18.6335509872
  O         4.5541084182        0.1470737421       18.8758011825
  H         5.3991948348        0.5491789353       19.2918108251
  H        11.4494158746        7.2852861415       16.1352799383
  O        10.7361677790       -0.3130395420       19.6583602038
  H         1.6583783200        6.5048026296       19.1339079249
  H         1.9993147553        2.8922035504       18.7803709048
  H         5.5108703939        6.9093300322       18.1156767643
  O         8.2995860959        2.6629648831       19.0080673106
  H        11.0107960374        0.0855473646       18.7775401151
  H         2.0601451547        4.3090805458       19.4012171718
  O         1.8336467354        3.3673638289       19.6424876716
  H         7.9540607362        3.5508571494       19.2665567343
  H         6.4885521049        1.3504395354       21.5608145076
  H         4.0704039613        6.0513521109       18.6198529554
  H         9.1172394335        2.7210975700       19.5013943996
  H         9.8513629907        9.0268836686       19.4580539047
  O         5.0330838251        6.0370531279       18.3805614016
  O         1.1746586203        7.4766520258       20.3647013049
  O         6.7323425557        1.2104828674       20.6242245887
  H         2.4923155116       -1.3576510558       21.0348484045
  H        10.5204816787        1.5018581847       20.5383626721
  H         0.9570224158        7.0954756645       21.2797019567
  O         8.0197298067        8.6307075047       19.7068197427
  H         0.5131750123        8.1297164654       20.0711677072
  H         7.3920187434        8.4433217577       18.9086217003
  O         3.3089065510       -0.8402246688       21.2960685192
  O        10.5739763664        2.4380268911       20.6516801744
  H         7.3182192735        2.0486172266       20.3138860540
  H         7.6520483570        9.4663917136       20.1406602159
  H         7.6607299097        7.3990621257       20.8344338034
  H         4.8983344387        3.8237868538       20.5845710400
  H        11.4299006941        2.7750046253       20.2385626459
  O         7.3969125698        6.6252984636       21.4384944498
  H         3.9755114908        8.1729120233       21.7300288739
  H         4.4631365791        6.3252743573       22.7876320712
  H         8.1263399629        6.5539773277       22.0563233037
  O         4.1280791909        3.4575909706       21.0299232162
  O         0.3992035576        9.1842650630       23.9337764513
  O         4.9458341097        7.1405057887       22.7323794601
  O         6.8284660296        4.0847373521       23.1776298995
  H        10.5155803780        2.4334203836       22.3593601071
  H         3.4020964449        3.3722270832       20.3873865414
  H         5.8352983505        6.9647877440       22.2496001031
  H         0.7881085345        8.2492499135       23.7242526778
  H         6.5581187908        4.3180971261       24.1422407057
  H         6.3910724868        4.8801395877       22.7478720238
  H         4.7469120587        2.1953508552       21.9625184075
  H         1.0949016283        0.2316849663       23.5636280818
  H         3.5274260742        4.4121894524       22.5178892772
  O         0.8164519957        6.5957815441       22.8891289152
  H         1.5051393803        5.9232548503       23.0933767446
  O         3.3038506481        5.2182708228       23.0679608707
  O         5.3332820433        1.9912410108       22.7254422447
  O        10.0946131589        2.4693581790       23.3385570891
  O         2.5163672099        1.0831080141       23.0495668587
  O         9.3702043750        6.2899610974       23.4470612994
  H         7.7383601405        0.4082219604       23.6560113781
  H         5.5087620735        8.6816481178       23.6677025422
  H         3.1064619858        0.9423555137       23.7753432851
  H         9.1269045845        6.6466744285       24.3357934322
  H        11.0762193219        6.3606112933       23.1223322006
  H        10.8570037324        2.6039856515       23.9887752098
  H         5.4248452483        0.6956187830       23.5316465094
  H         9.1740374749       10.6616420356       23.7336423183
  H         5.9639696106        2.8350769262       22.8758191834
  H         3.2634861216        4.8618106065       23.9724682589
  O         8.6657066053        9.8393786949       23.9041636508
  O         5.9007413479        9.5702447868       23.9513732295
  H         2.8745335481        0.4011482951       22.2922485664
  H         9.3072653777        5.3200617296       23.5304052669
 Pt         3.1125908412        9.1289177757       26.1826765654
 Pt         5.8046991240        9.1721422094       26.1975609975
 Pt         8.6505130378        9.1937078064       26.0727654371
 Pt         0.3409238809        9.2031719284       26.2037441834
 Pt         8.6283252937        4.4278598827       26.3341183130
 Pt         4.4360982718        6.7576184644       26.1808527691
 Pt        10.1298843237        6.7916857306       26.4083776305
 Pt         7.2061179998        6.8106864773       26.1816339277
 Pt         0.3248473678        4.3546637363       26.3257293321
 Pt         1.7093416186        6.7465604211       26.2183914322
 Pt        10.0236928497        1.9758380414       26.4702518951
 Pt         7.2304087004        2.0025270634       26.4043451077
 Pt         3.0801829483        4.3056324829       26.4250617644
 Pt         5.7290161014        4.3469778997       26.3499740748
 Pt         1.7514729897        1.9037150904       26.2883072038
 Pt         4.4942124019        1.9826326078       26.2962627662
  H         6.3912207756        0.4801449328        8.7326898334
  H         7.8308542113        3.4509364733       12.5399672780
