     244
Tv_1:  11.152900   0.000000   0.000000 Tv_2:   0.000000   9.658700   0.000000 Tv_3:   0.000000   0.000000  26.829700
 Pt         5.8312584862        7.8150674001        1.7497824716
 Pt         7.1366964016        0.6678090073        1.9100012680
 Pt        11.3306793554        7.7780130182        1.6902811138
 Pt         8.6250158401        7.8887317996        1.7737393341
 Pt         8.5584523998        2.9024243096        1.9156073335
 Pt         3.1086359388        7.7574580635        1.8453254811
 Pt        10.1101672307        5.2758479245        1.8055231096
 Pt         7.1954450375        5.2493504142        1.8159284710
 Pt         5.7052925017        2.9986563309        1.8923863199
 Pt         4.5456251966        5.4547570112        1.8047830743
 Pt         9.9847223797        0.5575475776        1.8501018188
 Pt         1.6205918891        5.3828112227        1.8220028684
 Pt         1.6188681296        0.4944374993        1.6677857976
 Pt         3.0176872048        3.0641336131        1.9074912095
 Pt         4.3083036227        0.5124962858        1.8504886509
 Pt        11.3582200852        2.8883095138        1.8626099328
 Pt         5.3903714007        6.4912893131        4.0484347174
 Pt         8.2478745809        6.4128804568        4.0776027420
 Pt         6.8514271030        8.8033992659        4.2190002088
 Pt         6.7609892811        4.0241405499        4.1719730578
 Pt         8.1732498292        1.5529089278        4.3427449809
 Pt         5.1952638120        1.5682053047        4.1500682625
 Pt         9.5329561816        3.9413843831        4.2444657440
 Pt         9.4898626303        8.8197207852        4.1813966525
 Pt         1.2428060467        8.8010679740        4.0299721605
 Pt        10.9298563927        6.4760542102        4.1342625742
 Pt         2.5559068209        1.4823484297        4.0371739090
 Pt         2.6959493922        6.3882549270        4.1180154058
 Pt         4.1118011180        8.7356765508        4.0623731355
 Pt         4.0078953303        4.1001327015        4.1704547280
 Pt        11.0277045131        1.4715151208        4.1490571917
 Pt         1.2924306732        4.0852432261        4.0753412059
 Pt         6.1200537944        2.6805440060        6.3405525498
 Pt         9.0787139725        7.5493796860        6.5298666561
 Pt         7.6845000641        5.1015524867        6.4607867896
 Pt         7.7241114375        0.2332691587        6.5738581592
 Pt         4.8574092386        0.2856697179        6.5734206766
 Pt         1.9822064631        4.9629053464        6.5162695798
 Pt         2.2502402539        0.1958118401        6.5623049598
 Pt         6.4042152144        7.3468206661        6.4352302883
 Pt         3.4500976162        2.6372760150        6.4223352172
 Pt         0.8188175650        2.4467722337        6.4233400891
 Pt        10.3258688330        5.0688223939        6.4714767080
 Pt         8.9086356025        2.7516441142        6.5860032954
 Pt         4.8937670771        5.1446837979        6.5370080323
 Pt        10.5380644680        0.2237912715        6.6106212945
 Pt         0.7506784880        7.4644400642        6.4544092662
 Pt         3.6241929397        7.6210805094        6.3896047813
  O         5.0868782528        5.3578931073        8.8321126867
  O         0.9021044268        7.6559336320        8.5105313842
  O        10.6726543662        5.4357202375        8.6104950709
  H         2.7819609399        1.8917487619        9.7813421882
  H         6.3155732716        5.5838918870       10.5221741240
  O        10.3956650168       -0.1080463263        8.8424836563
  H        11.0932650553        8.7778720604        8.8609561589
  H         3.9223873934        2.7398033076       10.4022014121
  O         7.5832373963        0.1356743720        8.7059711303
  H         7.7486581498        8.9917473017        9.3540802681
  H         9.9893392058        5.5467229915        9.3512140327
  H        11.0114863774        0.5305514355        9.2818844959
  H        -0.1366749470        6.3852325933        8.5817904479
  H         7.1007647215        4.9336643619       12.6706371444
  H        12.0484365838        1.5902693362       10.6847038246
  C         6.3884573625        5.5572251042        9.4475488143
  H         1.8132759243        7.6408330101        8.9377061212
  O         7.4904212356        4.3170128412       12.0221451090
  H         4.2690636383        8.2831159205        9.1087036568
  H         4.6256018214        1.0208024242        8.8947630271
  H         7.0014472552        6.4260164344        9.0161333616
  O         5.1149077711        0.2408242626        8.6066871997
  O         3.6152199293        2.4017956986        9.5315973303
  O         1.3832312203        0.8558510589       10.2907255068
  H         1.4174469587        0.0428126365       10.8874532366
  H         6.8131877400        8.1874405660       11.0451937927
  O         7.8445850848        8.2744628442       10.8386525430
  H         4.4571094330        2.7723020521       12.4808650379
  O         4.8634448175        3.2831834457       11.7917397492
  O         2.1705254961        4.9465047403        8.9980596763
  H         2.4864021462        4.0321013142        9.1155800789
  H         6.9759786388        4.6696465060        9.1955202055
  H         2.6617736958        5.4062479102       10.7746254720
  H         5.7282728307        3.6660962918       12.0642678099
  H         8.1833725767        7.3221600369       10.7037671728
  H         5.5331930927        6.8997861471       12.6211843673
  H         5.0389242219        8.4144305946       12.5920470740
  O         5.2425526136        7.6332367362       11.9879412352
  O         2.9749193307        5.4781307179       11.7064337896
  H         1.1897957640        4.8794573744        9.1188752609
  H         9.6179111213        3.0670531315        9.3572437506
  H         3.8477832088        4.9904953984       11.6839835232
  H        11.4652229251        7.4061294769       12.4152191243
  H         1.8770698016        8.2011904440       13.3776915003
  H         8.6390138113        1.9844862875        8.9956395240
  O         1.7654658289       -1.6381633104       12.4040363891
  O        10.5216356301        7.2370398363       12.4273836767
  O         8.8072924215        2.8900418592        8.8178214320
 Cl         4.7002491046        9.9637449288       14.2126395811
  H         3.9636169111        7.5330610622       10.5281696389
  O         9.2041618545        6.1346330336       10.5749457629
  H         8.7966942062        5.2825037802       10.9849223972
 Cl        -0.3058968232        3.2715533236       11.2061431998
  O         8.6849669653       -0.6769690048       13.2755522478
  H         2.4470424824       -2.3309327206       12.2708417391
  O         3.7333962447        7.5268250647        9.5255440564
  H         9.9540284864        6.5353855690       11.2413131478
  H         8.3094035521       -0.9081957629       12.3882122292
  H         8.8727567047        0.2678216569       13.1809858182
  H         9.9781820352        8.0701347756       12.6439176161
  H         5.3773966637        4.7790789997       19.3338774365
  O         5.9797002239        5.7927804915       13.7779577379
  H         5.3301252167        5.1689942221       14.3300412518
  H         7.4997851870        8.3916196423       14.6475096004
  H         4.4967267114        6.1636858007        8.9248459051
  H         5.7273018450        1.1181252934       15.6702750457
  H         3.2986344992        1.6244561288       14.5271437613
  H         6.4029900710        6.3851123574       14.5405322056
  H        -1.6186666692        2.5880311142       12.7905878506
  H         5.6536266995        2.6291841327       16.1102600507
  O         5.7418742774        4.2963546281       20.1539314940
  H         6.1347595605        4.9718268477       20.7400909069
  O         2.7470078163        2.3510034988       15.0402712348
  O         7.2515691727        7.7010895410       15.3370681221
  O         6.0487159634        1.7040210626       16.3765219663
  H         2.3006466517        2.9294263536       14.3063310902
  H         0.8385872161        3.7952551531       12.8333977408
  O        -2.4210295828        2.2698337656       13.2606119637
  O         2.1231280641        8.4965329927       15.1221615660
  O         1.4839557180        4.1868898144       13.4943692479
  H         1.5851115443        9.2406447363       15.4595884592
  H         3.9211206979        3.5430542747       15.4265944409
  O         4.6834634639        4.1915907756       15.5146712291
  H         8.2120925772        7.5298686766       15.7810122053
  H        -2.3109922937        2.2644200479       14.2633825831
  H         6.4594046420        7.8465171566       16.7324274233
  H         5.3060471451        8.5547836325       17.6675072757
  H         3.1098975364        8.6636004166       14.9428984854
  H         4.5778034700        4.6754136791       16.4211532156
  H        12.3057144286        6.8818799201       15.5157455868
  O         5.9991527738        7.7729808735       17.6283961990
  H         2.1498291095        4.7009166185       12.9141582893
  H         8.8554418804        3.0336243130       16.7604414412
  H         0.3931555538        0.9186407630       16.9705939237
  O        11.9189629009        5.9763531092       15.6458993619
  O        10.9253419713        0.3463057325       16.4081354124
  O         2.0997654510        1.4509445916       17.5163269126
  H        11.9835759411        5.5249049509       14.8043248452
  O         8.7478559336        2.2738049110       16.1124333537
  H         2.9119406428        0.8618049602       17.5821086254
  H        10.1382619351        0.9861677121       16.2531604600
  H         2.2389701362        1.9097082828       16.5759044460
  H        10.3492583603        8.1807703256       16.3326150844
  H         1.5102375354        5.4060533447       17.2621574085
  H         4.5725395242        9.9670771915       19.0038634716
  O         9.7279194336        7.3703291881       16.3238080183
  H         7.8054586735        1.8938736656       16.2989655993
  O         2.0074832359        5.4206023101       18.1414593862
  O         4.3958648647        0.2841870988       18.0453097841
  H         5.0055415197        0.8968243966       17.5441359065
  H        10.3930680993        6.7864285286       15.8032315532
  O        10.3916192607       -0.3508383727       19.2036230201
  H         1.6296462246        6.2638440118       18.5221045133
  H         1.9886384511        2.5581240815       18.9659854308
  H         4.9674770328        6.3368517294       17.5784113458
  O         7.8580618482        2.9889782424       19.1299797078
  H        10.5925553049       -0.2947036488       18.2401756390
  H         1.8058313610        4.1342511355       19.2827857212
  O         1.6493950644        3.2210500916       19.6354307939
  H         7.1553839373        3.6476272655       19.5434209409
  H         6.2223378123        0.9797640458       21.5717187928
  H         3.6226917676        5.6810876974       18.0777106814
  H         8.6944908829        2.9891392913       19.6729378058
  H         9.4220772307        8.9729475093       19.2447535362
  O         4.5624335331        5.4516248339       17.8736825009
  O         1.4404474144        7.6832192322       19.8381479947
  O         6.6798703506        0.7737893593       20.7724212575
  H         2.8885123809       -0.8185716208       20.4553000161
  H        10.5593501705        1.3901305745       19.8996884786
  H         1.3904811430        7.2237824269       20.6821469226
  O         7.7057713066        8.2985011183       19.6862794204
  H         0.5062589633        8.0974861970       19.6746522882
  H         7.1806285586        8.0310422614       18.9453893622
  O         3.5125653413       -0.2476273151       20.9096557809
  O        10.3903619639        2.3221777939       20.2159498691
  H         7.1053272074        1.6695197770       20.4365072817
  H         7.2848889590        9.0956106598       20.1923446135
  H         7.5624733106        6.9419735297       20.4887031656
  H         4.3434576053        3.6435249094       21.0135160565
  H        11.1932374222        2.8281070637       19.9004045715
  O         7.2760814467        6.2802292831       21.2036408277
  H         4.0727592729        8.7501557514       21.4038313310
  H         4.3593171887        6.9817935261       22.7621219456
  H         7.9535113554        6.2814141516       21.9158815360
  O         3.6082159014        3.4236976334       21.6722529562
  O         0.2526479313        8.9849781769       23.8844592163
  O         5.0823328327        7.6455905024       22.5370883922
  O         7.5564065561        3.4998250507       23.2712410891
  H        10.3041374277        2.1914238341       21.8540785467
  H         2.8564012651        3.0726808574       21.1114143881
  H         5.8554551360        7.1844962648       21.9971780992
  H         0.7340998212        8.1951283784       23.3304765422
  H         8.5249034177        3.2752791078       23.1190430057
  H         7.5438306147        3.7106964719       24.2243794567
  H         4.8499920170        2.4260745930       22.5720435757
  H         1.0093015590        0.0330949255       23.7045134607
  H         3.2585641554        4.7256287735       22.5808375445
  O         0.9976592696        6.9662306380       22.6062853655
  H         1.7610593557        6.2629594903       22.7849020705
  O         3.0449254089        5.5645497198       23.0942641842
  O         5.6084164446        1.9737949004       22.9204276712
  O        10.1099312235        2.0343637093       22.8639160920
  O         2.6951949811        1.0417662390       23.2335460404
  O         9.0188880121        6.9358061470       23.2465602227
  H         7.7086517269       -0.1003753936       23.9800530580
  H         5.5997567338        8.6610754848       23.5474983170
  H         3.2923120000        1.6056376004       23.8418478858
  H         9.0880926231        7.8614536794       23.5522413217
  H        11.2971847549        6.4517669581       22.8143231073
  H        10.8986260372        2.0866324018       23.4588265922
  H         5.8002858168        0.7017889041       23.8114421965
  H         9.2288687085       10.2734092098       23.6377797769
  H         6.4217711238        2.5935338983       23.0013409545
  H         3.1130717010        5.2215958124       24.0287948197
  O         8.7313822388        9.5250976089       24.1288696574
  O         6.0199353756        9.4483980099       24.0959305981
  H         3.2081557129        0.6584499375       22.4999235450
  H         8.6801151815        6.5323539988       24.0589898384
 Pt         3.2393474170        9.1956320541       26.3074514584
 Pt         6.0027880751        9.1198820611       26.2346500976
 Pt         8.8373533350        9.1415315155       26.3309352195
 Pt         0.4365939109        9.1092542481       26.0567618732
 Pt         8.9401599077        4.2536151838       26.2442115089
 Pt         4.5788684101        6.6793031438       26.3071195655
 Pt        10.2564318210        6.7527542652       26.3062593431
 Pt         7.3726906795        6.6496510103       26.3325590596
 Pt         0.5095672173        4.3850180955       26.3520962218
 Pt         1.9215107903        6.7439742834       26.2982056393
 Pt        10.4482923903        2.0118902042       26.2656678966
 Pt         7.5329032497        1.9843240143       26.3291588192
 Pt         3.2465949333        4.2654265053       26.2427650578
 Pt         6.0082194701        4.2325624525       26.3423999328
 Pt         1.9024734792        1.9710754087       26.2248658954
 Pt         4.6365127154        1.9743726411       26.3993795782
  H         6.4310103097        0.2038696007        8.8016699449
  H         7.7959668537        3.4999727815       12.4876304015
