     244
Tv_1:  11.152900   0.000000   0.000000 Tv_2:   0.000000   9.658700   0.000000 Tv_3:   0.000000   0.000000  26.829700
 Pt         5.8446476114        7.7375556558        1.5810881254
 Pt         7.1286866928        0.5270838734        1.7646346079
 Pt        11.3835494471        7.7470075884        1.7330411879
 Pt         8.6885343839        7.9657249647        1.5560538873
 Pt         8.6043758175        2.9850066531        1.7570413783
 Pt         3.0076305117        7.6522432317        1.7680902457
 Pt         9.8532782149        5.4413339034        1.9266921529
 Pt         7.1924102096        5.2631396464        1.6497595275
 Pt         5.5503677927        2.9175442575        1.8038861515
 Pt         4.3260075944        5.3488643664        1.8379251019
 Pt        10.0497526268        0.6524469927        1.8373597932
 Pt         1.4611697007        5.4593695702        1.8478969297
 Pt         1.5634284864        0.3907603903        1.7180440691
 Pt         2.8214528840        3.0308212212        1.9755684018
 Pt         4.2906088343        0.4774268618        1.8105465728
 Pt        11.3623165530        3.0186943855        1.8218165613
 Pt         5.5354409147        6.4245373006        3.9643728431
 Pt         8.3041817454        6.5142958483        3.8967940223
 Pt         6.7724580747        8.8573616018        3.9950981829
 Pt         6.7849347286        4.0414694157        4.0683116200
 Pt         8.3464909265        1.5180929839        4.1317519987
 Pt         5.4000839095        1.6157619360        4.1303323179
 Pt         9.5867643827        3.9616843808        4.2225933445
 Pt         9.6339746781        8.7637692384        4.0226197442
 Pt         1.1985778850        8.7641982751        4.1192632650
 Pt        11.0356388123        6.3440899587        4.3041597890
 Pt         2.6617714600        1.4906375101        4.0445363706
 Pt         2.5352804936        6.3896792308        4.0738841513
 Pt         4.0322162483        8.8329099879        4.0526603393
 Pt         4.1778051793        4.0400603999        4.1337446434
 Pt        11.0609609814        1.4660787660        4.1689817723
 Pt         1.2209051923        3.9405085327        4.2672529713
 Pt         6.3579943376        2.6348279276        6.5313037161
 Pt         9.2138290838        7.4134296175        6.3038168328
 Pt         7.7970749883        5.0437768080        6.3556324005
 Pt         7.8264714016        0.2228054903        6.5329862795
 Pt         5.0319140654        0.1175033997        6.4715578929
 Pt         2.3232601309        4.8964181428        6.4696773028
 Pt         2.2648466764        0.1473869426        6.3844582293
 Pt         6.4472488763        7.3765353326        6.2805025996
 Pt         3.6915788859        2.6112403815        6.3342156416
 Pt         1.0200466933        2.4557512584        6.5705122922
 Pt        10.5689275696        4.9856679695        6.5188094134
 Pt         9.1567488467        2.6048584683        6.5232134091
 Pt         5.0263782206        5.0412728020        6.5178836257
 Pt        10.7098045196        0.2112355892        6.4848347625
 Pt         0.9587692112        7.3186040717        6.6010559316
 Pt         3.6445917665        7.3553064634        6.3578591956
  O         4.9150228887        5.2808246642        8.6690913776
  O         0.8944113000        7.4429516043        8.7737426543
  O        10.6899548148        5.2073331935        8.6854024003
  H         2.9751536977        1.2211604170       10.3538082664
  H         5.8358386567        5.2476243417       10.5771488698
  O        10.6595035943       -0.1329566148        8.6132504398
  H        11.2700011018        8.7321872700        8.9203486865
  H         4.1007587892        2.3226753349       10.8261223578
  O         7.4891640289        0.1672573242        8.5497920683
  H         7.6600352959        8.9649265502        9.0764608129
  H         9.8720904970        5.1365883777        9.2741452830
  H        10.9968273722        0.5361337945        9.2028328158
  H         0.0909072207        6.0551634695        8.9079510318
  H         7.2162520932        4.7527231108       13.1059820190
  H        12.1565456339        1.3857433897       10.9841327846
  C         5.9913907841        4.8840666736        9.5413708237
  H         1.8263341906        7.4582615249        8.9969852911
  O         7.4543563554        3.9898872976       12.4689752876
  H         4.3881101084        8.3695882613        9.1929416809
  H         4.5831633596        0.7781454901        9.1821623153
  H         7.0092788215        5.2076526269        9.1709600208
  O         5.0057186581        0.0170904991        8.6154895966
  O         3.7071838391        1.7981707007       10.0276543807
  O         1.4271883612        0.5925632103       10.4797980490
  H         1.3765552483       -0.1421581992       11.1869056621
  H         6.8497243178        7.8581030559       10.8289489852
  O         7.6139037031        7.7222734747       10.1720822201
  H         4.5409055402        2.6755716337       12.9012517712
  O         4.8324800089        3.0516568809       12.0485718839
  O         2.2376871600        4.1342602134        9.2073698912
  H         2.7482541243        3.3567433829        9.3599390197
  H         6.0333094899        3.8197146406        9.5895002066
  H         2.9595257024        5.1792091673       10.7348399927
  H         5.7685927251        3.4520033902       12.2209192479
  H         8.0522702394        6.8278210265       10.3700778593
  H         5.3727263291        7.4000219308       12.7270326900
  H         4.9985539933        8.9414670111       12.5919653201
  O         5.3500166451        8.1161271949       12.0677951369
  O         3.1639210201        5.2214858734       11.7086345159
  H         1.2997413559        3.8175711236        9.3421808235
  H         9.6206199919        2.6466856862        9.4282488215
  H         3.8882120539        4.6006838312       11.9324622181
  H        11.2035422919        7.1161840161       12.2101236778
  H         1.6622176920        8.2816195996       13.1746740079
  H         8.3383648994        1.6995027221        8.8761883722
  O         1.6060001556       -1.7895970990       12.2530177458
  O        10.2947263928        6.8223369482       12.3864029470
  O         8.7871774511        2.6045249219        8.7869020669
 Cl         4.4712953864       10.3731111419       14.2124397879
  H         4.2906603005        7.3459761618       10.4632714861
  O         8.9852551624        5.6338803553       10.6620445747
  H         8.5816300410        4.7995288522       11.0374841459
 Cl        -0.5413185369        2.8315226042       11.1416977731
  O         8.4090010149       -0.6381949112       12.9733423896
  H         2.4853694345       -2.3097066256       12.0660917201
  O         4.0380540601        7.4625759653        9.5478873277
  H         9.5997395247        6.0523315795       11.3348513768
  H         7.5301232518       -0.7202360257       12.4494731339
  H         8.4807063791        0.3333153455       13.2019024910
  H         9.7449715171        7.5637973583       12.6010099537
  H         5.5593208219        4.9611614220       19.4695540844
  O         6.1776465027        6.1327741509       13.6859229557
  H         5.7278060268        5.5777804413       14.3530518316
  H         7.8869509658        8.3894454998       14.5314989400
  H         4.4918582722        6.1518873151        8.9349657630
  H         6.5294757508        1.8449253411       15.1838715546
  H         3.2781819247        2.2077227523       14.8041592525
  H         6.8212756193        6.6662136349       14.2158775425
  H        -1.0549987003        2.1365393879       12.9250850185
  H         6.3703221281        3.0254787990       16.0381777567
  O         6.1308122782        4.5482109212       20.1224790624
  H         6.3622464159        5.2354444064       20.7404206965
  O         2.8400311090        2.9562159125       15.3630869172
  O         7.6148154442        7.7670725661       15.2628452256
  O         6.9038590503        2.1884374747       16.0632141369
  H         2.2891147761        3.3927613605       14.6551795311
  H         0.8817193191        4.0429119664       13.1000531602
  O        -1.6044257753        1.8202331132       13.6970958795
  O         1.8202214667        8.8184112804       14.6911676705
  O         1.5542897051        4.4430515710       13.6785269908
  H         1.1177732452        9.2745382982       15.2175896847
  H         4.3044818234        4.0497802318       15.9218490890
  O         5.2811850268        4.3237956137       15.9203666892
  H         8.5223970300        7.4946470588       15.6855444266
  H        -1.2423753148        2.3280196712       14.4288829545
  H         6.6671986469        8.1872665200       16.6459516202
  H         5.8356950469        9.2474146720       17.5454396084
  H         2.6438476184        9.3597948162       14.7095210225
  H         5.3466212607        4.9619776522       16.7089917611
  H        12.5320525523        7.1196150531       15.2545401881
  O         6.2969131744        8.3347199654       17.5615618588
  H         2.0814857977        4.9054284433       12.8984350366
  H         9.8425873379        3.0201089740       17.2887510735
  H         0.8308347586        0.6743085905       16.9642015120
  O        12.2245699440        6.2796865308       15.6293857045
  O        11.0949720685        0.3789411537       16.5313318592
  O         2.1913126728        1.4526248934       17.5120559609
  H        12.2310601126        5.7489558996       14.7833224016
  O         9.6589446092        2.6964341564       16.3927798738
  H         3.1337460419        1.1566030961       17.6907243291
  H        10.4917391052        1.1717315927       16.4203912032
  H         2.2919460274        2.0389201725       16.7284686264
  H        10.4550248959        8.3396739595       16.4845436146
  H         1.6835796051        6.0488087309       17.2727224950
  H         5.5255904662       10.8592591423       18.6957391465
  O         9.9059909187        7.4467312624       16.6233628156
  H         8.6792323385        2.5829939393       16.3322707347
  O         2.2000432670        5.8033979521       18.1351758491
  O         5.0789400967        1.0295493286       17.8008045538
  H         5.6121688073        1.6962824839       17.2591844278
  H        10.5349470722        6.7501627463       16.2609153575
  O        10.6151191190       -0.5337616925       19.2955024046
  H         1.8887580120        6.4734991182       18.8313859611
  H         2.2217040868        2.5959206472       18.7905944047
  H         5.2949656792        7.0077783930       17.8277212568
  O         8.4363507594        3.0831701442       19.4077892593
  H        10.5774382584       -0.4182261767       18.3188625873
  H         1.9291247097        4.1286379629       18.9553274256
  O         1.9666855983        3.2815572697       19.4527739299
  H         7.7985704699        3.8764489985       19.5890516008
  H         6.0301075683        1.4843088962       20.9916105232
  H         3.9717097282        5.9445360069       17.8111443135
  H         9.2408725659        3.1409469975       19.9002385110
  H         9.7083530107        9.0074417585       19.5896792721
  O         4.9403935766        6.0226806176       17.9951169073
  O         1.3153842439        7.4312584233       20.1721874741
  O         6.5945694077        1.3927951443       20.1295439804
  H         2.4360343721       -0.7803661501       20.9729540632
  H        11.2323318198        1.1494997140       20.2963723601
  H         1.0628648974        7.0084840064       21.0731743307
  O         7.7312790005        8.5834073119       19.8692140323
  H         0.5206577220        7.9460853411       19.8487939494
  H         7.5124869157        8.3147395810       18.9501584265
  O         3.1723705347       -0.2957825024       21.4420936306
  O        10.9059811173        2.1335267623       20.6227222721
  H         7.2849699627        2.0692321932       19.9936787685
  H         7.1612071529        9.4847888536       20.0021651235
  H         7.3517670686        7.4473471407       21.0054548479
  H         4.4416305711        4.0251336450       20.9110755338
  H        11.7165038714        2.7347500849       20.3015231901
  O         6.8017717750        6.7344460210       21.5724424147
  H         3.7236231416        8.6349048750       21.8487055682
  H         4.5898223438        6.7540594927       23.3842555772
  H         7.5430618125        6.3563207815       22.0940913909
  O         3.7061861356        3.5476061965       21.3696213214
  O         0.6339770246        9.0336680993       23.8644744275
  O         4.8407622345        7.5657862316       22.8463195768
  O         7.3671563078        3.7898626958       23.0443804016
  H        10.4856082793        2.3156871375       22.3863400765
  H         3.0273133068        3.4076480475       20.6567871350
  H         5.7386057086        7.2466581830       22.3731485935
  H         0.9403071301        8.1234957137       23.5977631479
  H         8.3344283285        3.5092636069       23.0070815056
  H         7.4021897685        4.5372760399       23.6903079630
  H         4.7147746617        2.3155568170       22.4852623992
  H         1.3058881802        0.0547325194       23.5144448301
  H         3.2483121702        4.5608885996       22.5364455040
  O         0.8040824118        6.5311461664       23.0090346000
  H         1.6340621900        5.9790771415       23.0828395347
  O         3.1686420131        5.3061364119       23.2197283238
  O         5.5797627510        1.8274690756       22.5942765055
  O         9.7673555506        2.5395167670       23.0679658137
  O         1.9068162418        1.3905056040       22.7824907333
  O         9.0082029539        6.4734845304       23.3140988500
  H         7.5873286209       -0.2784364992       23.6284929642
  H         5.4232121765        8.6662358221       23.7099447326
  H         2.4512742517        1.9430234139       23.2899030949
  H         9.0485214981        7.4557193125       23.6903982558
  H        11.0467899438        6.2689748064       23.3123727013
  H        10.3256443120        2.3903793596       23.9452867707
  H         5.8051488316        0.6569686838       23.5258916299
  H         9.0298640621       10.1680025908       23.2917114568
  H         6.2734589995        2.5284431273       22.7710739098
  H         3.0145107222        4.7841499275       24.0542884231
  O         8.6358967834        9.4010415051       23.7486187886
  O         6.0720725275        9.4453444756       23.9780998004
  H         2.5900510493        0.8133030964       22.2066737823
  H         8.6641578519        6.0134717623       24.0698683566
 Pt         3.1744395451        9.0835317251       26.1651007947
 Pt         5.9659302290        9.1259651408       26.1058213132
 Pt         8.8640289011        9.0122817034       26.0427603840
 Pt         0.5230413096        9.1678597386       26.0430962771
 Pt         8.8958884347        4.2634106714       26.1880871643
 Pt         4.6037492619        6.6639591077       26.2210586202
 Pt        10.2877240947        6.7182737748       26.3341023216
 Pt         7.4211726738        6.6773423127       26.1710602101
 Pt         0.4036046513        4.2870324432       26.3081388056
 Pt         1.8043894844        6.7610396382       26.2752042691
 Pt        10.1262929366        1.9223026163       26.3528977847
 Pt         7.3310733063        1.9355598248       26.3218947921
 Pt         3.2073686476        4.2216724749       26.3298109425
 Pt         5.9992039596        4.3811968513       26.1573860666
 Pt         1.8685334116        1.9006300424       26.3228243731
 Pt         4.4176919139        1.8961552944       26.4526551721
  H         6.2826498820        0.1341960969        8.5913896120
  H         8.1098260288        3.4858945095       13.0194376903
