   242
 Tv_1:  11.152900   0.000000   0.000000 Tv_2:   0.000000   9.658700   0.000000 Tv_3:   0.000000   0.000000  26.829700
Pt      5.21711588      7.97540759      2.30057708
Pt      6.78581668      0.73210558      2.16704058
Pt     10.94443081      8.05879696      2.45668202
Pt      8.09605863      8.06781654      2.19119706
Pt      8.19240145      3.22146742      2.42728761
Pt      2.50239424      7.94556120      2.44729930
Pt      9.48855273      5.71659029      2.28662950
Pt      6.64930069      5.60588841      2.46867626
Pt      5.39305853      3.16583820      2.18839102
Pt      3.93461798      5.50547411      2.28807856
Pt      9.43948383      0.75072815      2.22846166
Pt      1.08063639      5.56671717      2.17527716
Pt      1.08435892      0.80195113      2.21038572
Pt      2.51520093      3.18019498      2.12911112
Pt      3.82641966      0.83643811      2.22790732
Pt     10.89179595      3.15219113      2.27678923
Pt      5.63459960      6.56512749      4.80072837
Pt      8.48769929      6.69497557      4.58999651
Pt      7.00369373      9.06671934      4.52113366
Pt      7.22276678      4.26653546      4.80329851
Pt      8.47738869      1.64493664      4.57699331
Pt      5.60226098      1.85487470      4.44754130
Pt      9.86979106      4.24797768      4.71063480
Pt      9.76632278      8.96858048      4.64763927
Pt      1.21329184      8.88097239      4.75917680
Pt      0.34111636      6.48277430      4.55459265
Pt      2.84161674      1.79293590      4.50737510
Pt      2.98216483      6.47682473      4.67492697
Pt      4.24678634      8.91695692      4.70307953
Pt      4.37456920      4.08394576      4.59724416
Pt      0.04573849      1.64283562      4.58143468
Pt      1.44528004      4.12649709      4.50943070
Pt      7.53901584      2.86296363      7.08184590
Pt     10.27005995      7.58767564      7.00299400
Pt      8.76320035      5.26825187      6.87020367
Pt      8.93311924      0.32202952      7.00784616
Pt      6.16812881      0.40790961      6.90193630
Pt      3.27280321      5.23008398      7.07107824
Pt      3.44511829      0.61742630      6.98367119
Pt      7.48350274      7.76330883      6.87252601
Pt      4.75997029      2.88749889      7.04952855
Pt      1.87225248      2.88978495      6.92008046
Pt      0.59669812      5.18052074      7.01239245
Pt     10.22925944      2.79630710      6.96488761
Pt      6.00857052      5.36030120      7.13379758
Pt      0.78854584      0.49689908      7.10645741
Pt      1.90859574      7.62099605      7.07433453
Pt      4.64526022      7.86568750      7.23295654
O       6.53471144      5.25344265      9.18937517
O       2.01915517      7.62673214      9.28571410
O       0.57436138      5.32352119      9.12416587
H       3.81071565      2.51668502      9.53654431
H       8.65946279      5.26559882      8.60897565
O       0.55147601      0.34604798      9.32429821
H       1.56915175      8.45346898      9.62338236
H       4.56065394      3.88607486      9.59484219
O       8.85075693      0.47758268      9.20128014
H      10.71139424      0.59941216      9.54788612
H       1.17186700      1.01594976      9.68814077
H       1.49642912      5.64906301      9.28224397
H       6.98453264      2.67638980      9.67684338
H       1.97917114      3.23979359     10.02016084
H       8.29775404     -0.13113533      9.73724252
C       7.64013405      5.78790513      9.48484135
H       3.04380341      7.83577086      9.39478388
O       7.85150526      2.69906707      9.25709973
H       5.21688468      8.10128925      9.74590023
H       8.16176048      5.55080526     10.45578747
O       4.45747440      7.65629788      9.30876662
O       4.72019214      2.89095670      9.36201032
O       2.22519513      2.31954180     10.14680274
H       2.29493058      2.18784349     11.18463006
H      10.66435347      7.97386769      9.90970185
O      10.35577075      7.30430605      9.19562660
H       5.12972770      1.75981421     12.13547014
O       6.02032499      1.32850189     12.23662753
O       3.62102265      5.17619494      9.81680870
H       4.06917704      6.05858353      9.70949882
H       7.71451849      6.84967921      9.15419091
H       9.97466352      6.83518592     14.62471612
H       6.59138007      1.87984899     12.90272858
H      10.99960100      6.48171358      9.29988116
H       7.15204184      8.05708935     11.37301272
H       6.73463771     -0.09898224     11.18112990
O       6.92109522      8.73684885     10.64239644
O      10.47483175      7.16523659     15.45353690
H       3.33685801      5.19642522     10.79551528
H      10.81150643      3.94645956      9.35829909
H      11.23596572      6.66722801     15.74288919
H      10.57969374     10.63604045     12.09213280
H      11.39160409      8.55823673     12.07439305
H       9.50513775      3.04883246      9.52794195
O      -0.58823826      8.90986778     11.64815129
O      10.45074123      1.73633972     12.69668545
O      10.52340412      3.02557990      9.41786998
Cl      8.51110733      6.79932146     12.85489500
H       3.10949425      3.20255784     12.78979774
O      10.81453201      4.26930328     12.68576775
H      10.12895081      5.08236519     12.83965298
Cl      2.68602769      5.52998373     12.95142258
O       7.86886198      2.52543068     13.32685613
H      -1.42124351      8.46945557     12.03891873
O       3.36647197      2.29034423     12.53981078
H      11.67332630      4.70180773     12.96953234
H       8.02043090      3.17813197     14.06407704
H       8.73418675      2.39713313     12.86224857
H      10.82527746     12.22730107     12.28978556
H       6.28294511      9.10089610     13.30301260
O       4.96211500      5.54757807     15.14156300
H       4.52462286      4.97222049     15.77295414
H       2.19909377     -1.60412005     12.66026947
H       3.15860135      1.76673254     13.35497230
H       7.90215765      5.85002559     14.86201112
H       3.07132417      2.30685125     16.55995897
H       4.30966557      5.43193583     14.37046310
H      10.83194492      1.67159045     14.23384136
H       6.48377370      5.27455478     15.23119269
O       6.08133972     -1.26949936     13.99994123
H       6.72845021      7.68459625     13.75724734
O       3.66881532      3.02798994     16.87494788
O       1.79294092      8.96846978     12.56881503
O       7.46932887      5.28101050     15.51514979
H       3.25321958      3.35193228     17.67396691
H       6.73032037      8.97612599     15.42450866
O      11.11843179      1.46872217     15.18086058
O       2.50123800      1.12971519     15.22739032
O       7.03689998      8.93516736     16.40703504
H       1.52385339      1.00279913     15.43760799
H       0.09371416      2.67320824     16.29142393
O       0.00550278      3.40062939     17.00448101
H       1.58196164      9.08608963     13.52406916
H      10.39898981      0.92658125     15.56396701
H       6.08572158      0.78036453     17.30713570
H       4.91562804      1.92288803     17.54561433
H       3.07443688      0.37308102     15.47299640
H      -0.96802002      3.51445387     17.22519650
H       0.99684738      4.77270692     16.45668584
O       5.62828666      1.36340424     18.04852430
H       6.66505625      8.08764344     16.75311353
H       8.36102879      4.73738536     17.18103956
H       6.25867097      2.98710707     19.16569270
O       1.57828809      5.61397052     16.23846349
O       6.59390275      3.76442125     19.66328028
O       4.02231184     -1.01712088     16.28042031
H      13.09610698      5.40115527     15.36056492
O       8.80933874      4.37632865     17.98217931
H       4.14312022     -1.64419781     15.52217626
H       7.38539333      4.06141559     19.12101382
H       3.85251074      8.01959665     17.02174200
H       8.60287828     -0.37597020     16.58274316
H       2.48881917      6.08334383     17.66915997
H       4.64633257      0.32706333     19.17467198
O       9.62679010     -0.26808410     16.57344908
H       9.29505868      5.24488752     18.27460626
O       3.06632239      6.50560780     18.37432428
O       3.89387774      0.12974674     19.88415128
H       3.50969406      1.04141774     20.09813812
H       9.90078305      8.51124835     16.20878529
O       0.58547591      3.33525057     19.73197588
H       2.49750314      7.18169847     18.85857056
H       1.83140212      2.67933545     20.23515010
H       3.71990262      5.37476081     19.58352828
O       9.12870516      6.42756097     19.80090492
H       0.49929513      3.25468501     18.76070467
H       3.49403151      3.24553890     20.39339145
O       2.80683195      2.44982708     20.63071310
H      10.03803161      6.04360543     20.06194189
H       9.28677110      1.92132801     21.36659004
H       5.14021404      4.50786797     19.70687989
H       9.39448620      7.37806742     19.50068429
H      10.84938074      2.96935146     19.99079032
O       4.28633507      4.77100363     20.18471962
O      -0.96842742     -0.63766899     19.16291079
O       9.33715908      2.00900308     20.33815589
H       0.64456035     -1.09699470     19.78213164
H      12.17024772      6.50972012     20.51108762
H      -0.94840118     -0.30294656     18.21289675
O       7.17828232      7.48713228     21.72561400
H      -1.08303906      0.21650500     19.67158387
H       7.78332904      6.96813758     21.10269722
O       1.49223066     -1.50424696     20.10126725
O      11.68785504      5.66731820     20.73761627
H       8.52756249      2.48851907     20.05841722
H       6.37283265     -1.94603527     21.26773573
H       7.90514879      6.25004331     24.43061487
H       2.32164745      2.28453359     22.13153025
H      11.93238595      4.82678510     20.26543506
O       7.68645697      5.64053601     23.65789059
H       2.21860538      8.77860653     19.84233368
H       3.94019106      9.10682677     21.60245570
H       7.58517486      6.23627213     22.83524647
O       2.19088431      2.15800072     23.13663647
O      10.04007538      7.74699552     23.12834657
O       3.97849282      8.63044739     22.47187996
O      10.05873805      1.52332686     22.86764545
H      10.72144952      4.97298607     22.47596522
H       1.73844550      2.98586531     23.52236599
H       3.06525897      8.78480753     22.81955382
H      10.99387072      8.14527083     23.29916761
H      10.17146821      2.48901118     23.10165814
H       9.51237603      1.17967110     23.61408758
H       3.28933315      2.18182209     23.86130825
H      10.11173639     -1.75232139     22.14767741
H       3.98336338      5.67184411     21.76312346
O      12.84681883      4.63047903     23.99295132
H       0.70186064      4.80512778     24.11439425
O       3.69107903      5.98122383     22.70131340
O       4.28012239      2.14945692     24.41441722
O      10.15382898      4.39965535     23.06603047
O       1.37492997     -0.61819110     23.59787761
O       5.37702453      4.76362065     24.52549959
H       7.49473581     -0.05773637     24.05086952
H       5.01551595      9.04168735     23.77786648
H      12.75615062     -0.47435356     24.58786144
H       4.77056155      5.39452364     24.08337072
H      13.38908004      5.22823382     23.45748468
H       9.46779159      4.84618894     23.54108531
H       5.31023271      0.78534395     24.26319838
H       9.02538722      8.84223481     23.97624976
H       4.72329285      3.09208783     24.21171209
H       3.80724239      7.04912556     22.63928183
O       8.46356471      9.62361456     24.37172433
O       5.68018552     -0.15485306     24.34782509
H       1.00539825      0.17825418     23.33401525
H       6.31915727      4.98683091     24.14212477
Pt      2.43208885      9.29512778     26.70554147
Pt      5.16733377      9.34045676     26.75781820
Pt      7.97785967      9.38362325     26.58102639
Pt     10.71733153      9.44615225     26.68366538
Pt      7.89828073      4.63170117     26.95058501
Pt      3.70438668      7.00311882     26.94065447
Pt      9.21084731      6.90017258     26.73487624
Pt      6.49870545      6.95322356     26.94239486
Pt     10.75512531      4.57680299     26.71340225
Pt      0.83424573      7.01616316     26.79962785
Pt      9.26961384      2.31059777     26.81435121
Pt      6.67545663      2.22628616     26.77792983
Pt      2.27852688      4.39170409     26.64945451
Pt      5.00126195      4.59871458     26.72177351
Pt      0.81369225      2.16178572     26.68333326
Pt      3.82444182      2.01270957     26.67603776
H       8.32965027      1.63322555      9.27908793
