   242
 Tv_1:  11.152900   0.000000   0.000000 Tv_2:   0.000000   9.658700   0.000000 Tv_3:   0.000000   0.000000  26.829700
Pt      5.42552539      8.16383943      2.24971541
Pt      6.79665005      0.74298618      2.36297847
Pt     10.79012618      8.06986200      2.25057218
Pt      8.18983615      7.96133156      2.08329011
Pt      8.23838870      3.24906422      2.13632001
Pt      2.65605051      8.03250340      2.28215180
Pt      9.49930148      5.59678458      2.12131711
Pt      6.72303477      5.65605223      2.20660634
Pt      5.45554660      3.17338793      2.22210754
Pt      4.04512280      5.57014510      2.21733088
Pt      9.44589801      0.80497231      2.25355648
Pt      1.26583860      5.64686041      2.34088110
Pt      1.21548906      0.70610783      2.27191890
Pt      2.51643809      3.28896594      2.25530295
Pt      3.97446340      0.81280358      2.23031878
Pt     10.86236782      3.16873804      2.27811038
Pt      5.72860866      6.66598778      4.60876876
Pt      8.60468431      6.62028905      4.50148059
Pt      7.16159307      9.00119923      4.56883008
Pt      7.17562761      4.26920276      4.56626586
Pt      8.54085257      1.82484980      4.66669794
Pt      5.72905843      1.89175873      4.60361125
Pt      9.88542457      4.26444315      4.50285256
Pt      9.93873874      9.16729008      4.61273049
Pt      1.65395926      9.13935038      4.72044692
Pt      0.30936726      6.70236364      4.66822355
Pt      2.96626809      2.01405470      4.52362682
Pt      2.97905651      6.74566232      4.60751652
Pt      4.46836989      9.12986914      4.62349148
Pt      4.50852728      4.30487163      4.56135492
Pt      0.32689172      1.84156802      4.60535276
Pt      1.60484156      4.34017414      4.70954343
Pt      7.62029609      2.68137789      7.02168897
Pt     10.48421650      7.82729501      6.96119030
Pt      9.19552886      5.22075278      6.93524832
Pt      9.06577329      0.48984711      6.95971231
Pt      6.20434018      0.44069051      6.84333504
Pt      3.54634254      5.25465733      6.90615407
Pt      3.41749879      0.57076188      6.95513292
Pt      7.78864402      7.67524390      6.95910445
Pt      4.90636496      2.86657105      6.98950525
Pt      2.03757152      2.96914222      7.11186142
Pt      0.85534487      5.32795181      7.08421203
Pt     10.38979130      2.88299497      6.91243328
Pt      6.34018197      5.19479053      6.90166582
Pt      0.74904979      0.69926628      7.06326826
Pt      2.14639848      7.92078946      7.12071105
Pt      5.00483448      7.54233761      6.98640727
O       6.49515478      5.18525599      8.98418703
O       2.28430245      8.16469863      9.42822179
O       0.81860045      5.51297751      9.21699046
H       4.13180742      2.41258268      9.54096125
H       8.72645665      5.42752634      8.79126448
O       0.42589446      0.62159287      9.28732281
H       1.93840581      9.02173185      9.66814773
H       4.34872416      4.05978305      9.38178731
O       9.04051409      0.63327852      9.02807825
H      10.55353720      0.47230778      9.29586077
H       0.51523326      1.54798334      9.66613016
H       1.71723164      5.92541338      9.41413976
H       6.65476415      2.90538832      9.28535603
H       0.83139576      3.85323116      9.82029077
H       8.44563490     -0.08060000      9.44082688
C       7.60537633      5.85385384      9.35552986
H       3.35879688      8.09780889      9.47708409
O       7.60799405      2.75709617      9.23829468
H       5.60116525      8.14562356      9.25522617
H       7.99568022      5.54492086     10.35750124
O       4.80677892      7.70585134      8.96291561
O       4.88106435      3.09626865      9.28758011
O       0.58395999      3.00320074     10.31066617
H       0.82850586      3.19903063     11.25611789
H      10.84557193      8.14325449      9.72674252
O      10.41454369      7.47757530      9.16291032
H       5.07361922      0.27771408     12.72227059
O       5.35429067      0.92504687     12.07753618
O       3.71200620      5.26968760      9.81690376
H       4.49708133      5.82677520      9.60585003
H       7.73207474      6.97980249      9.20788177
H       7.94417552      6.93317608     14.84766714
H       5.94545877      1.61618938     12.44692549
H      11.09736654      6.52441263      9.24871560
H       7.16748848      8.33563063     11.10269900
H       6.26650725     -0.31340625     10.86823549
O       6.91364428      8.84566562     10.33931684
O       8.31209120      7.08257479     15.73454507
H       3.37618897      5.27118421     10.74638308
H       9.11401536      3.75633540     10.45441921
H       9.23779967      6.62478095     15.67518799
H      10.37424939     10.43950597     12.41166588
H      11.15825476      8.30657306     12.55621903
H       8.25387901      3.51285061     11.84120864
O      -0.75254936      8.65989411     12.07131387
O      10.54353290      1.72700814     12.64784959
O       9.14567210      3.58177077     11.44936012
Cl      7.10681799      7.01797615     12.97320472
H       2.50954981      2.13850433     10.69122669
O      10.52206181      5.55148638     12.91293609
H       9.97636424      4.92965008     12.37087961
Cl      2.53642797      4.25307951     12.66005174
O       7.23891849      2.78260477     13.00632587
H      -1.52029958      8.10607260     12.29857676
O       3.13622061      1.37195573     10.48696219
H      11.44479648      5.16510180     12.87306165
H       6.63262529      3.42337273     13.47016006
H       7.82658234      2.46196041     13.71830797
H       9.92253289     12.07155625     12.25463645
H       5.44324149      8.03064293     13.58936444
O       5.54460016      4.60936830     13.83041845
H       4.63943501      4.41736481     13.48594533
H       1.72777344     -0.49084664     13.76853259
H       3.69663712      1.23407269     11.30033723
H       6.81659234      5.99833775     16.04414742
H       2.32834681      1.32485800     15.36561363
H       5.90802806      5.46993107     13.49014762
H       9.39676686      1.74928480     14.22681099
H       5.79045695      5.13390476     15.33121037
O       4.56182921     -1.22031474     13.76554797
H       4.32606803      8.05738030     14.60628198
O       2.36685353      1.06876463     16.32927262
O       1.29439859      8.28195554     13.94431124
O       5.95280217      5.51834549     16.24023223
H       1.61156935      0.42682635     16.51818286
H       3.26339821      6.94335634     16.57793292
O       8.88728025      2.01067708     15.02478931
O       1.96747292      1.28691334     13.54318797
O       4.12007008      7.41796081     16.34985187
H       1.09345729      1.67871434     13.32524518
H      -2.00996947      3.03778399     16.31664766
O      -1.74968628      3.63244549     17.12372342
H       1.99710236      7.50025767     13.88023116
H       8.84768585      1.10530140     15.63513365
H       4.29319079     -0.83594091     17.46878991
H       3.73599446      0.57713496     17.26834365
H       2.53315778      1.89288222     13.15110703
H      -2.61635909      3.76352030     17.56228203
H      -0.94853387      4.99707152     16.34819676
O       4.13847042      0.00674610     17.97268638
H       4.73526658      6.63055015     16.35197779
H       6.43552225      4.35867585     17.58827979
H       5.74915257      0.90468449     18.00903976
O      -0.51704054      5.68856312     15.70302996
O       6.67464323      1.34676430     18.12758449
O       0.43565537     -0.80020099     16.42084717
H      10.57743965      5.41736169     14.72340387
O       7.03958168      3.82381476     18.23626781
H       0.45491580     -0.90071735     15.43548658
H       6.67331650      2.30472389     17.82873965
H      -0.42632737      9.15049310     16.69502724
H       8.67437941     -0.98114800     16.71349424
H       0.96437488      5.94151294     16.49631809
H       3.12599708     -0.51093544     19.11400261
O       8.88152470     -0.02220403     16.82850925
H       6.99026740      4.25738709     19.15041824
O       1.79628341      5.99910009     17.09979978
O       2.82203793     -0.66413700     20.08774369
H       2.40770802      0.14394045     20.35995548
H       8.12259873      9.97003988     17.35721553
O      -1.00894011      2.92618623     19.69037626
H       1.45570635      6.28738921     17.98443566
H       0.71506959      2.27997724     19.81488247
H       2.46784764      4.32715615     17.46520631
O       7.35537703      5.28990464     20.50870763
H      -1.06411800      3.01697840     18.71045622
H       1.98943753      2.57033839     19.00821861
O       1.71676493      2.14440553     19.86694074
H       6.75291053      6.09803873     20.52648580
H       7.68196270      2.10825992     21.51306929
H       2.51327917      2.83322025     16.98660106
H       8.22619404      5.75653957     20.45036960
H       9.24360369      2.60934347     19.98840293
O       2.67527021      3.42099457     17.75803028
O      -2.34651681     -0.69188417     19.99220605
O       7.93138940      1.76763897     20.62066492
H       2.09482219     -2.29527237     19.95903723
H      11.65151748      5.60871131     20.52897169
H      -2.12583554     -0.66707173     19.03646008
O       6.24210859      8.05022741     21.04847250
H      -2.76940317      0.14812564     20.35183217
H       6.79024010      8.55682816     20.41014381
O       1.77434268     -3.22204174     19.81484886
O      10.75128717      5.22459193     20.72931907
H       7.26641294      1.79908606     19.89406231
H       5.30587893     -1.68727653     20.73465736
H       7.03128086      7.93383438     24.00818041
H       2.18380701      2.69237102     21.26516866
H      10.72104852      4.25662237     20.32755182
O       6.79496103      7.00989157     24.35303048
H       2.49729824      5.82013429     20.01650079
H       3.33660455      8.69138688     21.79521883
H       5.86196362      6.73535523     24.04677296
O       2.24470022      2.80714595     22.32672697
O      10.07649620      8.69335505     22.50883805
O       3.33680552      8.75973768     22.75536764
O       7.31777425      2.50224464     23.08469252
H       9.18925428      5.32695206     23.75739533
H       1.75305865      2.10989508     22.79657745
H       2.48673255      9.16356255     23.08466995
H      10.39771351      7.76925893     22.78250107
H       6.35516586      2.59436053     23.37210931
H       7.61551475      3.42238995     23.21522669
H       4.03893006      2.64347760     23.08168473
H       9.66378481     -1.11881680     21.60967942
H       2.01697936      4.21274197     23.03415820
O      10.38150740      6.11462988     23.07025200
H       0.08678245      5.72055043     23.43253692
O       2.01573520      5.20939211     23.34497088
O       4.76955698      2.43344396     23.72948727
O       8.34514990      4.88916970     24.22190661
O       1.11392342      0.41877278     23.44815862
O       4.40771840      6.33096572     23.45305072
H       7.84026367      0.58384100     23.87554433
H       4.56264215      8.98618111     23.84360129
H      12.07097023      0.69263460     24.38564261
H       3.86995813      7.16822994     23.18660885
H      10.33528146      5.75343238     22.08408024
H       7.77432677      5.70236522     24.12965759
H       5.07094517      0.77790035     24.22676721
H       8.79936513      9.03578580     23.58385618
H       4.45713074      2.57170305     24.65066856
H       2.04357082      5.28388907     24.35814171
O       8.01915372      9.25951648     24.14001743
O       5.14838445     -0.20348726     24.46888167
H       0.27542823      0.08770465     23.03955127
H       3.64624268      5.74689965     23.65772265
Pt      2.43833328      9.28529961     26.75189484
Pt      5.19471276      9.19273231     26.58726822
Pt      8.23637613      9.24591421     26.45841842
Pt     10.89764373      9.36888773     26.83087863
Pt      8.36769320      4.41478515     26.42607603
Pt      4.02321080      6.73939327     26.63007208
Pt      9.59828076      6.82169275     26.50242042
Pt      6.81574246      6.82712424     26.67372243
Pt     11.16305410      4.63139376     26.75720236
Pt      1.18569149      6.93130717     26.81299746
Pt      9.47738563      1.90738535     26.55075328
Pt      6.80848731      2.02501054     26.75590635
Pt      2.69927407      4.49655702     26.63852029
Pt      5.31094784      4.43381999     26.65583968
Pt      1.18781810      2.15059654     26.70712320
Pt      3.96566314      2.01172713     26.74920732
H       7.95721547      1.85201993      9.33692116
