   242
 Tv_1:  11.152900   0.000000   0.000000 Tv_2:   0.000000   9.658700   0.000000 Tv_3:   0.000000   0.000000  26.829700
Pt      5.15675635      7.87396524      2.30881179
Pt      6.57054062      0.41607378      2.51683505
Pt     10.75948044      7.93326685      2.52382681
Pt      8.01315917      7.77683003      2.29932836
Pt      7.86886177      2.90980624      2.36484552
Pt      2.23714586      7.77272743      2.35059320
Pt      9.34904623      5.33742190      2.18747826
Pt      6.59793219      5.28024793      2.33085896
Pt      5.12181074      2.93207618      2.38884071
Pt      3.73817018      5.50024294      2.12358104
Pt      9.39140716      0.54220727      2.35982724
Pt      0.85291375      5.50920542      2.17828755
Pt      0.96037051      0.66544056      2.30811565
Pt      2.28342405      3.03381229      2.33167543
Pt      3.75831794      0.51278647      2.32762273
Pt     10.67882838      3.02436979      2.30987596
Pt      5.55200846      6.47502546      4.65296603
Pt      8.38615339      6.47766171      4.64179045
Pt      7.34353727      8.84601476      4.71182753
Pt      6.94681420      4.04976377      4.74407945
Pt      8.37035998      1.59142175      4.85141290
Pt      5.47231989      1.72740135      4.70076247
Pt      9.65099809      4.06509468      4.68566077
Pt     10.03960595      9.06385642      4.75976935
Pt      1.45724499      9.05549347      4.69050061
Pt     -0.01182077      6.56467140      4.77311545
Pt      2.77309855      1.80869350      4.54257680
Pt      2.78875424      6.61857383      4.56426547
Pt      4.34486323      8.88416785      4.56318517
Pt      4.11190690      4.23490768      4.63434709
Pt      0.06969209      1.81214191      4.61265978
Pt      1.31871230      4.36328276      4.48148005
Pt      7.89477569      3.12539676      7.16180584
Pt     10.62443999      7.81332912      7.11297504
Pt      9.25510479      5.47049019      7.08057253
Pt      9.11989255      0.50889869      7.18720112
Pt      6.37413220      0.71918023      6.92490367
Pt      3.63904094      5.60763904      7.00185003
Pt      3.70256549      0.60968338      6.88431236
Pt      7.79600058      7.81268476      7.06658262
Pt      5.12188304      3.02360471      7.08400326
Pt      2.29890656      3.05805891      6.89285245
Pt      0.94129391      5.41254987      6.97367562
Pt     10.58239491      3.07930573      7.01982639
Pt      6.43228511      5.50871787      7.12016172
Pt      0.94494505      0.65155750      7.07387141
Pt      2.29863884      7.85757226      7.02292787
Pt      5.11149043      7.91726575      6.94880062
O       6.59650289      5.59945521      9.09677990
O       2.48609165      8.13561440      9.09828368
O       1.21716218      5.22270912      9.08905333
H       4.11315844      2.31609949      9.62027473
H       8.70027752      5.81475842      9.09040100
O       0.73016972      0.74737001      9.18511503
H       2.01527762      8.95523133      9.38679510
H       4.12271883      3.89013332      9.67968205
O       9.39738178      0.67447638      9.32956966
H      10.88521297      0.69974977      9.39273399
H       1.11662820      1.71892555      9.55567138
H       2.10488819      5.55327317      9.47213881
H       7.57267555      2.96223357      9.70230428
H       1.44626646      3.79142384      9.83828680
H       8.72084231     -0.08096905      9.54404874
C       7.67423631      6.12598130      9.65813267
H       4.02311290      8.15177463      9.35305828
O       8.49293094      3.04448734      9.30453528
H       5.60834386      8.44690504      9.60187473
H       7.83036284      5.67406775     10.70214442
O       4.99419346      7.86840956      9.15794972
O       4.56322518      3.11364411      9.24974550
O       1.54972825      2.84396269     10.24204984
H       2.10363753      2.82680459     11.08258201
H      11.24506338      8.26424762      9.70045076
O      10.69167974      7.57195645      9.25227112
H       6.14887378      2.42620689     11.49633890
O       7.04337588      2.12613794     11.27714481
O       4.08600977      5.27172307     10.23199712
H       5.06202073      5.62556345      9.93606061
H       7.65148050      7.19044553      9.87077288
H       9.97155168      7.34590421     13.96226435
H       7.53190549      2.06298251     12.17468018
H      11.32430317      6.82868348      9.36534252
H       7.08888241      8.89041931     11.50952382
H       6.88459524      0.54598989     10.83367913
O       6.89348416      9.21933795     10.60668365
O      10.79566286      7.34304677     14.46472389
H       4.02022023      5.49043960     11.21738705
H       9.75845637      4.06536598     11.85606274
H      11.15552458      6.44428585     14.44837383
H       9.46573309     10.35022028     12.96740143
H      12.72191962      8.67992412     11.42011046
H       9.19052555      3.80077778     13.25480244
O       0.56573474      8.64298343     11.55113924
O      10.32238654      1.09126845     12.63024955
O       9.73486333      4.45551596     12.76387478
Cl      7.84439919      8.08660264     13.55849855
H       4.17512662      3.59119648     12.63442896
O      11.73066263      4.96681627     14.39116513
H      11.13800709      4.57983440     13.62785546
Cl      3.28975400      5.85053746     12.95423305
O       7.53866750      2.62941058     13.89228394
H       0.50477737      8.02446280     12.31780140
O       4.27415040      2.64091598     12.35961486
H      12.62725210      5.24069392     13.97381043
H       6.86516602      3.35415697     14.01171275
H       7.55382392      2.13164540     14.72648859
H      10.68418879      9.94741315     12.19274711
H       7.95844969      9.60061725     14.95286786
O       5.55221920      4.53924632     14.72325961
H       4.98501750      4.03265072     15.30901939
H       3.59006175      0.21525100     12.35280865
H       4.10213523      2.12378602     13.18065085
H       7.63561284      6.62347915     15.29126199
H       3.99877924      1.86242458     15.91098265
H       4.96987144      4.79393079     14.02610199
H      11.73359456      0.93059826     14.33584097
H       6.77850454      5.33666076     15.55316557
O       7.82688443      0.65829459     15.69841168
H       7.28621693      9.80791281     16.33356676
O       4.06937500      2.55151054     16.60851329
O       3.28816856      9.43657206     11.52574468
O       7.53087429      5.86527419     15.92973918
H       3.20497735      2.96492848     16.77517264
H       5.70157919      8.07957741     16.63954216
O      12.31385338      0.29849592     14.74319098
O       3.81722273      0.81868950     14.42137840
O       6.26081102      8.42233064     17.36004861
H       2.97183587      0.21624284     14.39037291
H      -0.88010806     -0.30535854     17.48411978
O      -0.96369634      0.71609781     17.53488272
H       3.78057132      8.60805906     11.41242491
H      11.74479453     -0.52035165     14.87909259
H       5.11636229     -0.18887402     18.27069387
H       4.36816954      1.25719053     17.86107248
H       4.54845585      0.17018897     14.56883979
H      -1.75041004      0.95992932     16.98234790
H       1.21077260      2.48085959     16.36494052
O       4.60593605      0.59833189     18.54921914
H       6.99138298      7.80430290     17.55718491
H       8.14532295      4.15481155     16.73200418
H       6.01476614      2.13665054     18.77236861
O       1.42958203      3.44360094     16.49775687
O       6.68104676      2.83579101     19.00055644
O       4.99035319     -1.71198114     14.66923327
H      12.28448886      3.84018060     15.64985266
O       8.46395845      3.29344191     17.12587850
H       5.84774717     -1.86531791     14.18079540
H       7.22603431      3.06460487     18.20448452
H       4.25801853      7.42885152     14.27418649
H       9.09102959     -3.02521730     17.04446995
H       0.66294420      4.62002878     17.88796245
H       4.02545877      0.90198516     20.16865479
O       9.99301950     -2.56497349     17.11400265
H       9.25347421      3.51897356     17.74312926
O       0.55766772      5.40448314     18.46016623
O       3.71320127      1.22687214     21.04799076
H       3.07735661      1.92543582     20.79766349
H      10.40936941      7.25717828     16.17048005
O      -0.86853430      2.49693752     19.43651499
H      -0.01563602      5.89882500     17.79117286
H       0.84263385      2.67153476     20.42893496
H       2.20082664      5.72458650     19.54944495
O       7.86473998      6.46379194     19.29111840
H      -0.76403423      1.75368441     18.80311999
H       1.80358452      3.84741194     20.63278902
O       1.63887409      2.94009910     20.94805312
H       6.93239974      6.13797515     19.51298245
H       8.02502117      1.79063586     21.76723516
H       3.50721310      5.29554414     20.27171837
H       8.42553492      5.86409993     19.91284618
H       9.52149710      2.12809067     20.03489462
O       2.56846995      5.44021736     20.42991677
O      -3.03527437     -1.07719041     21.02339604
O       8.27963688      1.65751649     20.77748001
H       1.90891821     -1.71510674     22.64632911
H      10.68556089      5.34282352     19.75278228
H      -3.11939528     -1.81148298     20.27360639
O       6.20321403      7.91717342     22.78009643
H      -2.95335361     -0.13762613     20.62481350
H       6.95947821      8.29851737     22.17415222
O       2.06265815     -2.67281053     22.97765140
O       9.90961594      4.96133303     20.35367204
H       7.66387748      2.11726899     20.12793325
H       6.49396425     -1.46254055     23.70797158
H       5.41300541      5.03157299     21.17156603
H       2.51315385      3.44201740     23.06883497
H       9.82901121      4.05815987     19.97777883
O       5.33626941      5.06199865     20.16251539
H       2.13947068      6.35726871     22.21909884
H       2.99331946     10.03945242     22.17330526
H       5.66464689      4.20354277     19.73859614
O       3.20586804      3.78897328     23.70989421
O      10.01660847      8.25039204     23.08716003
O       2.55846227      9.66374897     23.05485592
O       8.32552489      1.85581330     23.20876826
H       8.58651926      4.70635398     23.91435852
H       2.78521224      3.78084032     24.57853370
H       1.75662310     10.17719741     23.33008677
H      10.27373315      7.28942674     23.16785655
H       7.98374324      2.66170150     23.68098255
H       9.38991225      1.93295785     23.19242861
H       4.96255844      1.60648050     22.25869670
H       9.54256226     -1.24992141     22.14720436
H       3.23254308      7.06935742     23.91118387
O      10.09313780      5.04901282     23.02271455
H      -0.39869058      4.39609192     23.32515374
O       4.08356738      7.09446631     24.52815038
O       5.35444732      1.99023759     23.10686188
O       7.76646954      4.22512887     24.35518505
O       0.00602486      1.01658301     23.56094395
O       5.67822462      5.24039343     22.84854214
H       7.94419871      0.77234078     24.36131827
H       3.72672298      9.59564515     24.18981650
H      11.30426124      1.16702325     24.49806041
H       5.93212205      6.21276924     22.78112963
H      10.07666370      4.93639151     22.00043823
H       6.87751997      4.50936631     23.86494751
H       5.12616717      0.74747670     24.26478259
H       8.71778297      9.07649382     24.27725102
H       4.62101912      2.59323531     23.46871616
H       4.41006545      8.03056957     24.31038575
O       7.82455643      9.44900175     24.54306886
O       4.60135214      0.00587950     24.67372321
H      -0.29567184      0.16392324     23.50514746
H       4.94705847      5.16981030     23.50884543
Pt      2.25236005      9.15407712     26.85141066
Pt      5.04238894      9.22586867     26.74179772
Pt      7.95050926      9.06736041     26.69346722
Pt     10.78403229      9.18745897     26.85410790
Pt      7.87574665      4.41696292     26.59973273
Pt      3.66863569      6.69414955     26.60480848
Pt      9.26370748      6.75457044     26.71228564
Pt      6.48804444      6.81086773     26.91755852
Pt     10.64077255      4.26567551     26.70322943
Pt      0.97850628      6.83475162     26.65658854
Pt      9.17211730      1.92013214     26.79172343
Pt      6.52419727      1.95439481     26.93072842
Pt      2.13125263      4.32040832     26.85404600
Pt      4.99890217      4.28441501     26.81981292
Pt      0.92906159      1.93461797     26.66963191
Pt      3.69878895      1.92298183     26.85600864
H       8.82212129      2.00143805      9.46088142
