   242
 Tv_1:  11.152900   0.000000   0.000000 Tv_2:   0.000000   9.658700   0.000000 Tv_3:   0.000000   0.000000  26.829700
Pt      5.65974326      8.22794773      2.33727075
Pt      7.12306745      0.86634341      2.25926319
Pt     10.97011632      8.04714695      2.52137289
Pt      8.30545084      7.96990967      2.31824806
Pt      8.09560020      3.33326417      2.38893283
Pt      2.76332074      8.05322048      2.37376078
Pt      9.86962137      5.55346759      2.46715888
Pt      6.87206140      5.69350448      2.37256021
Pt      5.39268654      3.29789625      2.34564841
Pt      4.00458354      5.71584199      2.36527795
Pt      9.70856814      0.75413759      2.43040389
Pt      1.28894714      5.62562721      2.52839152
Pt      1.35750475      0.66244232      2.29647580
Pt      2.72998051      3.18663815      2.36369452
Pt      4.18988647      0.70859923      2.38019208
Pt     11.17632304      3.12112453      2.44313007
Pt      5.74218713      6.67755149      4.79838978
Pt      8.54476524      6.50840870      4.67663958
Pt      7.21725609      9.09247520      4.54086122
Pt      7.03577757      4.32160814      4.87176380
Pt      8.45861710      1.87009077      4.69663984
Pt      5.70155365      1.83117849      4.58267504
Pt      9.82729208      4.13865969      4.75009122
Pt      9.87992166      9.13530116      4.93278503
Pt      1.58180299      8.93782117      4.75984501
Pt      0.26275890      6.57862805      4.87910301
Pt      3.02884674      1.70876068      4.56854131
Pt      2.99944226      6.61289026      4.76567900
Pt      4.56089147      9.03115584      4.70345016
Pt      4.33753445      4.19654978      4.64025893
Pt      0.30052706      1.60378018      4.64174204
Pt      1.54765171      4.08491634      4.70866228
Pt      7.55702392      2.75180579      7.06764541
Pt     10.27957464      7.45299185      7.13155343
Pt      8.94546541      5.06600869      7.12370577
Pt      8.77046450      0.37543903      7.08859096
Pt      6.05319929      0.30374293      6.84927052
Pt      3.44956003      5.11674600      7.07683321
Pt      3.33026605      0.34843050      7.02442799
Pt      7.63183508      7.55975493      7.04863683
Pt      4.83920726      2.71837070      7.01203090
Pt      1.88983800      2.75383425      7.02650762
Pt      0.63999239      5.04004871      7.20770202
Pt     10.24449296      2.67482843      6.92010957
Pt      6.18464623      5.17436497      7.23300843
Pt      0.58538241      0.32257430      7.00506200
Pt      1.90906722      7.50521526      7.16284709
Pt      4.77591613      7.55269065      7.05488778
O       6.25067069      5.16724131      9.18184511
O       2.04532233      7.59116049      9.23666043
O       0.65877625      4.97739967      9.27843252
H       4.08325367      1.84196955      9.68504473
H       8.33580623      5.14457749      9.34117498
O       0.32918065      0.20693859      9.06974530
H       1.61915704      8.43276598      9.46657559
H       4.06681536      3.40979788      9.62975894
O       8.68447654      0.36229985      9.19708891
H      10.50849675      0.16244744      9.32660653
H       0.59626099      1.14894725      9.57309963
H       1.50209200      5.31030587      9.65491580
H       6.43504883      2.64079132      9.53255080
H       0.84711680      3.15224402      9.82038681
H       8.15192779     -0.32170995      9.61080932
C       7.43403366      5.66215096      9.70356725
H       3.42892982      7.68949321      9.35476482
O       7.40065603      2.64691166      9.27783042
H       5.14211388      8.27435949      9.53989488
H       7.39401829      5.37404761     10.80574193
O       4.51632869      7.53491772      9.17211498
O       4.62699168      2.63756952      9.43366158
O       0.67680031      2.27459913     10.28932437
H       1.31778766      2.16829155     11.00680250
H      10.45330979      7.78115093      9.89962649
O      10.02239008      7.09475784      9.35870527
H       4.22290448      1.71169562     12.16776759
O       5.16468243      1.42791904     12.29106196
O       3.36392392      4.99044402     10.13189745
H       4.24221758      5.42637051     10.18033292
H       7.51518087      6.78323647      9.71691783
H       8.14373973      6.96840184     12.90988633
H       5.77726200      2.26824794     12.02756970
H      10.53512861      6.25677196      9.53618297
H       6.14837678      8.58482080     11.05020845
H       5.45627118      0.34502740     10.80045092
O       6.04666624      9.32499948     10.34545125
O       9.13143983      6.90712331     12.89167088
H       3.00077402      4.89559953     11.01911573
H       9.39752919      1.61791222     12.20628789
H       9.33651550      5.99009332     13.07880420
H       8.39246466     10.14205426     14.03171018
H      11.67006349      8.13381985     11.82858935
H      10.08686693      2.52604530     11.12788447
O      -0.35799942      8.52641461     11.49971294
O       9.30570052      0.46810311     13.66814530
O       9.33589635      2.49893839     11.78229155
Cl      6.11623201      7.25106642     12.60304043
H       2.77819904      2.96000958     12.36612317
O      10.37729520      4.47478278     13.63501604
H      10.07376587      3.71233999     13.03990543
Cl      2.29560353      4.75365712     12.86494082
O       6.70735778      3.53451569     12.11724895
H      -1.04730181      7.89679385     11.86604494
O       2.70835563      1.98643359     12.22787109
H      11.31994867      4.63038337     13.40838871
H       6.52303705      3.99468453     12.98584536
H       7.62958888      3.21556945     12.20504519
H       9.62260413      9.20956820     13.54157055
H       6.14998400     10.32449224     13.73510797
O       5.88287598      4.75837550     14.50969810
H       5.38625907      3.87406100     14.88849775
H       2.08133117     -2.75264278     12.23537478
H       2.45344481      1.59912438     13.07811004
H       8.38582501      6.43896111     15.50326675
H       3.56081544      2.22076029     15.50484272
H       5.20141299      5.37408255     14.11007146
H      10.40075208      1.02924231     15.05009932
H       6.83305205      5.68495489     15.59737192
O       6.63737154      0.24867763     14.45906622
H       6.55248938      8.96342383     14.20847696
O       4.22050456      2.95177381     15.64959720
O       2.17905819      7.89597356     12.18566750
O       7.55769177      6.19335881     16.05780375
H       3.64019547      3.70104058     15.95123704
H       7.19759328      7.79345781     16.89957507
O      11.07152346      0.91410628     15.80913615
O       2.77380540      0.90493000     14.81319853
O       7.23589686      8.66107233     17.34328433
H       1.85741999      0.75216227     15.16998544
H       0.25349788      2.50093777     16.37393624
O       0.41716588      3.38944594     16.86513340
H       2.55405879      8.03702338     13.05724936
H      10.55041815      0.37696854     16.52735618
H       6.09062886      0.65350419     16.85802156
H       5.46389831      2.05533155     16.68465914
H       3.22418398      0.01549464     14.76970674
H      -0.37438497      3.96189352     16.80643856
H       1.61312931      4.34333900     16.45051425
O       5.88626819      1.48959574     17.38913492
H       8.23896149      8.74480856     17.45051071
H       8.50080349      4.95095672     17.27297236
H       7.56253937      1.78666515     17.94010572
O       2.44416522      4.86990761     16.02341718
O       8.42964258      1.97128581     18.28721902
O       4.07266830     -1.69456050     14.79809835
H      13.32591131      5.08404930     15.01536743
O       9.23639920      4.51438914     17.77213463
H       4.83104107     -2.06248797     14.32734191
H       8.64938485      2.90094339     17.94887546
H       4.08897426      7.50910195     15.65868111
H       9.58366958      0.65625833     18.28915094
H       3.08282483      6.00583312     17.00701518
H       4.55876154     -0.42299439     20.53228598
O       9.93595903     -0.30101098     18.08447692
H       9.15003180      4.83272775     18.73009528
O       3.78206744      6.51998246     17.41295257
O       3.73117482      0.03778033     20.88125616
H       3.92435098      0.99804292     20.61068576
H      10.70232188      9.33452422     18.63046333
O       1.31569916      3.64249529     19.25267980
H       3.31638037      6.98215791     18.15495427
H       2.82819479      3.08349673     19.93613806
H       4.41049458      5.14431793     18.60582344
O       9.35293574      5.19220859     20.30698333
H       1.02236245      3.64240520     18.30163150
H       4.37084909      3.30151061     20.06539306
O       3.61194413      2.69725583     20.43220317
H       8.62985266      5.76926792     20.46248729
H       8.65813493      2.21017475     21.43088949
H       5.61169723      5.41441922     19.65822842
H       9.13587361      4.28587995     20.63518295
H      11.97340163      3.02673980     19.77504825
O       5.03867593      4.67797666     19.21394309
O      -0.03935357      0.69354904     21.48517357
O       9.29179261      2.41060560     20.71212727
H       2.08341600     -0.51689859     20.04050883
H      11.20198336      6.00646546     20.08070581
H       0.34145765      0.05185898     20.76350548
O       6.25155929      9.04416588     19.88086546
H      -0.71366059      1.24102406     21.00704389
H       7.08094017      9.38099640     20.19532982
O       1.16055050     -0.76901208     19.75612801
O      12.11988026      6.15993246     20.17100580
H       8.88760786      2.12172416     19.79493600
H       6.44533958     -0.75552004     18.94473419
H       6.66585159      7.30362115     20.36532572
H       3.04717772      2.99853000     22.09773860
H      12.58200982      5.36329387     19.78534034
O       6.74120185      6.32512588     20.68503004
H       1.06429350      7.86380150     19.72889770
H       3.14761956      9.35999013     22.48955966
H       6.61031260      6.28113911     21.63785516
O       3.01677736      3.47741812     22.99866042
O      10.85607819      9.03296484     23.62289407
O       3.05596662      9.25138603     23.47561021
O       8.09967119      2.11469177     23.10423856
H      10.43957121      5.09261758     23.56155955
H       2.33646529      2.98473939     23.55844652
H       2.52043332      8.42603638     23.62945655
H      11.23549436      8.09224596     23.43650746
H       7.14367526      2.31875346     23.24688651
H       8.52500486      2.99591453     23.25455927
H       4.51143927      3.07875338     23.58768783
H      10.92279847     -0.05795925     22.72599303
H       3.10816821      5.32655382     23.39881997
O      11.50899182      6.25302768     23.18040482
H       1.27791371      6.22091500     23.68545005
O       2.82861723      6.11366413     23.84481262
O       5.38433369      2.66770286     23.94842344
O       9.79142085      4.33829627     23.77572531
O       0.82836804      2.50358675     24.17252317
O       6.85490680      6.49513802     23.48224349
H       8.18548158      0.45511132     24.06952149
H       4.29317051      9.37800772     24.23225176
H      11.13792406      3.02666954     23.99779198
H       7.04639136      7.39419999     23.85521808
H      11.87578861      6.02354105     22.26817911
H       9.91244105      4.50252126     24.78701994
H       5.30429343      0.87734580     24.22650871
H       9.48288344      9.15548665     24.19964798
H       5.46568660      3.10683923     24.84647111
H       3.43098472      6.29311261     24.62917663
O       8.50317980      9.29923621     24.52050329
O       5.27364311     -0.10689406     24.49772945
H       0.58136149      1.58509712     24.00409353
H       7.54155776      5.95587899     23.90375937
Pt      2.44685514      9.50800045     26.80154690
Pt      5.28134170      9.49736181     26.61052636
Pt      8.09355853      9.47982867     26.70756990
Pt     10.95687434      9.41177676     26.86613269
Pt      8.00794311      4.71942262     26.60516757
Pt      3.92208588      7.12084126     26.80738530
Pt      9.49554919      6.99169444     26.86606658
Pt      6.72706176      7.06246117     26.78891620
Pt     10.85979803      4.67006685     26.89856201
Pt      1.12446085      6.96105531     26.81274823
Pt      9.49880778      2.24433761     26.99517003
Pt      6.75234383      2.34958232     26.92386621
Pt      2.38302372      4.63920719     26.93899812
Pt      5.17983355      4.71704531     26.77036443
Pt      1.04005470      2.10739463     26.69481158
Pt      3.85736330      2.27525195     26.90962991
H       7.80432551      1.74848111      9.36428802
