   242
 Tv_1:  11.152900   0.000000   0.000000 Tv_2:   0.000000   9.658700   0.000000 Tv_3:   0.000000   0.000000  26.829700
Pt      5.08654902      7.74967285      2.28028672
Pt      6.57422031      0.52364522      2.22055728
Pt     10.73901977      7.83222549      2.39199088
Pt      7.85218475      7.78433322      2.22959161
Pt      7.77383778      3.01902760      2.35327185
Pt      2.25908897      7.81434183      2.46100555
Pt      9.25445111      5.42311847      2.31074982
Pt      6.49485535      5.38618982      2.27334291
Pt      5.06084645      3.12656188      2.14830999
Pt      3.72541402      5.45403265      2.25664388
Pt      9.29573918      0.51296744      2.41804915
Pt      0.84165951      5.44487771      2.28095753
Pt      0.99704929      0.56522442      2.26183973
Pt      2.23557170      3.06498410      2.15674418
Pt      3.86663920      0.47221795      2.11913694
Pt     10.55361789      2.92580039      2.27762779
Pt      5.77425872      6.63143234      4.77481367
Pt      8.70649641      6.59629002      4.62894462
Pt      7.31677958      9.02886309      4.55161054
Pt      7.16284939      4.23433372      4.67868054
Pt      8.70083340      1.78587919      4.78657039
Pt      5.80770015      1.73345590      4.54980353
Pt     10.05971810      4.16561030      4.55936474
Pt     10.07433900      9.06838978      4.79454063
Pt      1.62161139      9.07321426      4.67744248
Pt      0.33550893      6.58784166      4.66499499
Pt      3.14481414      1.77116716      4.37567450
Pt      3.10007384      6.74358572      4.74776219
Pt      4.44095683      9.02274929      4.50963145
Pt      4.41844460      4.10964863      4.57219926
Pt      0.31900689      1.76119517      4.58571000
Pt      1.73261623      4.15493293      4.56272220
Pt      7.94994839      3.04724966      7.10483867
Pt     10.64421628      7.71329714      7.02175141
Pt      9.39136415      5.33686524      7.02767399
Pt      9.23503427      0.61587409      7.20401481
Pt      6.55200004      0.48096824      6.95452315
Pt      3.81547309      5.39276646      6.95956442
Pt      3.67945222      0.65978074      6.78057935
Pt      7.91001871      7.80246912      7.02423082
Pt      5.09512177      2.95698645      6.99285869
Pt      2.46465817      3.01367391      6.90158914
Pt      1.09608468      5.29760186      6.95562836
Pt     10.72454268      3.01278113      6.88766281
Pt      6.59285440      5.40811048      7.04618562
Pt      0.86499023      0.56695405      6.99928316
Pt      2.37656357      7.88333227      7.00643268
Pt      5.10156593      7.84052279      7.09545893
O       6.51153052      5.41326296      8.98003330
O       2.44181849      8.12267948      9.19103808
O       1.19194677      5.02091515      8.99846200
H       3.81011304      2.55669803      9.38367931
H       8.48250038      5.68321850      9.43732474
O       0.87778601      0.71963174      9.21533451
H       1.85293411      8.94646391      9.18297890
H       4.43278342      4.09015661      9.42894731
O       9.26150017      0.74346165      9.28513364
H      11.12103561      0.72137059      9.53246758
H       1.37122527      1.65934806      9.48367566
H       1.95628131      5.56390994      9.35977097
H       7.61270448      2.92440597      9.73804308
H       1.57143127      3.49676928      9.50239122
H       8.50331993      0.22396480      9.64087324
C       7.49272658      6.05293944      9.73806635
H       3.57216973      8.30680356      9.36425174
O       8.46690445      3.04615780      9.16768059
H       5.65372699      8.82182503      9.57252709
H       7.37761453      5.70102484     10.72323295
O       4.85918064      8.20044617      9.24436040
O       4.69259194      3.06973876      9.24638761
O       2.07311271      2.72547538      9.89799749
H       2.17101008      2.63361270     10.92899918
H      10.17181618      7.77382822      9.96222208
O      10.42532144      7.24717882      9.12658636
H       5.78406526      2.71262725     10.54936973
O       6.69315114      2.57442295     10.96782762
O       3.86461119      5.43440150      9.97782307
H       4.56257687      6.15091346      9.95644595
H       7.43548958      7.16224132      9.70570147
H       8.09695073      7.66533938     14.22114346
H       6.84154184      3.07171379     11.83330351
H      11.16781402      6.64005946      9.39637672
H       6.59820041      9.07887175     11.42736245
H       6.62429160      0.70408758     10.57463017
O       6.65802868      9.41114302     10.44446479
O       8.63078010      7.35718642     15.03375956
H       3.57078962      5.40971921     10.91504386
H      10.67744535      3.48537281     12.32908240
H       9.48875673      7.13639543     14.60724676
H       9.63896717     10.87192571     13.60441681
H      11.67041407      8.36767326     11.46739364
H       9.37239556      4.18363538     12.58937927
O      -0.47347464      8.22722478     11.48085953
O      10.53888227      1.47364416     13.21707200
O      10.17362599      4.37062261     12.07601423
Cl      6.54381967      8.66068010     13.32959687
H       2.46647986      3.57265077     12.94301629
O      10.82843390      6.56240043     13.56300443
H      10.68423459      5.66850294     13.11931065
Cl      2.76768615      5.72085302     12.87352651
O       7.55205555      3.84631535     13.18468114
H      -0.57363333      7.53396228     12.19290231
O       2.44672743      2.71850731     12.48208085
H      11.75161442      6.67567642     13.77957098
H       6.91263570      4.39784941     13.66298735
H       7.89879818      3.09765544     13.75520408
H      10.94514172     10.37832400     12.78744475
H       7.54000492     10.47930671     14.16985478
O       5.77868928      5.62653115     13.87605610
H       4.80696581      5.61648630     13.74074799
H       2.39513485     -0.07363549     12.97442146
H       2.74819597      1.99864363     13.11053038
H       6.60915383      5.64487534     15.97778210
H       4.33943232      3.28745147     16.85289440
H       6.16102408      6.48166895     13.56577470
H      11.12862813      1.81816918     14.80734239
H       5.97532460      4.78095220     17.03837082
O       8.17976974      1.43988136     14.67973965
H       8.38998887     10.44903880     15.39377568
O       5.26592957      3.27304666     17.26075310
O       2.17241851      8.92842509     12.25134898
O       6.71452070      5.44696160     16.92080561
H       5.03396125      3.84426899     18.02174236
H       8.69829553      8.37745730     16.10286585
O      11.62857641      2.01908075     15.67265264
O       2.82821868      1.06140477     14.59337366
O       8.73400797      9.19806001     16.75438015
H       2.11429139      1.52199460     15.11888782
H       0.04999199      3.43329590     16.34543684
O       0.06559036      4.28806185     16.92514479
H       2.70654743      8.13782545     12.55699721
H      11.38360160      1.34033238     16.33933459
H       5.73360410      0.19277828     17.28236298
H       6.16630748      1.56812686     17.69619513
H       3.45530487      0.58903812     15.23729499
H      -0.88725382      4.51822653     17.04368028
H       1.65895916      5.13046511     15.89111465
O       6.39957514      0.61707892     17.89022475
H       7.85800297      9.36092449     17.21849740
H       8.27323536      5.34921770     17.71790987
H       9.77210963      1.66918768     18.33618315
O       2.63864437      5.18814081     15.88783801
O       9.17829267      2.47600029     18.44061523
O       4.60654813     -0.38241345     16.27887410
H      14.05002115      5.53958845     14.92207839
O       9.20825759      5.47080788     18.09666222
H       4.97203282     -0.60711029     15.43494704
H       8.54919287      2.56949999     17.65962614
H       4.16812887      8.45121358     16.55345152
H       9.87014686     -0.01824938     17.27081407
H       2.95330620      6.58908391     16.91043765
H       4.00894897      0.46817299     19.73625177
O      10.69037395      0.42003881     17.71729436
H       9.41633858      6.38780669     17.75474621
O       3.55145147      7.11988989     17.45230156
O       3.26352626      0.49980838     20.33346327
H       2.97792147      1.40544197     20.29184984
H      11.30326065      9.38561377     18.14708946
O       0.46271570      4.41651916     19.46604205
H       2.97349506      7.29921287     18.23965861
H       1.77202077      3.66242201     20.38833722
H       4.14216048      5.76293541     18.72733602
O       9.32948360      3.77538444     20.60248410
H       0.36877186      4.40526627     18.46188866
H       3.36073696      3.76181726     20.42239136
O       2.59817452      3.25079862     20.70392882
H       8.63215735      4.42439007     20.42113106
H       7.44694966      0.58327580     21.32383687
H       5.17171363      5.22907773     19.87701901
H       9.21880652      3.21501278     19.76888238
H      10.73368948      4.21338187     19.86685235
O       4.38864089      5.02337164     19.33255393
O      -1.57422915     -1.55588073     21.50148041
O       7.52710801     -0.03343530     20.58557206
H       2.19464094     -0.63262499     19.07072116
H      11.90859605      6.54129352     21.57225697
H      -0.98647855     -2.05651113     20.82137913
O       5.61314759      7.76532770     21.25304459
H      -2.17610830     -0.84981663     21.08329395
H       6.42729964      8.27433374     21.23623975
O       1.58540047     -1.33359613     18.71360635
O      11.58703008      6.69566849     20.65242723
H       7.13580510      0.24507530     19.77807072
H       5.50854648     -2.03912280     22.22714867
H       6.35851251      6.26129945     21.04088156
H       2.66791985      3.40944220     22.32487022
H      11.68098537      5.78446284     20.10018227
O       6.57347625      5.26621917     20.95689692
H       1.24204562      7.80362787     19.50927498
H       3.17670265      8.83400164     21.98398542
H       6.13428065      5.07173243     21.83581548
O       2.79574179      3.56210452     23.34881230
O      10.96491379      8.98328969     23.67701308
O       3.03985946      8.63018070     22.89996934
O       7.47175429      1.16629644     22.95056652
H       9.11760189      3.26701588     22.25979347
H       2.05653703      3.22360908     23.86547864
H       3.17588405      7.69473364     23.03989494
H      11.52219369      8.31476795     24.06023676
H       6.68128118      1.76796994     23.12742869
H       8.23690171      1.75912630     23.13325353
H       4.16420807      2.81286638     23.50610781
H      10.63956998     -1.08104831     22.87508607
H       1.21855033      5.63624524     23.90894636
O       9.00861476      5.98821090     23.61560845
H      -2.26974712      6.54047742     24.45866060
O       0.67708992      6.24309095     23.40186226
O       5.16241588      2.57203198     23.59660431
O       9.27766458      3.07861714     23.20135010
O       0.45055737      1.95958168     24.26006987
O       4.21890325      5.92872518     23.41495580
H       7.92836515      0.10337206     23.96247838
H       4.23133508      9.18155344     23.73264641
H      11.53016009      0.94556777     24.12328180
H       4.56471593      6.14849476     24.30697268
H       9.04317895      6.68991826     22.85132772
H       8.86433010      3.95225822     23.46763012
H       4.93825844      0.81164166     24.24977309
H       9.25036812      8.98103352     24.45491318
H       5.43656520      2.96741696     24.45797363
H      -0.23365446      5.84163735     23.58649753
O       8.22044025      8.89202323     24.51787273
O       4.95409856     -0.17765418     24.42898281
H      -0.36917806      2.28820025     23.84987220
H       3.52114759      5.19719855     23.59431873
Pt      2.04586533      9.27254748     26.70536361
Pt      4.66140418      9.24752260     26.47785785
Pt      7.72937072      9.27001588     26.67370486
Pt     10.47577081      9.39999216     26.99744039
Pt      7.59775808      4.48201545     26.63626631
Pt      3.44281939      6.81584634     26.69251070
Pt      9.05932408      6.82204392     26.81042528
Pt      6.13011937      6.84301498     26.77798116
Pt     10.43635024      4.41532812     26.87086209
Pt      0.63945748      6.82607332     26.76210559
Pt      8.93457136      2.06313689     26.78448075
Pt      6.23300067      2.10044867     26.70434686
Pt      2.03253825      4.55847934     26.71172235
Pt      4.69201163      4.44715044     26.65720698
Pt      0.66662731      2.11171027     26.52220761
Pt      3.43063016      2.15743441     26.80234046
H       8.89281722      2.01272353      9.32089001
