   242
 Tv_1:  11.152900   0.000000   0.000000 Tv_2:   0.000000   9.658700   0.000000 Tv_3:   0.000000   0.000000  26.829700
Pt      5.48822694      8.02991706      2.21699223
Pt      6.88282952      0.86711956      2.26168165
Pt     11.11121978      8.01136618      2.43974414
Pt      8.25775625      7.98808121      2.18370544
Pt      8.29434841      3.17747775      2.37851396
Pt      2.76466657      8.08783906      2.33466608
Pt      9.76229158      5.44706952      2.28239072
Pt      6.88829174      5.48015843      2.30999689
Pt      5.45160166      3.21769783      2.34637783
Pt      4.05583244      5.62720512      2.35132224
Pt      9.72994625      0.63928419      2.36982204
Pt      1.22139165      5.64110668      2.42330320
Pt      1.36444288      0.69573616      2.30957724
Pt      2.77844310      3.15535621      2.22988728
Pt      4.16082177      0.77888675      2.21109191
Pt     11.17910552      3.12611195      2.32677829
Pt      5.61373659      6.41398569      4.60768433
Pt      8.44202117      6.51465324      4.43075862
Pt      7.14446404      8.92001165      4.40147441
Pt      7.27571094      4.06873139      4.66729134
Pt      8.61235505      1.62893453      4.70716798
Pt      5.68035202      1.69077057      4.52470753
Pt      9.95160664      4.04596882      4.62404227
Pt      9.88776755      8.95416048      4.69779376
Pt      1.61418489      8.91119710      4.65970885
Pt      0.09780454      6.49781355      4.84089032
Pt      3.03191993      1.71466766      4.60560512
Pt      2.97193288      6.59082766      4.60756885
Pt      4.50380598      8.96012955      4.53625112
Pt      4.25882987      4.11611722      4.66879302
Pt      0.25350120      1.59641221      4.71742848
Pt      1.40683154      4.05808589      4.50870683
Pt      7.42046826      2.53403921      6.90029013
Pt     10.19845817      7.45339553      7.03597380
Pt      8.62041062      4.97211086      6.82043758
Pt      8.88517055      0.17162965      6.99492554
Pt      5.96627680      0.20098762      6.69058908
Pt      3.04099403      5.05384858      6.81936703
Pt      3.19188140      0.30269497      6.80698280
Pt      7.54223500      7.48702182      6.77376892
Pt      4.50242338      2.54623185      6.92666269
Pt      1.75506186      2.77339794      6.95411888
Pt      0.31871715      5.07463477      7.09995695
Pt     10.16505476      2.71507562      7.02244021
Pt      5.79487878      4.94343843      6.91294950
Pt      0.46829326      0.29774102      7.10243917
Pt      1.75011946      7.56557561      7.06512785
Pt      4.50838538      7.42245626      7.04863413
O       6.24289645      4.70856460      9.41029922
O       1.57913573      7.57128032      9.27716622
O       0.48401072      4.95045015      9.17886869
H       3.65819295      1.86186533      9.49129837
H       8.20552536      5.30962313      8.34174022
O       0.63643388      0.25112766      9.24414457
H       1.21719109      8.57021571      9.45487086
H       3.91334265      3.38329788      9.36101003
O       8.43651846      0.05960990      8.97160062
H      10.82609552      0.13070689      9.64636403
H       1.04931182      1.05589747      9.69606250
H       1.43842544      5.09268721      9.33512921
H       6.89011133      2.88746239      9.27591043
H       1.22261022      3.08550633     10.12503213
H       7.67368742     -0.54979525      9.18358823
C       7.23843208      5.43978596      9.62556106
H       2.54164741      7.56074630      9.50300231
O       7.59940363      2.32840356      8.91487855
H       5.00482167      7.63207935      9.47323882
H       8.12061322      5.11221526     10.20897556
O       4.08521123      7.41567242      9.08406135
O       4.37824793      2.52775354      9.24236290
O       1.74642041      2.25834333     10.21354061
H       2.03883564      2.16868835     11.17270590
H      10.25210738      7.55297294     10.01224076
O      10.05169671      7.02765605      9.20627943
H       4.15337458      1.02248241     12.14883699
O       4.89882905      0.76306198     11.59802453
O       3.48780390      4.94029156      9.73326478
H       3.97919317      5.75703243      9.48273811
H       7.28772490      6.53677775      9.46495027
H       9.11070800      6.80912537     13.93440584
H       5.57417583      1.22416357     12.06708367
H      10.77707852      6.34137345      9.38240749
H       6.88883675      7.84405218     11.05476837
H       5.95831012     -0.55756927     11.04312440
O       6.41927961      8.46953353     10.44832264
O       9.47392617      6.64908371     14.88738304
H       3.47500628      5.08352940     10.68935654
H      10.60318027      3.78177641      9.38484223
H      10.45096620      6.42307302     14.81380405
H       9.98618840     11.09107740     12.34814181
H      11.04428768      8.71992238     11.90271309
H       9.17023464      3.00780759      9.33495477
O      -0.97105613      9.14786044     11.52929123
O       9.68792063      2.02370047     13.06359983
O      10.13347542      2.88365882      9.27352385
Cl      8.05062307      6.61621806     12.29030438
H       2.79367422      2.98144666     12.95624615
O      10.48211481      4.31665826     12.32136318
H       9.64051574      4.78336131     12.18636004
Cl      2.63850762      5.18866539     13.23091760
O       6.79678713      1.74792170     13.88004057
H      -1.69312162      8.62685306     11.75681302
O       2.70499020      1.95466138     12.81247818
H      10.88961090      4.82717709     13.05699358
H       6.39064072      2.62421916     14.00280532
H       7.66113068      1.80954787     13.32435614
H       9.78985777     12.61741915     12.75338710
H       4.71577586      8.53049813     12.94255057
O       5.75914026      4.01809596     14.69120069
H       4.98730039      3.77999411     15.27971293
H       1.58912212     -2.39318550     12.75906430
H       2.25394325      1.62944007     13.66979911
H       8.39986210      5.77277934     15.89211528
H       2.95048553      2.59671471     15.99842078
H       5.39445738      4.64348506     14.04094530
H      10.09665625      1.57853739     14.59462344
H       7.14903654      4.79557547     15.86802132
O       3.84374727     -1.40923976     13.33979735
H       3.90418131      7.22881145     13.24345041
O       3.79707497      3.12532894     16.18663885
O       1.32237787      8.14212938     12.46264205
O       7.76474649      5.28771009     16.51033042
H       3.47966419      3.89148786     16.77891192
H       5.83241131      9.54667430     16.09565514
O      10.44142547      1.17350798     15.47403481
O       2.02113623      1.14556018     15.15050833
O       6.69573290      9.97659565     16.06481190
H       1.07567778      0.98629816     15.39653919
H      -0.85047754      2.54576373     16.36652869
O      -0.78324134      3.43611036     16.84923542
H       2.04505670      8.73823914     12.68779702
H       9.85492931      0.36446088     15.79505738
H       6.38857701      1.69801669     17.13227243
H       5.07442886      2.54648454     17.58850860
H       2.60335160      0.50769984     15.61922987
H      -1.74739097      3.69019663     16.98764649
H       0.29497901      4.58700915     15.85853594
O       5.83637406      2.01909049     17.93598922
H       6.67064485     10.52387647     15.19670745
H       7.05951345      6.00785965     17.82541340
H       6.69480672      3.04896550     18.85438986
O       0.55247211      5.40968444     15.42742469
O       7.03586182      3.58817188     19.58774439
O       3.96977734     -0.68650430     16.01357928
H      12.44067016      5.21058828     14.76010518
O       6.56298177      6.06234221     18.76238787
H       3.97986408     -1.18857624     15.11655465
H       6.91846922      4.55311818     19.37542176
H       3.73495878      8.34174934     16.67990187
H       8.15588263     -0.47995775     16.37264908
H       1.17104407      6.43529776     16.74339784
H       4.31399785      0.72884256     18.40437116
O       9.07227686     -0.84769603     16.49590860
H       6.95335822      6.72533748     19.32037349
O       1.66504677      6.88811011     17.44806756
O       3.37622167      0.51706776     18.80362971
H       3.07372095      1.38716977     19.20269617
H       9.33263359      8.12472394     15.82804321
O       0.03213939      3.51734413     19.32692167
H       0.91405903      7.37350963     17.83338969
H       1.61469300      3.26726715     19.49006095
H       3.10563891      5.78648382     18.39582387
O       7.80518957      7.50848321     20.68144025
H      -0.19494431      3.39541492     18.35069169
H       3.06556997      3.83141338     19.45338326
O       2.58024353      3.02317499     19.72235419
H       7.18297232      7.22588130     21.40201832
H       8.70664993      2.33367467     21.70981880
H       4.66770311      5.50374108     18.71937192
H       8.43180962      6.74905408     20.70430548
H      10.57339351      2.87423708     19.77935621
O       3.79257964      5.09109834     18.50506212
O      -1.52092110     -0.13061396     20.94947814
O       9.10458021      2.47553956     20.81750373
H      -0.37682517     -0.92367443     19.63876018
H      10.37258652      6.62245713     20.03778980
H      -2.27201129     -0.78909276     20.77162916
O       2.59842747      8.34649087     20.75612857
H      -1.80148621      0.84790698     20.88040020
H       1.89071584      7.73182630     20.38349346
O      -0.29338130     -1.47776019     18.89089529
O       9.98113518      5.88471436     20.54304488
H       8.32868578      2.88558261     20.21338463
H       2.72641747     -0.65447142     19.96630768
H       6.58177720      7.95274761     23.70580303
H       2.76722467      2.91533483     21.46416481
H      10.33092899      5.07017792     20.16483347
O       6.38884851      7.03324828     23.44764137
H      -0.98243561      8.56349221     18.29731597
H       2.97887504      9.01353395     22.31477095
H       5.41555675      6.88359901     23.76547423
O       2.76579000      2.87845779     22.49130280
O      10.42153234      8.94218949     23.33171977
O       3.10845466      9.11732256     23.30913342
O       7.77877207      2.21105487     23.49731104
H       9.29544361      5.70183362     24.14894710
H       2.14764594      2.15437070     22.75071067
H       2.33910006      9.58381570     23.64390018
H      10.67781782      8.00475691     23.61981591
H       6.84235482      2.66723577     23.44924112
H       8.38015194      2.69395469     24.03908016
H       4.19644123      2.93945427     23.22974064
H      10.10595108     -0.67567782     22.34745908
H       2.11643710      4.35387575     23.03556817
O      10.56995868      6.27001681     23.28189038
H       0.30047533      5.81855976     23.48046159
O       1.80565313      5.11022700     23.60263383
O       5.18087502      2.88213682     23.63945857
O       8.38438162      5.16888940     24.39207475
O       1.28974706      1.09244223     23.56545226
O       3.79197407      6.90958867     24.44691979
H       8.02763232      0.82304444     24.25891552
H       4.49531240      9.71099706     24.00249318
H      12.33531063      1.64794788     24.39431125
H       3.21130064      6.16332450     24.09307467
H      10.43896357      6.11139995     22.29218151
H       7.71235624      5.87791456     24.32367758
H       5.52799115      1.19755833     24.20375216
H       8.98296321      9.25493437     24.12238588
H       5.13085591      3.26544525     24.52292528
H       1.64627747      4.74543129     24.51837958
O       8.14683176      9.54093083     24.51298596
O       5.43660327      0.22769699     24.38425323
H       0.55225183      0.37685176     23.68461651
H       3.42324300      7.77808576     23.93867533
Pt      2.64154202      9.64022407     26.79287391
Pt      5.55551901      9.55665703     26.65456606
Pt      8.29582464      9.38443711     26.70726140
Pt     11.05746040      9.55723712     26.86550148
Pt      8.20778245      4.76146870     26.53499852
Pt      3.96004001      7.07271231     26.62694171
Pt      9.70563898      6.98572360     26.91372430
Pt      6.65096598      7.09775050     26.78822531
Pt     10.94023224      4.57970293     26.70850698
Pt      1.25202661      7.06660699     26.97568827
Pt      9.65216320      2.29205109     26.85427678
Pt      6.74812533      2.31131032     26.84990199
Pt      2.46918525      4.71880770     26.86285628
Pt      5.50534173      4.79865805     26.91544465
Pt      1.26935827      2.35265815     26.69110208
Pt      3.97644168      2.35970092     26.78645744
H       8.05998390      1.05585314      9.19767315
