   242
 Tv_1:  11.152900   0.000000   0.000000 Tv_2:   0.000000   9.658700   0.000000 Tv_3:   0.000000   0.000000  26.829700
Pt      5.45137590      8.09298788      2.19068779
Pt      6.94355573      0.84656561      2.46509674
Pt     11.03276816      8.07275225      2.36284088
Pt      8.14281575      8.14689114      2.12735852
Pt      8.53147347      3.22117963      2.36092255
Pt      2.74909602      8.11230440      2.30636801
Pt      9.86058383      5.65106223      2.31286869
Pt      7.13954974      5.44237124      2.31423805
Pt      5.55639117      3.16401236      2.36562402
Pt      4.32722705      5.63171474      2.35786435
Pt      9.64092770      0.79352827      2.51724209
Pt      1.35575231      5.72413364      2.45439977
Pt      1.26052439      0.76971777      2.31431782
Pt      2.74505571      3.05382808      2.35699518
Pt      4.15805752      0.81640525      2.32314878
Pt     11.21505262      3.28225894      2.34020342
Pt      5.78529824      6.62790932      4.44133357
Pt      8.66131685      6.70164705      4.62905087
Pt      7.29934983      8.95935803      4.71338956
Pt      7.25748602      4.08921309      4.66244228
Pt      8.66061378      1.80215098      4.79540222
Pt      5.89088557      1.64250302      4.73935661
Pt     10.08292815      4.28018577      4.69865152
Pt     10.05655139      9.07069183      4.75857962
Pt      1.65947023      9.08394052      4.67086085
Pt      0.31592307      6.67788287      4.67370950
Pt      3.18262089      1.80701774      4.66125437
Pt      3.02456887      6.64375049      4.68664128
Pt      4.49142011      8.94806944      4.57248413
Pt      4.52575532      4.18239597      4.68356155
Pt      0.33282954      1.82212962      4.73631610
Pt      1.62447636      4.22096231      4.67841075
Pt      7.45107121      2.84196873      7.18348256
Pt     10.34743841      7.59732848      7.16103444
Pt      8.77789384      5.18721848      6.95395837
Pt      9.10099692      0.25722468      7.17899824
Pt      6.22621235      0.39218034      7.04096127
Pt      3.32191678      4.98851892      6.92977714
Pt      3.44492487      0.31557412      7.04988092
Pt      7.64252459      7.58308226      7.04627197
Pt      4.72243138      2.75962329      7.00390174
Pt      1.84620153      2.76842409      6.90456099
Pt      0.48752933      5.12040309      7.04931593
Pt     10.18100156      2.83502671      7.00009087
Pt      6.02332137      5.33021283      6.75675212
Pt      0.72153268      0.45301091      7.06663959
Pt      2.17998621      7.62320762      7.05576466
Pt      4.93833930      7.68882813      7.06968754
O       9.12261696      4.87078626     10.78614201
O       2.19628152      7.57132604      9.13919421
O       0.68281198      5.09801383      9.18941579
H       3.69678765      2.76427878      9.57389098
H       8.76631695      5.23397566      8.57358923
O       0.49426743      0.42743355      9.29375007
H       1.74922054      8.44343647      9.37662464
H       4.83845791      3.90054163      9.51365695
O       9.06259598      0.27463678      9.23779197
H      10.66462592      0.36538396      9.54482793
H       0.83333069      1.30342025      9.62785583
H       1.55146995      5.55480759      9.37524555
H       6.66149227      1.86106533      9.65342417
H       1.39456543      3.75125247      9.63255711
H       8.74119741     -0.56401890      9.59255653
C       8.04005886      5.25065970     10.35122853
H       3.63340705      7.68484249      9.25016638
O       7.47584818      2.29924794      9.31777854
H       5.03509788      8.48649743      9.44739199
H       7.77025075      6.31296861     10.31650069
O       4.68855574      7.56337291      9.16651517
O       4.60835375      2.95733395      9.26442455
O       1.89115803      2.93246396      9.87338163
H       1.76230844      2.95188976     10.81982733
H      10.44677446      7.78939302     10.10013454
O      10.38539614      7.17291651      9.32067185
H       3.00929683      1.53937325     12.06910080
O       3.75952628      0.93907006     11.87577524
O       5.15024717      5.32750233     10.48045411
H       5.06312464      6.22485979     10.09314313
H       7.26358245      4.52954143     10.02212692
H       6.79236324      7.40850945     14.67189699
H       4.37648165      1.25031168     12.66133894
H      10.90149432      6.28441119      9.45117447
H       6.40150631      9.27669990     10.63590537
H       5.18328010      0.54309277     10.70790505
O       5.83983779      9.88773893     10.01176839
O       7.51474265      7.00948863     15.28468268
H       4.54753737      5.38680596     11.19792454
H      10.80491587      2.51168384     11.67689003
H       8.14117172      6.64494172     14.69967315
H       8.08974051     10.01993814     13.23601532
H      11.19089748      8.63837148     12.17800509
H       9.49770194      3.29997920     11.57472105
O      -0.71420551      8.76511793     11.55492072
O       8.26761411      1.26220244     13.56254133
O       9.83304070      2.40317489     11.51542070
Cl      7.35613288      8.20617599     12.00401827
H       2.01136655      3.30865369     13.02826569
O       9.35046090      5.99505204     13.63029633
H      10.32352573      5.95307086     13.63625319
Cl      2.95421782      5.07286938     13.16586808
O       5.55070852      1.14873297     13.89523852
H      -1.55873177      8.56313774     11.98320556
O       1.47779357      2.53133099     12.72431124
H       9.03883603      6.02946184     12.66967364
H       5.20085311      2.00142157     14.38065892
H       6.44724364      1.43312174     13.58236838
H       8.89655824     11.43050334     12.93070001
H       5.23629169      9.08339978     14.29307997
O       4.81677030      3.30940209     15.07263317
H       4.13019321      2.78230344     15.72091080
H       2.91523281     -2.05366932     12.90967681
H       1.50134467      1.80116927     13.43404203
H       6.66436598      5.84717493     16.24294280
H       2.50499439      1.63192836     15.80922260
H       4.19776686      3.75542581     14.39456135
H       9.60996006      1.13577690     14.92244884
H       5.80436751      4.53014014     15.89666946
O       5.04455826     -1.52838869     14.04975406
H       5.34468558      8.08686395     13.10563976
O       3.09135555      2.02281249     16.49372812
O       2.42263163      8.45170741     12.73172043
O       6.03158722      5.19067792     16.59419870
H       2.48010672      2.65462019     17.07457944
H       4.33369898      6.07094214     16.74285065
O      10.15968580      0.71076700     15.62168303
O       1.56843317      0.72362817     14.59829044
O       3.87831776      6.94576694     16.57001565
H       0.69527844      0.66171502     15.02881104
H      -1.41785334      1.67340385     17.05061486
O      -1.26536292      2.47693394     17.62218716
H       3.11911639      9.10006935     12.41863211
H       9.69819119     -0.08191430     15.78633524
H       4.23395941     -1.06437881     17.99085732
H       4.29628252      0.46785293     17.51271211
H       1.70100715     -0.14006191     14.13660364
H      -1.99450344      3.03007738     17.92560806
H       0.61540587      3.47831863     17.08824071
O       4.64174830     -0.17629198     18.20715206
H       4.39796970      7.29854486     15.76716887
H       6.93412206      4.23164624     17.70609112
H       6.32975851      0.47002738     18.56729310
O       1.41460662      3.98080242     17.30740409
O       7.21819279      0.72650328     18.92607448
O       1.57317428     -3.65688474     15.72787789
H      12.59287609      4.74568199     16.63737429
O       7.25356039      3.63583500     18.45648568
H       1.67750466     -3.89703324     14.77397453
H       7.17632548      1.73436349     18.81373455
H       2.46374563      6.23478248     16.03990362
H       8.19499693     -0.31840208     17.82461725
H       2.12855966      4.86522794     19.00099450
H       4.18956661     -2.04995438     20.57446894
O       8.66302604     -0.98479848     17.27350129
H       7.45913166      4.24122627     19.25254425
O       2.34016037      5.00429729     19.96482634
O       3.70321711     -1.13559765     20.65024422
H       3.98251774     -0.41750944     20.04173591
H       8.02547664      8.19343858     16.73501759
O      -0.29408856      2.51123686     20.06457104
H       1.68520010      5.72115657     20.11074337
H       1.59735645      2.19118575     20.37212876
H       4.12760839      4.24512302     19.02560208
O       7.52909273      5.31529673     20.56693802
H      -0.50069311      2.46069366     19.09823005
H       3.18775539      2.29061668     19.98415244
O       2.52367801      1.83212833     20.57786805
H       7.55293285      4.67846324     21.32189321
H       8.42607990      1.68648572     21.64805121
H       4.96036478      3.10965571     18.51829271
H       8.53534979      5.50735589     20.43102503
H      10.31923754      1.86198571     20.58825846
O       4.36786817      3.31737787     19.21634108
O       0.38089763     -1.93808442     17.82226366
O       8.79224194      0.93256366     21.09570209
H       1.72886880     -2.00325018     20.49468783
H      10.70750215      5.76676206     20.70541467
H      -0.56812584     -1.75118173     17.79093923
O       5.06302642      6.20265670     21.07771573
H       0.50856679     -2.43774423     16.96271719
H       5.92974779      5.93764950     20.59118886
O       0.80804288     -2.38085095     20.28358659
O      10.18876924      4.95783136     20.85643533
H       8.19165348      0.76999112     20.31264427
H       4.35451339     -4.13800352     21.08468578
H       6.13981437      6.39421873     22.84709191
H       2.75287557      2.52187058     21.92564867
H      10.54707825      4.09882022     20.42366259
O       6.94252339      6.44645945     23.38817316
H       0.71501713      7.38877434     19.27179702
H       3.33249358      8.97271244     21.99784708
H       6.74997272      7.11792029     24.12414587
O       2.79828731      2.90153197     22.88179654
O       9.76481586      9.00778865     22.92867364
O       3.31919429      9.09692847     23.05886123
O       7.41953298      3.26367665     22.30646720
H       9.21948718      4.98052462     24.23581304
H       2.18914592      2.17747588     23.36843062
H       2.40552447      9.48863951     23.22396154
H       9.74129896      8.01599132     22.92548088
H       6.48471794      3.08937995     22.57125460
H       7.81403599      3.42013770     23.19513283
H       4.18994246      2.99425224     23.54948489
H       9.28805597     -0.36368096     22.09785563
H       2.23056395      4.94573739     23.30211843
O      10.21156043      6.14363967     23.49541791
H      -0.02141944      6.04708561     23.85663061
O       1.96481711      5.54209077     24.02691506
O       5.15911935      2.96978470     23.96744279
O       8.34171087      4.51676716     24.60866289
O       0.99112195      0.96692984     23.56910351
O       3.97311058      7.11912978     24.51732454
H       7.14963139      0.28129929     24.39264499
H       4.77462964      9.73126858     23.86872628
H      11.95243108      0.74787060     24.51044245
H       3.27563646      6.41818894     24.36289480
H      10.20512420      5.66748442     22.61413840
H       7.66187698      5.22739837     24.25847458
H       5.39905567      1.55369211     24.32450216
H       8.80442274      9.44589531     24.02602006
H       5.06538362      3.63290943     24.66745419
H       1.76257868      4.95039489     24.80173364
O       8.14033163      9.91308373     24.68320576
O       5.53544068      0.53298548     24.37313391
H       0.16222650      0.63515536     23.19749667
H       3.69316877      8.00538483     23.99032197
Pt      2.59108484      9.43376924     26.78156231
Pt      5.29020176      9.52898385     26.81071722
Pt      8.14448259      9.39639260     26.73619472
Pt     11.14150318      9.47804692     26.72645754
Pt      8.04362794      4.53181656     26.79506854
Pt      4.05024930      6.98292301     26.72266830
Pt      9.61071389      6.97405338     26.91610192
Pt      6.79148676      6.95534583     26.83946164
Pt     10.95957959      4.63116886     26.70590230
Pt      1.21993855      7.10333517     26.82189836
Pt      9.55959237      2.15318437     26.99565438
Pt      6.71024233      2.13792434     26.94093442
Pt      2.50258744      4.72530094     27.06283541
Pt      5.31220151      4.58513605     26.87731211
Pt      1.14682489      2.28003670     26.85881485
Pt      3.90757270      2.26520975     26.78519586
H       8.11512419      1.55366146      9.51264261
