   242
 Tv_1:  11.152900   0.000000   0.000000 Tv_2:   0.000000   9.658700   0.000000 Tv_3:   0.000000   0.000000  26.829700
Pt      5.44551210      7.86828616      2.25867514
Pt      6.69283431      0.79317514      2.25325169
Pt     10.96635818      8.05355828      2.31861179
Pt      8.15904389      8.02035159      2.33482193
Pt      8.24412305      3.27064187      2.32113962
Pt      2.68163127      7.99351239      2.49523442
Pt      9.58393370      5.62191215      2.26830733
Pt      6.94153302      5.53801711      2.22996112
Pt      5.48115619      3.19422705      2.29987907
Pt      4.09344543      5.64660394      2.33800605
Pt      9.66690619      0.88604730      2.38785122
Pt      1.23896398      5.69302365      2.36872127
Pt      1.27197046      0.85123775      2.32330595
Pt      2.71614254      3.12456624      2.35217115
Pt      4.02412334      0.77855553      2.26148023
Pt     11.09263204      3.24924500      2.29214642
Pt      5.79437489      6.62389489      4.65277251
Pt      8.73079764      6.64979532      4.52906414
Pt      7.09470402      8.93247447      4.59536181
Pt      7.17561546      4.18280163      4.65854481
Pt      8.51122404      1.82968674      4.63714320
Pt      5.73530620      1.76608085      4.70603437
Pt      9.88359948      4.27881578      4.60712765
Pt      9.76519365      9.08289150      4.71327299
Pt      1.42072393      9.16894335      4.67876882
Pt      0.31814017      6.62343891      4.75896058
Pt      2.88919135      1.76903181      4.64665385
Pt      2.98604755      6.57943166      4.78287874
Pt      4.37584612      8.90922919      4.59050922
Pt      4.40382543      4.23734288      4.57269721
Pt      0.18703671      1.78236973      4.64831381
Pt      1.50613476      4.24396252      4.71179867
Pt      7.75771493      2.78689310      7.02246488
Pt     10.32698790      7.67899652      6.98209261
Pt      8.91715029      5.28663942      6.90818920
Pt      8.83530592      0.34305258      7.08713313
Pt      6.18170072      0.32526678      6.95616936
Pt      3.43241391      5.21887809      6.97693617
Pt      3.48644502      0.47960070      6.91875063
Pt      7.47703907      7.62508981      6.94447229
Pt      4.83146446      2.73189897      7.11165288
Pt      2.01983299      2.80660080      7.02375437
Pt      0.63961024      5.30906551      7.20143891
Pt     10.45658966      2.92334971      6.90933581
Pt      6.13096023      5.27302205      6.91027707
Pt      0.59721959      0.50196310      7.14500394
Pt      1.95369478      7.63584207      7.23624893
Pt      4.74322540      7.67088975      7.09771670
O       6.28743345      4.99615911      9.74801818
O       1.98362312      7.90620153      9.34314448
O       0.59491214      5.26168461      9.25093527
H       3.49934618      2.50407718      9.52661926
H       8.84101205      5.13638436      8.50715544
O       0.30014217      0.55007443      9.25059302
H       1.49597483      8.75048745      9.52104341
H       4.19223951      3.81606175      9.56062576
O       8.83533351      0.41448120      9.12219685
H      10.39929433      0.52005353      9.38083897
H       0.70118267      1.26524300      9.84192244
H       1.49989562      5.37361797      9.50809456
H       6.94212084      2.65954877     10.01417706
H       1.42090609      3.09514504     10.27292734
H       8.23161359     -0.35970811      9.34024872
C       7.21603553      5.79894522      9.84689796
H       3.56283388      7.82722303      9.38425150
O       7.69198365      2.61563128      9.41015664
H       5.21220300      8.17743699      9.77469578
H       8.15742031      5.50449918     10.36110639
O       4.53918369      7.59399242      9.28311283
O       4.29905341      2.86172199      9.23717844
O       1.92593320      2.29147010     10.39854672
H       2.20144783      2.17077672     11.38881521
H      10.26831465      8.09572854     10.02233270
O      10.20845845      7.49048154      9.20542286
H       4.82994732      1.81231849     12.49523434
O       5.63299661      1.21861101     12.38305057
O       3.47855872      5.25843369     10.30818694
H       4.18486382      5.91474444     10.10432558
H       7.22691841      6.85785998      9.45996744
H      10.57564649      4.21259424     14.56952122
H       6.10529307      1.11669373     13.27120669
H      10.78680157      6.66650826      9.44170315
H       6.60909731      8.52962448     11.18398332
H       6.05663089      0.29220768     10.72875318
O       6.39688034      9.07717967     10.35717549
O      10.62848023      4.34354224     15.56194763
H       3.70811988      4.96853260     11.24413172
H      10.85576154      4.12642853      9.81485793
H       9.95014213      5.09238545     15.69935727
H      10.04426089      9.79970808     12.83971508
H      11.03306596      7.88603312     11.99577317
H       9.55172413      3.17731514      9.90057917
O      -0.87472040      8.50612600     11.74656604
O       9.94710647      0.76416934     13.65656994
O      10.42753020      3.36263869     10.36783236
Cl      7.66680366      7.06180348     12.56115199
H       3.29043617      3.05249302     13.02485779
O      10.16246768      3.29274171     13.01576979
H       9.20788167      3.48247220     12.69329138
Cl      4.52683397      4.72453272     13.13311530
O       7.35219771      0.99309364     14.65366505
H      -1.69666855      7.97612096     11.95897587
O       2.99291646      2.11426816     12.70870005
H      10.51231685      3.49660392     12.10271037
H       7.14396680      1.81376337     15.19147498
H       8.34218510      1.01450085     14.50434288
H      10.21879998     11.34361268     13.40308947
H       4.41716352      9.29336839     12.75386569
O       6.27223092      3.43183267     15.92635802
H       5.45952883      2.85131627     16.15326597
H       1.87333512     -2.72872382     13.19992449
H       2.65277368      1.69764190     13.49986930
H       6.61038055      3.18522912     12.45924279
H       3.45980392      1.31185623     16.13153485
H       5.96092170      3.81874521     15.02366653
H      10.69937597      0.28524551     14.88558281
H       6.99158271      4.67360555     12.60018523
O       3.81857904     -1.09202204     13.07857252
H       4.40625707      7.82334734     13.11044536
O       4.11087656      1.83132217     16.64050378
O       1.30691471      7.08347972     12.37527491
O       7.36465128      3.74185741     12.45357623
H       3.76414764      2.45768293     17.29972339
H       5.46433928      6.53292037     17.44295056
O      11.14194386     -0.25075105     15.63078915
O       2.58952873      0.47185693     15.02625176
O       5.20886599      7.34817686     16.96704714
H       1.71350131      0.20898357     15.37848120
H      -1.92775398      0.62818652     18.28633221
O      -2.23773000     -0.17522801     18.75601584
H       1.85398671      7.42349968     11.66107104
H      10.89543826     -1.18378058     15.54798297
H       4.84450922     -0.81188183     17.77622425
H       4.55139680      0.70916145     17.91353684
H       3.00361772     -0.30649994     14.65962072
H      -2.85563557     -0.65619799     18.15794892
H      -0.83081366      2.43528961     16.76541779
O       4.81634736     -0.04334185     18.46499613
H       4.62869420      7.14285582     16.18904503
H       6.06748705      4.44887015     17.21673365
H       6.26041267      0.02135290     19.69461844
O      -0.79197343      1.63335294     17.31138770
O       6.37582289     -0.13896925     20.64802027
O       2.90125725     -3.03676009     15.17619851
H      10.78225010      0.93613154     16.72707135
O       5.80926637      5.19948749     17.88760438
H       3.45623343     -3.75323656     14.75741993
H       5.55580962     -0.02402289     21.11685380
H       2.33993267      6.12773802     15.81722266
H       7.56470520     -0.26666070     15.83090311
H       0.70071600      4.90969219     16.70255970
H       3.76927729     -0.34879097     19.70481638
O       7.53577088     -0.99774835     16.51622822
H       6.44500374      5.03722858     18.61537709
O       1.34755135      5.31545598     17.38683657
O       3.13646719     -0.45883640     20.45766609
H       2.78173699      0.48396233     20.38067708
H       6.62113576      8.27415470     16.31767614
O      -0.20060565      2.69415086     19.92898122
H       0.79136940      5.92383374     17.88455273
H       1.59441490      2.60384214     20.28776072
H       2.57613154      4.12386418     17.95494125
O       7.47522397      4.82317830     19.98062707
H      -0.34869574      2.39946146     18.97854602
H       3.08001834      2.82101036     19.85152748
O       2.49158346      2.21127636     20.31125820
H       7.38419115      4.12867906     20.64796290
H       8.84772657      1.20488830     21.62041715
H       4.17954702      4.49478082     18.13221075
H       8.45582100      5.10161054     19.92853176
H      10.34137991      2.03906482     20.44249714
O       3.45580697      3.78728788     18.26393591
O      -1.83739021     -3.00461812     15.32474707
O       9.53224955      0.70253971     21.16477799
H       1.25009863     -1.75247665     19.85224164
H      10.70677734      5.84126001     19.71480688
H      -2.20720756     -2.88454088     14.40511951
O       7.52362655      7.20536697     21.52127912
H      -2.47630207     -2.43999437     15.91003831
H       7.06481298      7.98587283     21.07021275
O       0.56027299     -2.08079475     19.27533867
O      10.15483539      5.14699920     20.13376706
H       9.01536513      0.30624363     20.34250278
H       7.36259595     -3.27926029     20.98202759
H       6.85415832      6.94679951     22.81572091
H       2.62980612      2.64801647     21.93547973
H      10.55996136      4.22753650     20.05535052
O       6.63624347      6.67442027     23.82015050
H      -0.10939070      8.28513769     19.32875968
H       3.35928451      8.83073096     21.95805941
H       5.67866840      6.50510038     24.08576238
O       2.48959145      2.78531135     22.91703529
O       9.93565993      8.58417665     23.22855118
O       3.36768062      8.61079147     22.98627934
O       7.59087438      3.12616702     21.89976332
H       9.02137864      5.33994545     24.10671420
H       1.94503264      2.00743161     23.24380358
H       2.62632344      9.13533917     23.33434434
H       9.98717681      7.62425039     23.12984781
H       6.76281442      2.66278199     22.08956688
H       7.80738626      3.48631022     22.73084103
H       4.12943816      2.91779993     23.67528340
H       9.62214099     -0.61989137     22.33529201
H       2.00199755      4.28354404     23.51251241
O      10.18760762      5.96706719     23.05909747
H       0.03349101      5.70758651     23.13801185
O       1.59217953      5.17499708     23.73696317
O       5.08976739      2.97425282     23.85909981
O       8.16426553      4.81037871     24.31853413
O       1.22978054      0.57949169     23.81008924
O       3.92991280      6.51281498     24.38037158
H       7.11899983     -0.12245651     24.26896787
H       4.83953360      9.43136421     23.54651250
H      12.32846106      0.84184845     24.77572737
H       3.13985000      5.99072150     24.21376135
H       9.98776877      5.70325935     22.13222109
H       7.43244721      5.58453050     24.20946564
H       5.40971829      1.22377271     23.76374440
H       8.83074443      9.14332716     24.20328552
H       5.17665001      3.04757406     24.85449376
H       1.22559643      5.05057444     24.65342037
O       8.07575148      9.67876296     24.64471923
O       5.69497690      0.25615089     23.65007500
H       0.50233524     -0.07457256     23.56396155
H       3.72533846      7.41582731     23.94841564
Pt      2.50739984      9.34024562     26.93353638
Pt      5.26889119      9.39553260     26.80118748
Pt      7.92979474      9.35760067     26.69706049
Pt     10.91848662      9.44147355     26.68718536
Pt      8.13345417      4.50479947     26.47178516
Pt      3.99867475      6.95537761     26.77590473
Pt      9.47441534      7.11040565     26.86994309
Pt      6.69648048      6.95824422     26.81981759
Pt     11.03000691      4.66344039     26.66540447
Pt      1.25635310      6.99499861     26.81659498
Pt      9.46944027      2.23450951     26.88782097
Pt      6.75010158      2.27544807     26.88760216
Pt      2.49916607      4.58683836     26.97252658
Pt      5.27028593      4.59541465     26.75326101
Pt      1.24005332      2.14237151     26.80426904
Pt      4.09020245      2.28848875     26.74710996
H       7.99724359      1.64858924      9.32644138
