   242
 Tv_1:  11.152900   0.000000   0.000000 Tv_2:   0.000000   9.658700   0.000000 Tv_3:   0.000000   0.000000  26.829700
Pt      5.52358216      8.05509656      2.48442746
Pt      6.99844011      0.75685105      2.27916734
Pt     11.14461559      8.20378089      2.50496455
Pt      8.36289330      8.11935732      2.39825591
Pt      8.26516995      3.29737085      2.37738521
Pt      2.81652162      8.15299924      2.30878039
Pt      9.63110445      5.68107127      2.36372239
Pt      6.81829986      5.58638753      2.32572837
Pt      5.41912599      3.23779325      2.31961853
Pt      4.00949335      5.63455604      2.25941478
Pt      9.74735773      0.87335729      2.45663683
Pt      1.18184401      5.73283844      2.38502801
Pt      1.39003474      0.87126445      2.25679786
Pt      2.71971923      3.24832356      2.33017290
Pt      4.27342896      0.88903950      2.31647579
Pt     11.04671290      3.28071637      2.35934614
Pt      5.56415317      6.49053042      4.69002447
Pt      8.34305028      6.55720314      4.66056243
Pt      7.12230073      9.01280658      4.69342169
Pt      7.04965857      4.14955795      4.69542109
Pt      8.45853366      1.72056488      4.81049150
Pt      5.56499934      1.73647491      4.76500178
Pt      9.76980719      4.22187611      4.57744833
Pt      9.79772852      9.05721990      4.76457882
Pt      1.40904892      9.14589150      4.64396528
Pt      0.02978456      6.62371920      4.81581331
Pt      2.92783961      1.80314827      4.52752601
Pt      2.80311368      6.70879247      4.70095744
Pt      4.34755398      8.97899039      4.71560743
Pt      4.30722779      4.14040356      4.66455620
Pt      0.30658833      1.97551911      4.63220392
Pt      1.42632780      4.39437192      4.67346691
Pt      7.20814323      2.78331431      7.01905956
Pt     10.03576933      7.53297156      7.00551714
Pt      8.74423652      5.09132334      6.98319758
Pt      8.63490108      0.39847238      7.15496325
Pt      5.94707924      0.32995888      6.89921929
Pt      3.05728737      5.06642959      6.94933060
Pt      3.09696971      0.25780820      6.96558482
Pt      7.35835919      7.53366979      7.05123164
Pt      4.46594030      2.69787187      7.16193877
Pt      1.66832451      2.79107878      6.93786740
Pt      0.35242891      5.04927532      7.12394951
Pt     10.10456371      2.75083108      6.94437255
Pt      5.96459662      5.13072522      7.10000250
Pt      0.26217290      0.27693398      6.97034952
Pt      1.72701403      7.50764968      7.06463969
Pt      4.55347450      7.61476226      7.13203670
O       6.21131889      5.27596714     10.05252425
O       1.93449187      7.88888517      9.03572863
O       0.33222249      5.12415900      9.26275994
H       3.49407609      2.25431446      9.52931924
H       8.41438049      5.20838044      8.54666512
O       0.14413044      0.31147722      9.22572788
H       1.28542825      8.60965622      9.32998828
H       3.85863112      3.81658090      9.68426270
O       8.63283059      0.44008031      9.31099405
H      10.32082343      0.31162090      9.58552617
H       0.52013174      1.22017809      9.55423117
H       1.05690645      5.67913810      9.56854209
H       6.30079299      1.99394958      9.61873575
H       1.05502205      3.24494928      9.99136049
H       7.98082541     -0.20020090      9.72068951
C       7.21134148      5.20977806     10.74064233
H       3.46668173      8.07288477      9.29928136
O       7.16845068      2.37027327      9.25682542
H       5.05059081      7.94457073      9.86287834
H       7.17048932      4.80740683     11.80970140
O       4.32972741      7.48584122      9.23642203
O       4.28072557      2.81646553      9.44012034
O       1.38725549      2.32041677     10.01817087
H       1.61255779      1.99500348     10.95811272
H      10.32702534      7.73750952      9.59501838
O       9.73375421      7.10496048      9.07143216
H       3.95095473      1.26304039     12.37884755
O       4.77592506      0.63054628     12.44791276
O       3.17289784      5.04054691     10.08406990
H       3.83486407      5.74255101      9.71136888
H       8.14077627      5.55700657     10.24280819
H      10.14029275      5.87222325     16.93254846
H       5.57477522      1.23567035     12.47947646
H      10.38762796      6.25609285      9.12633940
H       6.46870125      8.04165045     11.18477272
H       5.60167960     -0.35929206     11.25628801
O       6.05355051      8.67376052     10.59764568
O       9.32370505      6.29725518     17.31668540
H       3.41987437      5.05989991     11.09058887
H      10.30774744      4.04452883     10.29671869
H       8.60429269      5.79615081     16.86070088
H       9.98513745     10.35573252     12.20638315
H      11.22922127      8.28563484     12.10468884
H       9.10954821      3.10256544     10.05466408
O      -0.74959628      8.55332208     11.59420922
O       9.77753177      1.56954981     12.68517597
O       9.76626953      3.38168507     10.72508475
Cl      7.53237374      7.27790523     13.03346828
H       2.76484335      2.88219935     12.72294503
O       9.14390392      4.69372924     13.35084126
H       8.62505106      5.54211298     13.41051601
Cl      3.48757937      4.79080621     13.06271962
O       6.91581134      2.24970742     12.65090554
H      -1.56237466      8.19361332     12.01777362
O       2.35233380      1.96811345     12.50462428
H       9.19993583      4.45135666     12.40287080
H       6.81117615      2.89405962     13.43420272
H       7.82639624      1.96726466     12.75997611
H       9.96212906     11.93484080     12.07138778
H       4.54721970      8.96189037     13.60122682
O       5.92347454      3.62685408     14.53932863
H       5.45948684      2.92054324     15.00934813
H       1.35982370     -2.51803199     13.61393534
H       2.13055537      1.45490238     13.35864565
H       6.57524547      5.85566592     16.38781828
H       3.52712049      1.50965216     15.73002543
H       5.19185523      4.16875079     14.10742500
H      10.57227553      1.36613218     14.22761281
H       6.66148207      4.56186453     15.58761530
O       4.38222900     -1.60407935     13.90023771
H       5.08194126      7.51463267     13.50365887
O       4.27941166      1.92503212     16.23499614
O       1.67543864      8.02118679     13.31204223
O       7.06801853      5.01162963     16.42281640
H       4.01724518      2.49166243     17.03978625
H       4.00886260      6.45780365     16.92091380
O      10.77759508      0.93790380     15.10957891
O       2.18100630      0.57742151     14.75568620
O       4.80013705      6.87602776     16.54466333
H       1.25694727      0.74248432     15.12029905
H      -0.72297848      1.76117871     16.42641697
O      -1.03984333      2.51415154     17.03522715
H       2.61392462      7.91868993     13.22158087
H      10.32750717      0.04422025     15.16356956
H       4.90382596     -1.06092276     17.56207028
H       4.46423402      0.39657824     17.40316927
H       2.12460988     -0.36336273     14.49026825
H      -2.00364310      2.56862227     16.73321001
H       0.62851921      4.96938383     15.52288834
O       4.81551889     -0.26017783     18.07097553
H       4.52081456      7.18175628     15.64015641
H       6.56659829      3.80002529     18.04495353
H       6.26078411      0.52384019     19.00848688
O       0.49088354      4.64816271     16.48099470
O       7.10169324      0.87579273     19.38308193
O       0.54811830     -4.16744241     14.00785676
H      11.19673371      3.81686295     16.60263208
O       6.47848238      3.52800671     19.03200021
H       1.18455271     -4.79023177     13.60646048
H       6.93049759      1.89155056     19.42305756
H      -0.33496638      5.20377371     13.73999811
H       8.93226539     -1.97118507     14.67102751
H       1.78272248      5.27215569     17.14930689
H       3.61701354     -0.64379480     19.59383433
O       9.67737529     -1.58844619     15.22643220
H       6.92180408      4.42957015     19.45935546
O       2.51222223      5.70341203     17.70282807
O       3.01797163     -0.32083101     20.31755433
H       2.70070460      0.60521453     20.18101370
H       9.49029164      7.66445680     16.11827131
O      -0.47012076      2.75203818     19.65622249
H       2.15944785      6.34604621     18.43258175
H       1.32215587      2.53122838     19.99268906
H       3.37631068      4.32187035     18.22079029
O       7.58800961      5.43315184     20.43864964
H      -0.84535314      2.62937519     18.70222660
H       2.80559175      2.72262483     19.56842384
O       2.22617334      2.28150582     20.28084368
H       7.62398070      4.77868236     21.19339508
H       8.57428589      1.81597072     21.94758666
H       4.74517621      3.67096387     18.79537185
H       8.56054663      5.53700446     20.28927775
H      10.25350855      2.16626965     20.30114381
O       3.83028672      3.48786374     18.44395345
O      -2.00011217     -1.17623720     19.14098412
O       9.07261639      1.23868470     21.32827759
H       1.77047076     -1.57828056     19.99200435
H      10.93976856      5.88910840     20.50351057
H      -2.13576977     -1.81452616     18.36744591
O       6.75103448      8.18276447     21.19929610
H      -1.97982625     -0.21737843     18.86210524
H       6.99236728      9.07647838     20.95083257
O       1.01231901     -2.22112572     19.79869280
O      10.27551309      5.25067370     20.80607758
H       8.34141024      1.12462791     20.65587381
H       7.24188893     -2.06790481     20.64908956
H       7.00168192      7.84134233     22.63532637
H       2.55382299      2.90738662     21.69347656
H      10.60150863      4.35478046     20.46067586
O       7.15388634      7.63147970     23.57897563
H       0.23847094      7.91224627     19.52196212
H       3.37712389      9.46311719     21.93702329
H       6.28949372      7.34284804     23.98536746
O       2.77741185      3.23665400     22.62824922
O      10.45123572      9.10140787     22.91519187
O       3.51989202      9.46564725     22.95293957
O       7.47626437      3.25062171     22.39643521
H       9.26044910      5.36280174     24.33835085
H       2.06019908      2.84850135     23.22084496
H       2.72547093     10.00012534     23.34201072
H      10.34064242      8.15807833     22.86167630
H       6.50142034      3.11409282     22.70102716
H       7.80873325      3.64713913     23.22543784
H       4.26846542      2.73771383     23.17603114
H       9.91088191     -0.17741871     22.18178040
H       2.19316932      4.93416169     23.18799604
O      10.56134979      6.32691642     23.38808540
H       0.36207627      6.12054291     23.65265023
O       2.08233611      5.70686068     23.73584745
O       5.15582580      2.58725297     23.71780697
O       8.34592667      5.02560608     24.38393498
O       1.46745170      1.23212329     23.66313096
O       4.16309343      6.98084707     24.21792666
H       7.71300655     -0.86146082     24.19608530
H       4.69663589      9.56238909     23.81264126
H      12.46596036      1.14234904     24.61010538
H       3.37487281      6.37564661     23.97303218
H      10.43359256      5.91593332     22.48531426
H       7.75977639      5.82942832     24.13909164
H       5.56447741      1.13597226     24.20129196
H       8.94843766      9.69222505     24.30317690
H       5.03166238      3.01591757     24.59218479
H       1.93150473      5.42108271     24.70624027
O       8.00970660      9.77494431     24.60277742
O       5.46127087      0.11660240     24.44349727
H       0.80413291      0.70367618     23.24806264
H       3.91971866      7.91591516     23.84576121
Pt      2.48975327      9.74175067     26.90334165
Pt      5.23587475      9.73846586     26.67686196
Pt      7.98059216      9.66257391     26.73467519
Pt     10.75551291      9.64975669     26.93162580
Pt      8.11764609      4.86461090     26.74534472
Pt      3.78008144      7.30127954     26.55231814
Pt      9.52094830      7.15665985     26.98130751
Pt      6.53240765      7.25680854     26.97720461
Pt     10.84385648      4.66571323     26.89087075
Pt      1.04554020      7.23350920     26.93046002
Pt      9.57414846      2.34920907     26.77532706
Pt      6.82864305      2.31815805     26.90641540
Pt      2.47407046      4.85200088     27.01359655
Pt      5.30178183      4.76458286     26.75241542
Pt      1.13754211      2.40795751     26.83886721
Pt      3.91722134      2.52128115     26.79870154
H       7.74956431      1.44685360      9.35416660
