   242
 Tv_1:  11.152900   0.000000   0.000000 Tv_2:   0.000000   9.658700   0.000000 Tv_3:   0.000000   0.000000  26.829700
Pt      5.47916723      8.07132664      2.00173822
Pt      7.08700221      0.85871628      2.20800167
Pt     11.01203653      8.09735167      2.27355771
Pt      8.23264413      8.17240864      2.27222754
Pt      8.34287248      3.28467605      2.48506773
Pt      2.78574400      8.12899910      2.11653803
Pt      9.75599078      5.65826664      2.34186443
Pt      6.91039765      5.73652867      2.18291134
Pt      5.66197029      3.37066881      2.24594195
Pt      4.12599436      5.74541769      2.28286627
Pt      9.88223180      0.79074883      2.54506562
Pt      1.37421632      5.70484657      2.26849610
Pt      1.52155226      0.82139914      2.36620785
Pt      2.92162300      3.22383861      2.39503830
Pt      4.28931687      0.86903431      2.33126016
Pt     11.28155995      3.20625550      2.38069733
Pt      5.78564141      6.61553891      4.51122685
Pt      8.59255752      6.67954751      4.57588092
Pt      7.09011124      9.03895208      4.51295327
Pt      7.14418586      4.18425097      4.63490252
Pt      8.58305521      1.77897936      4.71008099
Pt      5.68687160      1.85114331      4.63105012
Pt      9.90990762      4.17852438      4.73455011
Pt      9.99480015      9.03639968      4.80192284
Pt      1.55986742      8.89203707      4.56949697
Pt      0.16252562      6.56630942      4.57831055
Pt      3.00368020      1.76759918      4.64832070
Pt      2.98977148      6.66618139      4.62522018
Pt      4.44030674      8.96077295      4.64877955
Pt      4.41252332      4.26389265      4.55296375
Pt      0.16635516      1.69411128      4.63663345
Pt      1.69575330      4.23861670      4.54163584
Pt      7.51837188      2.83143448      7.04510065
Pt     10.32074577      7.45429811      6.96182451
Pt      8.63887943      5.22744800      6.96823311
Pt      8.77139704      0.48314947      6.98219734
Pt      6.13517272      0.39621674      6.87653860
Pt      3.30310605      5.13544787      6.91952765
Pt      3.36244178      0.35506675      6.87232868
Pt      7.50612138      7.63607369      6.90725890
Pt      4.59431814      2.69269096      6.95760465
Pt      1.95584314      2.72114327      6.83792852
Pt      0.54335326      5.10755582      6.92256038
Pt     10.40161162      2.78757028      7.13210402
Pt      5.99414583      5.19195623      6.97423496
Pt      0.41602119      0.40187441      6.97589629
Pt      1.93376090      7.58654195      6.94380999
Pt      4.56874970      7.50836082      7.17300376
O       8.69747138      3.57663053     11.64230762
O       1.80617679      7.61247621      9.13066169
O       0.42996017      5.03951219      8.98889828
H       3.97931414      2.07819879      9.46315464
H       7.51825028      7.38704118      8.44226023
O       0.42759993      0.08101231      9.14163368
H       1.30207389      8.44996770      9.47277281
H       4.04572669      3.60468070      9.43913148
O       8.96848222      0.10374759      9.56175899
H      10.61932952      0.18352897      9.46605389
H       0.82737742      0.82066067      9.62272825
H       1.26836194      5.15116844      9.47008868
H       6.69486921      2.77488344      9.35928243
H       1.69416652      2.68235206      9.90093551
H       8.30594510     -0.58212824      9.85541002
C       7.97678834      4.43923897     11.17354842
H       2.81384123      7.74999042      9.33670725
O       7.59945451      2.53503101      9.10916752
H       5.13278691      7.38119972      9.67156650
H       8.31456152      4.94726953     10.27430600
O       4.31163378      7.36748935      9.19419848
O       4.55568008      2.80718461      9.11416874
O       1.89515942      1.77855723     10.19734185
H       2.03911521      1.94380310     11.14163631
H      10.64076722      7.77860186      9.90986197
O      10.24455830      7.20309847      9.21742284
H       4.39710922      0.86648874     12.49551177
O       5.30225494      0.41876986     12.34698689
O       3.19724750      5.13709124     10.03738955
H       3.67999000      5.97739101      9.78292782
H       6.91556541      4.58425057     11.49619659
H       9.60032421      5.82876781     16.16131948
H       6.08929031      1.01398764     12.63849265
H      10.70380539      6.30437650      9.18985138
H       7.17713226      7.66195316     11.37428440
H       6.25999504     -0.64975833     11.39615586
O       6.69795802      8.30530068     10.76288394
O       9.37335767      5.89572698     17.09540090
H       3.16061189      5.07132113     11.01317170
H      10.77982294      3.83923512      9.28465861
H       8.47692381      5.43451319     17.04116406
H      10.51313485     10.24578256     12.05231551
H      11.66954289      8.57536586     12.00054806
H       9.36204855      3.01414669      9.49607039
O      -0.42352340      8.63000055     11.63628068
O      10.29466602      1.43535594     12.45251592
O      10.32103754      2.92583322      9.29338385
Cl      8.42159427      6.77538184     12.96768501
H       2.83194669      2.93977094     12.62081738
O      10.14211750      4.99817122     14.58789208
H       9.48291755      5.43233768     13.99623612
Cl      3.56685296      4.89756711     13.02710452
O       7.36663050      1.61132701     13.44717995
H      -0.98978922      8.08783388     12.21246971
O       2.80695944      1.96536558     12.65135623
H      10.14824251      4.00818389     14.53373405
H       6.71346131      2.06547518     14.08668731
H       7.87735368      2.35788055     13.03773984
H       9.70713216     11.58918553     11.89555013
H       5.00127361      8.02681446     13.17804075
O       5.54739982      3.26710364     15.14072739
H       4.81986468      2.76459462     15.64830504
H       1.60895284     -1.98917410     14.11469707
H       2.27828746      1.66129210     13.41295535
H       6.14687143      6.04417242     16.55968049
H       2.50112821      1.78042709     16.13427833
H       5.15781130      3.84087218     14.42344395
H      10.23503695      1.74584808     13.98191017
H       6.02597020      4.55814852     16.23559743
O       4.30976868     -1.94783762     13.81218392
H       3.89050862      6.84943631     13.43755181
O       3.35811412      1.81203264     16.66117755
O       1.57781411      8.38638493     13.41439791
O       6.52581778      5.14966064     16.78255572
H       3.23147240      2.45444942     17.45221774
H       5.15495315      7.67029022     15.44666339
O      10.52884844      2.27252354     14.78041286
O       1.59228761      1.07709416     14.95659439
O       5.55946896      7.59990798     16.32172928
H       0.75957472      1.53681715     14.92267986
H      -2.24031533      1.50350702     17.62116916
O      -1.29861140      1.42445549     17.30763196
H       2.57009422      8.30672231     13.32101457
H      10.01879084      2.04648252     15.54089132
H       4.93364370     -0.85801891     17.66308654
H       4.25728598      0.57776411     17.61839777
H       1.53516953      0.14761962     14.60162644
H      -0.88010220      2.31313252     17.53891207
H      -0.91462053      4.60640813     17.58221950
O       4.58494361     -0.10374332     18.29506277
H       6.39834377      8.10475555     16.14768549
H       6.04511075      4.40808181     18.07541378
H       6.35585705      0.78392025     18.43006688
O      -0.25536733      3.86103713     17.74877936
O       7.12903072      1.30795710     18.72835682
O       1.38782172     -3.51541028     14.76030348
H      11.73970652      4.43577780     17.69999000
O       5.92422093      3.75632297     18.86952181
H       2.05922071     -4.08336298     14.23708013
H       6.85180392      2.30325881     18.69820469
H       0.48771629      5.64784391     14.58676341
H       7.64682336     -0.14534944     14.81715035
H       1.44507596      5.76095062     16.48625338
H       3.12101146     -0.30449515     19.48099991
O       7.82341237     -0.90120086     15.38167213
H       6.26249043      4.28864685     19.60348677
O       1.78140974      5.39222809     17.36941391
O       2.63302332     -0.50339152     20.28888594
H       2.17091272      0.35103492     20.56376505
H       7.97515615      8.10505278     14.70643263
O      -0.41822173      3.03166375     20.17823497
H       1.59353546      6.13028458     17.97793463
H       1.08022813      2.58099174     20.61385315
H       3.00632492      4.24991818     18.40924038
O       7.31616596      5.72062260     20.81407599
H      -0.35269433      3.31310397     19.20056364
H       2.49849017      2.71529220     20.06525841
O       1.98294755      2.28787345     20.80336767
H       7.47418457      4.94851552     21.39551193
H       8.37418540      1.87314369     21.46326878
H       4.35369430      3.53376513     19.03488382
H       8.18050080      5.66144751     20.35981352
H      10.11224749      2.32656893     20.37448856
O       3.33343456      3.45682901     18.78981228
O      -0.98161722     -1.16267563     17.96348083
O       8.74380746      1.16540010     20.96990697
H       1.35767525     -1.74793940     19.69615680
H      10.75778646      6.10929663     20.17031192
H      -1.44310218     -1.71680625     17.28605575
O       7.08192102      8.44862374     22.05350584
H      -0.91097822     -0.17337583     17.66882212
H       7.58535689      9.15690107     21.61228662
O       0.84074581     -2.47745186     19.28344622
O       9.99315454      5.57694444     20.56821815
H       8.08672668      0.99985085     20.17163611
H       7.40608047     -1.96342292     21.46731255
H       6.85827212      7.58758549     23.49608877
H       2.48054820      2.76048855     22.21417693
H      10.16975911      4.61287979     20.42780949
O       6.64036052      6.85375896     24.16848863
H       0.09350899      7.64655295     18.76988394
H       3.31215924      9.08253195     21.95546638
H       5.64518937      6.75759422     24.15872179
O       2.71828054      3.19606036     23.16303149
O       9.98489097      9.05855449     22.67313726
O       3.43158795      9.06220533     22.97066573
O       7.86556049      3.36693982     22.38036758
H       9.19111177      5.44841490     24.25542159
H       2.69684641      2.52679082     23.89912361
H       2.55274326      9.50654830     23.21667019
H      10.07986514      8.10602171     22.57798625
H       6.92940911      3.28958204     22.73955522
H       8.44469306      3.67765402     23.17079881
H       4.42698272      3.62564359     23.43848202
H       9.56007464     -0.07765819     21.95936070
H       1.94309833      4.45372454     23.49017472
O      10.08210165      6.20102890     23.09261853
H      -0.10664798      5.96893508     23.37307954
O       1.55221452      5.37385068     23.74772419
O       5.29070361      3.33735299     23.77031731
O       8.36324172      4.96411520     24.57311987
O       1.04556000      0.74003837     23.66807937
O       3.94112852      6.80038608     24.19946809
H       7.30765006      0.54401475     24.38608571
H       4.76869584      9.79706009     23.90486438
H      11.88512789      0.78447032     24.63118135
H       3.32449715      6.06384915     23.88693230
H      10.09485934      5.87805959     22.08818098
H       7.73846360      5.69270205     24.28174224
H       5.46684680      1.49541666     24.17851076
H       8.71822819      9.46428796     24.04251526
H       5.42869280      3.81029371     24.62981243
H       1.58812896      5.31268220     24.75334228
O       8.30577284     10.19974544     24.57835194
O       5.62605246      0.52284177     24.24966379
H       0.29186569      0.41594351     23.19426703
H       3.58612641      7.67354908     23.70238382
Pt      2.56263406      9.74336584     26.79533854
Pt      5.25849305      9.54043575     26.55450498
Pt      8.14020888      9.64294252     26.67890960
Pt     10.85909332      9.57346928     26.77064766
Pt      8.21407441      4.73564016     26.81024305
Pt      3.72144545      7.19083193     26.50012670
Pt      9.54242589      7.20361736     26.83195796
Pt      6.72164284      7.17276830     26.64416496
Pt     10.92121333      4.64866227     26.76251360
Pt      1.08929781      7.09090474     26.78606990
Pt      9.55147156      2.31891174     26.99800633
Pt      6.64882418      2.46835394     26.77091198
Pt      2.62837125      4.71140448     26.86834592
Pt      5.22860550      4.84785397     26.67664530
Pt      1.23209237      2.37088268     26.78808042
Pt      3.90079654      2.41134474     26.66052847
H       8.45755639      0.93161371      9.78282917
