   242
 Tv_1:  11.152900   0.000000   0.000000 Tv_2:   0.000000   9.658700   0.000000 Tv_3:   0.000000   0.000000  26.829700
Pt      5.40674959      8.03577774      2.17131300
Pt      6.82795670      0.81917322      2.25528930
Pt     11.10150701      8.12621874      2.34027444
Pt      8.34576675      8.17170673      2.19260143
Pt      8.31615959      3.37697586      2.04885761
Pt      2.71377415      8.08226996      2.28369941
Pt      9.69165083      5.63774193      2.15478869
Pt      6.97149855      5.75200563      2.22433473
Pt      5.45972015      3.32100147      2.24761477
Pt      4.03656222      5.64723161      2.33240500
Pt      9.57648536      0.87432820      2.21985362
Pt      1.27840297      5.78288805      2.33813344
Pt      1.26560084      0.87674841      2.34613424
Pt      2.69880745      3.15190716      2.51230501
Pt      4.00449029      0.80763231      2.30078340
Pt     11.04812494      3.23496312      2.28861284
Pt      5.72288352      6.67188753      4.50762588
Pt      8.63193361      6.65940911      4.43944514
Pt      7.13328689      8.99728434      4.57650391
Pt      7.38617087      4.04290039      4.47392088
Pt      8.51382552      1.79241887      4.43777718
Pt      5.80481255      1.78298066      4.52789381
Pt     10.07910975      4.26947771      4.49437809
Pt      9.99209861      9.26928140      4.61821951
Pt      1.59368798      9.16196802      4.68934336
Pt      0.11227916      6.82761615      4.67964610
Pt      3.11798679      1.70718662      4.63054470
Pt      2.89579955      6.63308506      4.72069919
Pt      4.29177672      8.85051625      4.53817426
Pt      4.65479019      4.17865721      4.61180153
Pt      0.28676882      1.89473976      4.65944840
Pt      1.59666090      4.32156758      4.67284570
Pt      7.52691255      2.71527328      6.85721241
Pt     10.44513636      7.75667920      6.99358368
Pt      8.96181123      5.21048601      6.80703564
Pt      8.97271776      0.34293073      6.99063556
Pt      6.15351956      0.26433912      6.83008772
Pt      3.38255389      5.22125981      7.01705647
Pt      3.41057275      0.34562182      6.96843326
Pt      7.42482886      7.55281882      6.89026441
Pt      4.86177688      2.79040847      7.01252463
Pt      2.19897212      2.75774396      6.79613719
Pt      0.66094140      5.18497800      7.00041023
Pt     10.41841611      2.84933647      6.86201223
Pt      6.22282837      5.10187098      6.82372458
Pt      0.66906035      0.43590797      7.03204658
Pt      2.05810412      7.56731409      7.10615720
Pt      4.78099637      7.53637217      7.09837495
O       6.91936138      4.24850826     11.51760635
O       2.11015640      7.64470611      9.17900717
O       0.30632769      5.22898409      9.09634298
H       3.83067932      2.44736916      9.37693038
H       7.66148424      6.01819889      7.86969667
O       0.68292628      0.50459758      9.25242438
H       1.67282227      8.44251709      9.40532061
H       4.45554036      3.88693871      9.76903223
O       8.71086804      0.34602359      9.16243008
H      10.90453834      0.45068923      9.61685119
H       1.03797825      1.45938155      9.66074116
H       0.97286082      5.81404071      9.48459707
H       6.62124383      2.58691706      9.30974732
H       1.57022734      3.53275351     10.05009068
H       8.02104519     -0.31920557      9.37417090
C       6.80244441      5.42811140     11.06762431
H       3.14710208      7.87768942      9.23432315
O       7.56309009      2.52619168      9.07420888
H       5.31229368      8.00273924      9.57330640
H       7.33487947      5.67972022     10.13398718
O       4.52598951      7.60684133      9.15624675
O       4.71173770      2.95300774      9.39866393
O       1.83753756      2.63096854     10.33655377
H       1.68927454      2.75199699     11.36622424
H      10.31398865      7.95120987      9.95106023
O      10.01149773      7.35606001      9.15520098
H       5.31076969      0.95264818     13.10996600
O       5.44330127      0.10065676     12.65734458
O       3.73586791      5.13202226     10.29518222
H       3.93603961      5.99303998      9.89925468
H       6.20282045      6.26056300     11.59472164
H       8.73142554      4.98917100     17.84297676
H       6.19395035     -0.40598215     13.01529023
H      10.53622707      6.44795361      9.28468957
H       7.17174687      8.06342010     11.12550048
H       6.31624861     -0.25516494     11.07045039
O       6.66939077      8.68042330     10.46997735
O       7.90354588      5.51510229     17.78054643
H       3.93081124      5.22071956     11.25647025
H      10.67333684      3.84854160      9.29930103
H       7.18731505      5.01411453     17.22453187
H       9.12880252     11.47161832     11.90991394
H      10.99727317      8.87308010     11.90460613
H       9.16917972      3.06959939      9.16781272
O      -0.81852815      8.54242926     11.26020490
O       8.59289215      2.28360086     12.59021849
O      10.15309618      3.00722287      9.10880601
Cl      8.08897873      7.52253957     12.87348713
H       1.91232670      4.29552424     13.26675631
O      10.81115077      5.73466608     12.48152398
H       9.86991169      5.90759241     12.70451426
Cl      3.74991882      5.81933608     13.40861657
O       7.55171485      1.38980145     14.91583833
H      -1.62936315      8.30682538     11.82302120
O       1.36538589      3.54726053     12.97521585
H      10.90742948      4.76459908     12.62638134
H       6.66810608      1.84861701     14.97854650
H       7.99585878      1.68817028     14.13026528
H       8.02200977     12.49066950     11.98293030
H       3.27947430      7.72577939     12.06024076
O       5.10105079      2.81662053     14.46018865
H       4.32618818      2.59605503     15.05061263
H       1.11864381     -1.28590773     13.80224499
H       1.31427651      2.98097934     13.78014148
H       5.38217176      5.54038531     16.37749383
H       2.25366416      1.63634088     15.65227105
H       4.78716842      3.55282878     13.80376565
H       8.78878957      1.65313736     15.80151684
H       5.57066904      4.18010887     15.71693683
O       3.26105948     -1.09720989     11.59469961
H       4.06803914      8.95963773     11.98678026
O       3.09018616      1.88140988     16.09266004
O       1.02960719      9.11023850     13.12753948
O       5.68987688      4.64865900     16.59148854
H       2.86344200      2.61426785     16.76068522
H       4.57730798      7.11625140     15.21298207
O       9.75151663      1.69410007     16.25032017
O       0.99766783      1.48521096     14.69881085
O       4.99871731      7.25710618     16.05621358
H       0.18247783      1.57671224     15.19608031
H      -3.09019411     -0.83078053     17.02956210
O      -2.60251676     -0.36657541     17.80141245
H       1.86209292      8.97692655     12.51632124
H       9.78731339      1.01314868     17.00128577
H       3.85538865     -0.96629059     17.12217936
H       3.46659948      0.60044657     17.07309696
H       0.88068609      0.80262038     14.04311971
H      -3.41983672      0.07694338     18.16191981
H      -0.41988890      4.43484146     17.68408812
O       3.73259958     -0.12602800     17.69774972
H       5.96930250      7.58320924     15.91692711
H       5.26542542      3.84960703     18.08933617
H       5.46404345      0.41820800     18.72379880
O      -1.22460400      3.97644301     17.68584685
O       6.14607439      1.04192919     19.06957633
O       1.06821078     -3.01001917     14.60971093
H       9.89003063      3.21389490     16.94999635
O       5.14684920      3.48436953     19.01415878
H       2.00804530     -3.24083517     14.42832229
H       5.67600125      1.96940117     19.21306010
H       0.61714936      6.25138849     13.82771090
H       7.77398573     -2.13415451     15.09876280
H       1.37246942      6.15926063     16.64639918
H       3.16576205     -0.59173816     19.28145408
O       7.51693167     -2.00778124     16.10063431
H       5.55134912      4.16788060     19.60061326
O       1.17872152      5.47721214     17.34059850
O       2.63462965     -0.83411657     20.10753904
H       2.35272335      0.07863708     20.43242863
H       7.71669453      6.82148590     16.59578888
O      -0.75976512      2.58759202     20.12258071
H       0.93116870      5.92888846     18.21914905
H       0.89455251      2.25669155     20.46945205
H       2.26582416      4.38464108     17.96875143
O       6.51312324      5.15417006     20.49349670
H      -0.82008599      2.90892943     19.21494479
H       2.17234054      2.35351118     19.61315530
O       1.87230653      2.02731532     20.51932614
H       7.06016888      4.53483423     21.08473716
H       7.66515825      1.52808810     21.64080080
H       3.54763316      3.44900490     18.58999671
H       7.07361137      5.20840267     19.67423848
H       9.65298681      1.92781244     20.38939899
O       2.67757761      3.44450225     18.17117346
O      -1.63810135     -1.79878311     20.02926705
O       8.09753794      0.84285914     21.06685995
H       1.56565647     -2.21716031     19.56942118
H      11.20341467      5.42792284     20.80522901
H      -2.05894754     -2.73319221     19.94605019
O       6.87048246      7.75055944     22.15751302
H      -1.84992637     -1.29230436     19.19828531
H       6.92891262      8.70402680     21.89095817
O       0.78898568     -2.79213134     19.55283972
O      10.34564306      4.97879918     20.94310585
H       7.51611164      0.80168043     20.26103172
H       6.98703267     -2.43928753     21.33531295
H       6.65465489      7.28008853     23.55630881
H       2.39312660      2.80075818     21.81566110
H      10.43416834      4.04163819     20.78580490
O       6.34195261      6.84718346     24.43213336
H       0.02107278      7.38727191     19.70019316
H       3.28791773      8.65116517     21.79238989
H       5.36752501      6.62826315     24.26844484
O       2.39254115      3.03871225     22.79106826
O       9.87284996      9.42352358     22.87040666
O       3.66578077      8.87943389     22.69406622
O       7.27093646      3.20990740     22.29587392
H       8.66433965      5.40409272     24.12742162
H       2.02084928      2.34494883     23.32619629
H       2.89656161      9.25572550     23.11486788
H      10.05479444      8.55064107     23.23647096
H       6.35768637      3.13264463     22.65097784
H       7.64766392      3.76182601     23.07172822
H       3.93364870      3.32600429     23.33023951
H       9.55974973     -0.40076679     21.97076982
H       1.92726899      4.63706651     23.43822168
O       9.92705772      6.27589281     23.22240558
H      -0.38297432      5.95505852     23.63556058
O       1.45118912      5.28704592     23.92997483
O       4.82883300      3.48329570     23.73526129
O       7.84989553      4.81387808     24.30252696
O       1.27009249      0.43979971     23.41442604
O       3.63996646      6.73593683     24.42902201
H       7.20264871      0.41441405     23.94939464
H       5.00793832      9.99057339     22.88574464
H      12.34520992      0.22695746     24.38422144
H       2.76766180      6.14047556     24.51905185
H       9.92707097      5.85465394     22.33587557
H       7.06221614      5.52571685     24.27576536
H       5.55557021      1.67244369     23.40273260
H       8.83433922      9.98468844     24.07595807
H       4.72594109      3.34977144     24.70543193
H       1.04728549      4.85026289     24.70458902
O       7.98243716     10.07838000     24.53848664
O       5.79644311      0.76553635     23.30247368
H       0.28312653      0.37509875     23.19597440
H       3.37694732      7.46669615     23.75579116
Pt      2.57512526      9.68295246     26.85911708
Pt      5.31611849      9.59314882     26.79766199
Pt      8.02759474      9.34465677     26.59873569
Pt     10.99607766      9.49077206     26.68079141
Pt      8.13200019      4.54541524     26.43085415
Pt      3.84680111      7.05360077     26.76259150
Pt      9.59971680      7.08462358     26.60247129
Pt      6.65877508      7.15895497     26.80268843
Pt     11.04433338      4.69119253     26.78050516
Pt      1.12637692      7.10136703     26.73783288
Pt      9.67335156      2.32500317     26.71802114
Pt      6.74260569      2.26313397     26.77110401
Pt      2.60202383      4.79522704     26.94045883
Pt      5.36300500      4.64554536     26.74742856
Pt      1.08801533      2.34137834     26.72890029
Pt      3.86056885      2.36604325     26.64982968
H       8.11578348      1.28940048      9.21925361
