   242
 Tv_1:  11.152900   0.000000   0.000000 Tv_2:   0.000000   9.658700   0.000000 Tv_3:   0.000000   0.000000  26.829700
Pt      5.28899837      7.81829807      2.21444939
Pt      6.74428818      0.61973344      2.15546709
Pt     10.82797380      7.87835142      2.06868416
Pt      8.10935174      7.74269571      2.15326990
Pt      8.12798972      2.99246808      2.39925902
Pt      2.37638673      7.74677933      2.23595374
Pt      9.44447828      5.29038974      2.23222808
Pt      6.71436919      5.43303703      2.27561544
Pt      5.33471865      3.05611615      2.24718549
Pt      3.92438968      5.41963842      2.20643509
Pt      9.54626922      0.50117665      2.30100804
Pt      1.07337411      5.46811036      2.24386272
Pt      1.14698285      0.72161987      2.35128484
Pt      2.57785014      3.01085078      2.31018768
Pt      4.04167520      0.54413733      2.31871709
Pt     11.05367481      3.07192931      2.28368398
Pt      5.84250755      6.53665223      4.60493467
Pt      8.49879548      6.48265967      4.45538069
Pt      7.32077664      9.01788044      4.53363837
Pt      7.23981641      4.01340294      4.65308912
Pt      8.73282091      1.60919307      4.63027166
Pt      5.89935308      1.68557335      4.44787405
Pt      9.96182397      4.06948562      4.56458002
Pt     10.03381747      8.79088183      4.66428387
Pt      1.69169524      8.92695781      4.60148683
Pt      0.20768967      6.53981878      4.51680412
Pt      3.13358446      1.76224452      4.58008474
Pt      3.01079293      6.55672946      4.60357948
Pt      4.56527177      8.90951276      4.58172190
Pt      4.39985584      4.22502968      4.59123519
Pt      0.30452909      1.64002917      4.62662460
Pt      1.62061282      4.15396776      4.63050809
Pt      7.91900984      2.84895677      7.08327656
Pt     10.70621587      7.54339671      6.99210545
Pt      9.59909371      5.18306485      6.97022777
Pt      9.23077853      0.33243138      7.01749289
Pt      6.41129864      0.53108697      6.87667286
Pt      3.82886756      5.25843542      6.99929997
Pt      3.58061230      0.38567061      6.79486884
Pt      7.99836520      7.53809170      6.88127791
Pt      5.09738623      2.83415156      6.87028046
Pt      2.37662824      2.76595776      7.09501991
Pt      1.17282130      5.21565690      7.17273029
Pt     10.66246142      2.71029809      6.93175100
Pt      6.68325052      5.23441414      6.89499363
Pt      0.82252923      0.42604605      7.04262040
Pt      2.45236182      7.65862761      6.98045332
Pt      5.24928092      7.58549520      6.91467282
O       6.91259428      5.33498628      8.92544284
O       2.56414732      7.69841367      9.22956322
O       0.94270189      5.66571870      9.31578336
H       1.92971137      2.52669726      9.71735005
H       8.92815278      5.64946866      9.12277652
O       0.87667275     -0.00042621      9.15888119
H       2.11338218      8.50224776      9.56474540
H       3.03794013      3.60286789      9.42196272
O       8.84239151      0.27881199      9.09027615
H      11.22388036     -0.76941373      9.21801563
H       0.78395381      0.83569876      9.73137063
H       1.59373232      6.45038903      9.47635528
H       7.23613852      2.85500206      9.76203598
H       0.26483878      3.16397497     10.82914227
H       7.87934857     -0.04786994      9.23041237
C       7.94782927      6.16305190      9.31521684
H       4.02348377      7.88379907      9.29708187
O       8.13877081      2.80984142      9.31426421
H       5.46587880      8.67145264      9.38393442
H       8.04391822      6.46514079     10.50339485
O       5.04556072      7.81224582      9.02308923
O       2.76708963      2.65629487      9.21442247
O       0.85544253      2.37105797     10.74237070
H       1.13249691      2.32643206     11.71175411
H       9.55811100      8.40279171      9.26170630
O      10.42552470      7.84605000      9.02593045
H       4.94743795      2.68718673     10.11815076
O       5.78041797      2.59318755     10.57873532
O       4.05740052      4.96165464      9.67021066
H       4.81109716      5.55934101      9.38601980
H       7.81844805      7.22570839      8.98538128
H       7.39335524      7.35316992     12.35550803
H       5.67737818      3.08399312     11.43604094
H      11.16148128      5.94544556      9.35665611
H       5.97712370      9.13404413     10.99020928
H       6.14802986      0.96313328     10.35335376
O       6.29646867      9.65546224     10.08886261
O       8.18791356      6.94022741     11.95034253
H       3.63474535      5.58913230     10.35826239
H       9.33293506      4.35009269     11.42612926
H       8.37209294      6.19227326     12.53803981
H       7.50075494     10.89942752     14.24821908
H      10.76312196      8.36621431     13.24083031
H       9.46595786      3.71919074      9.98971181
O      -1.30491404      8.61399852     13.53473450
O       8.42326009      1.36878840     14.07071755
O      10.00133365      4.19434697     10.64033251
Cl      5.26136992      7.88104843     12.39410514
H       2.02711221      2.76504019     13.89729893
O       9.93459484      3.40302646     14.92363182
H      10.76650601      3.28966025     14.46619308
Cl      3.15522177      4.54095668     14.16794729
O       5.84891341      3.55920532     13.25607739
H      -1.89489629      8.15709365     12.88268129
O       1.41070471      2.20454261     13.33650392
H       9.32297108      2.60098198     14.55092051
H       4.88503550      3.89966250     13.31768748
H       5.77648335      2.66774837     13.74321401
H       8.90425804     10.28478242     13.66705343
H       5.16119489     10.18948737     13.90221531
O       2.77535247      6.49282981     11.61163053
H       2.74638802      5.73368998     12.28382029
H       1.95638434     -1.10337939     14.06343980
H       1.57673964      1.25901193     13.52135982
H       8.93825117      4.46859683     14.10036567
H       3.27775832      0.12447442     16.55262879
H       3.68161853      6.85014894     11.93218362
H      10.32180388     -0.90619549     15.55063212
H       7.52628156      4.17964271     13.54923645
O       5.70163828      1.04703546     14.52726552
H       5.42166945     10.41673936     15.46865457
O       4.10702969      0.58048496     16.76706697
O       1.49883938      8.78730543     13.21544811
O       8.23472109      4.88702397     13.50897345
H       3.78109363      1.44935331     17.02963209
H       6.67450300      5.78690783     15.48574245
O      10.24364622     -0.46347063     16.40638695
O       2.06948467     -1.29798181     15.98033139
O       6.74665146      6.03138636     16.42034814
H       1.23197700     -1.08052952     16.46980049
H      -0.49758049      1.01894640     16.69057502
O      -0.17579286      1.97341377     16.98810976
H       1.92666149      8.25596442     12.52333566
H       9.34645266     -0.71077595     16.86831784
H       4.46597589     -1.89015062     18.34202258
H       4.64795666     -0.38160561     18.16999942
H       2.73681714     -1.77948579     16.51526694
H      -0.69028832      2.64085479     16.40103250
H       1.58859550      2.50663553     16.92531808
O       4.47890360     -1.01735120     18.86718853
H       6.99474974      6.95826341     16.50322784
H       8.87599185      4.20542351     17.08823363
H       6.28543081      1.53972041     18.31812739
O       2.55384495      2.75582773     16.98845385
O       7.26622886      1.43831281     18.17381436
O       3.79017972     -3.20478223     17.35761492
H      13.85543741      3.23499818     16.08564848
O       8.11283736      4.36327654     17.68414135
H       4.17975261     -3.83416848     16.74169999
H       7.50633419      2.36743851     17.95710805
H       3.27266782      5.96644422     18.01169009
H       7.66328030     -0.35558571     17.27414985
H       1.35545135      5.01904728     19.26104869
H       3.28207765     -0.89541422     20.09976228
O       8.04623336     -1.25525145     17.36432004
H       7.54782364      5.09519281     17.19974675
O       2.01127115      5.71010261     19.50997747
O       2.82654210     -0.66674919     20.94645738
H       2.65546922      0.34843054     20.89304181
H       8.28268449      8.22411818     18.29062641
O      -0.06369522      2.18654227     19.77845357
H       1.42439828      6.44748748     19.73894334
H       1.53017283      1.96700042     20.00752869
H       4.19850487      3.32518454     18.27516683
O       9.61807088      4.49062437     20.09554391
H      -0.23805782      2.12786909     18.75482701
H       3.13241156      2.06595944     19.65880140
O       2.46975119      1.91829223     20.32513035
H       9.13640059      4.62052741     19.25255619
H       8.13038927      1.13278821     21.27370873
H       5.21264871      3.53448763     19.42221944
H      10.09426727      3.53697268     20.06198897
H      10.38555079      1.62943850     20.14515238
O       4.83964876      2.77439137     18.84672122
O      -2.34999988     -1.76191941     19.93523584
O       8.61407112      0.74283660     20.50714258
H       1.41157639     -1.34027094     20.50420755
H       9.19061723      5.27754070     21.72177767
H      -1.36535904     -1.74197591     19.87785721
O       6.48870471      7.45678605     20.96658796
H      -2.43299125     -0.83753930     20.36510548
H       7.45898558      7.42430830     20.63250034
O       0.55960468     -1.83691528     20.57653256
O       9.35346070      5.60125075     22.63131351
H       8.08072011      1.06980921     19.73201215
H       6.05498137     -1.71058466     20.24739848
H       5.56569442      5.70767535     20.81190688
H       2.95248521      3.25322202     21.46875580
H       8.52634053      6.10084204     22.89577586
O       4.99445312      4.87960337     20.70775315
H       0.35209438      7.65222344     21.55110391
H       3.60734469      8.37587150     22.14384306
H       4.04326639      5.28215325     20.88059041
O       2.87555830      3.52800831     22.41298692
O      10.50409578      9.12812654     24.31097496
O       4.10095104      8.01349147     22.95376401
O       7.36954744      1.87142175     22.83002914
H       9.25176836      4.13350226     23.66543948
H       2.22906034      2.91505503     22.82040986
H       3.61992032      7.12292403     23.15506129
H      10.94043967      8.28959522     23.98264838
H       6.44728714      2.22988987     22.97546720
H       8.07278864      2.56809942     22.94243702
H       4.31985585      3.02256648     23.08817019
H      11.06238629      0.17831130     23.96341093
H       2.88796240      5.03521184     23.08512258
O      11.63655790      7.09978333     23.09131382
H       1.26066642      6.50986713     23.23760434
O       2.72585534      5.90829537     23.55166894
O       4.94737293      2.59207767     23.70872185
O       9.38481383      3.19451807     23.80238531
O       0.67896476      1.91497706     23.59306323
O       7.02008151      6.39805585     23.61494663
H       7.74799574      0.74783621     23.96687227
H       4.60981331      9.01570563     23.92647746
H      10.98753972      2.50131896     23.77026064
H       6.55858199      6.92345620     22.89395608
H      11.02078670      6.32754762     22.97547205
H       9.19502102      3.21187056     24.80713528
H       4.91313004      0.91176333     24.49140707
H       8.91607467      9.27978226     24.19067748
H       5.24038082      3.36531162     24.26408639
H       2.91085528      5.70328722     24.54407173
O       8.02443563      9.58438706     24.43343302
O       4.92770844     -0.03780982     24.68980746
H       1.22209741      1.96828176     24.42496049
H       6.76382534      6.92473881     24.47303792
Pt      2.39708520      9.23798437     26.92916848
Pt      5.09146436      9.32629344     26.69757313
Pt      7.82795330      9.19659716     26.62149348
Pt     10.68087455      9.14436765     26.64207345
Pt      7.68090987      4.45443427     26.59618375
Pt      3.70003055      6.79397948     26.64133200
Pt      9.21276268      6.61537013     26.58063500
Pt      6.49744135      6.72682637     26.75126305
Pt     10.72061544      4.46154819     26.63519820
Pt      0.89175825      6.84907750     26.65725183
Pt      9.29873487      2.02482296     26.77792533
Pt      6.39083109      2.08006173     26.71856025
Pt      2.15918934      4.36140274     26.62749572
Pt      5.06691431      4.48379333     26.67009578
Pt      0.88596883      1.91144158     26.65717510
Pt      3.67337897      2.14962472     26.74859178
H       8.51418567      1.84483325      9.30988745
