   242
 Tv_1:  11.152900   0.000000   0.000000 Tv_2:   0.000000   9.658700   0.000000 Tv_3:   0.000000   0.000000  26.829700
Pt      5.13748552      7.83513705      2.31371983
Pt      6.57626667      0.56273513      2.34073527
Pt     10.61384465      7.65617809      2.29035561
Pt      7.88045031      7.84954726      2.18645657
Pt      7.84265576      3.03269061      2.30376752
Pt      2.33507325      7.80755497      2.25572888
Pt      9.43206303      5.33562365      2.15551377
Pt      6.66026713      5.42626042      2.32065330
Pt      5.16932595      3.01653668      2.21293263
Pt      3.61400807      5.44890836      2.27055002
Pt      9.42634758      0.45957025      2.21406987
Pt      0.89062171      5.41155716      2.30991327
Pt      0.95288116      0.45799073      2.28149471
Pt      2.49727292      2.94166631      2.33596731
Pt      3.76201256      0.58506767      2.23218307
Pt     10.72488042      2.91742495      2.37138832
Pt      5.89542060      6.61442057      4.68776644
Pt      8.72659392      6.49386287      4.58370598
Pt      7.42712977      8.96685998      4.50310954
Pt      7.16072060      4.11914047      4.69696496
Pt      8.68185908      1.66510136      4.65215289
Pt      5.99324935      1.71315826      4.55821691
Pt     10.06361991      4.15938578      4.69429367
Pt     10.07682661      8.93038702      4.68441817
Pt      1.74303275      9.02107348      4.66035921
Pt      0.30493700      6.60054267      4.67908348
Pt      3.05469084      1.78102366      4.55835137
Pt      2.99777713      6.73157822      4.52852417
Pt      4.58422177      9.04522889      4.60237443
Pt      4.50607005      4.10504243      4.47070854
Pt      0.27496345      1.64958988      4.64280226
Pt      1.63766940      4.26063855      4.60922686
Pt      8.09552804      2.80549942      7.05878922
Pt     10.88056588      7.63336805      7.03407828
Pt      9.26990197      5.28657172      6.97678038
Pt      9.34208823      0.42945233      7.03754753
Pt      6.68651219      0.63221883      6.94177751
Pt      3.87636613      5.41940707      6.84181169
Pt      3.99054339      0.57018926      6.92908712
Pt      7.95405890      7.77214720      6.87036314
Pt      5.31356525      2.99334025      6.84471838
Pt      2.53109492      2.93131126      6.97336583
Pt      1.08280400      5.23271446      6.99232891
Pt     10.77799601      2.99287801      6.94086433
Pt      6.50442574      5.45378475      7.09738951
Pt      1.12866873      0.56778970      6.95920123
Pt      2.43625625      7.73589607      6.96176738
Pt      5.08017979      7.87194413      7.04776312
O       6.75959789      5.35394326      9.13265912
O       2.47107891      7.67555251      9.18888222
O       1.03224900      5.47424765      9.12649377
H       2.21126799      3.04178321      9.71792065
H       8.94701440      5.32510721      9.07532614
O       0.82670612      0.50588662      9.08070296
H       1.65735800      8.23945789      9.40618440
H       3.54431658      4.00011512      9.29568020
O       9.45472589      0.51103882      9.13545346
H      10.96002323      0.54269942      9.11926912
H       0.95703992      1.46862279      9.42242568
H       1.85489026      6.07486071      9.27981090
H       7.35072013      2.69414287      9.79494200
H       0.23656179      2.94428375     10.82401923
H       9.02865522     -0.26776587      9.45933334
C       7.98596145      5.90544501      9.46459287
H       4.01919564      8.36669180      9.31245329
O       8.23659156      2.64462993      9.26935672
H       5.45459398      8.85414416      9.72945376
H       8.33014962      5.74368334     10.54287781
O       4.98379848      8.15047468      9.10021665
O       3.03231369      3.10683802      9.06886065
O       1.11564341      2.51942858     10.57498764
H       1.46833427      2.12709999     11.38596602
H      10.89999422      8.01401477      9.80762760
O      10.58710698      7.44217202      9.04368600
H       5.38948603      3.16749849     10.47537458
O       6.05236140      2.61420110     10.82828925
O       4.10960658      5.30519552      9.97455610
H       4.79685088      5.89007803      9.65085073
H       7.98636264      7.04353237      9.34361502
H       8.60979551      6.64113775     12.53525847
H       6.19213951      2.82831018     11.88530931
H      11.40081739      6.27913767      9.22506511
H       6.45649585      9.17372161     11.37731053
H       5.94356397      0.89956393     10.78629435
O       6.34788751      9.66945822     10.55252720
O       9.21059997      5.99944156     12.02570956
H       3.78488204      5.46564649     10.90628221
H       9.48592135      2.20168502     12.17947649
H       9.66371433      5.56386511     12.77013939
H       8.39004494      9.45427931     12.92237372
H      11.62937490      8.70170735     12.08752059
H       9.06590625      3.61911741     11.81202052
O      -0.21665707      8.53532645     11.34305094
O       9.14866430      0.41816069     12.76564045
O       9.88470136      3.09158588     12.00059466
Cl      7.08485692      7.76003868     13.28906971
H       2.60573746      2.11978976     13.34540201
O      11.29189017      4.81721906     13.95851998
H      10.99166095      3.98720006     13.45654623
Cl      2.64330806      5.85769799     12.70011447
O       6.63544897      2.99731816     13.23818348
H      -0.50140610      7.60818558     11.66897187
O       2.21480371      1.46533216     12.70468239
H      12.05192716      5.21804609     13.46436483
H       6.34618755      3.85826599     13.53922919
H       6.19529454      2.28580693     13.77801635
H       9.72783364      9.34016712     12.37078201
H       5.84691700      9.56257180     14.06719245
O       3.79101613      6.33006955     16.16598722
H       3.01283829      6.08460298     16.77070666
H       1.20932303     -1.11851535     14.31615182
H       2.06425985      0.49113258     12.95970783
H       6.39534121      6.16893156     14.48381832
H       1.92406217      1.20894541     15.95136818
H       3.58443406      6.40909096     15.20039862
H       9.40446554      0.65503476     14.64202857
H       5.33883813      5.33083562     15.30937574
O       5.37644114      0.78051163     14.24430395
H       4.47872892     10.38249389     13.93644832
O       2.58600351      1.94166776     15.76179465
O       1.49049008      8.53141266     13.39794132
O       6.24025619      5.30286236     14.95230853
H       1.96909901      2.72526544     15.98531749
H       5.11642439      6.94280332     16.98070803
O       9.71927507      0.59668976     15.52582829
O       1.55407793     -0.63253858     16.27934125
O       5.45937724      7.46608604     17.75245881
H       0.63320881     -0.61882548     16.58719074
H      -1.38404516      2.07158594     16.35899518
O      -1.29034002      2.82561923     17.00512534
H       1.89880319      7.66857739     13.14355371
H       8.92885024      0.17529836     15.97177578
H       3.59790554      1.87699043     17.00256867
H       3.92705933      2.41786866     18.36463801
H       2.12459646     -0.98321326     16.99834723
H      -2.09542608      3.38325040     16.83638017
H       0.08357870      3.41330724     16.63313012
O       4.14293689      1.62717218     17.86114890
H       6.24443313      7.89075468     17.39527247
H       7.20924726      4.66325216     16.09611101
H       5.69244960      1.77599792     18.15158996
O       0.89886026      3.95950943     16.45142792
O       6.64782863      1.75203526     18.44666932
O       3.58271274     -0.65981517     18.77749934
H      11.76913430      4.28825243     15.58126491
O       7.62863522      4.30076768     16.95790220
H       3.84492907      0.29779849     18.64623866
H       7.15530844      2.46224235     17.91116390
H       4.26429246      8.51272666     18.33653753
H       7.31781091      0.05651230     17.62815340
H       1.45897291      5.05923468     17.69464870
H       3.02380335     -0.96248035     20.20655381
O       7.67723757     -0.78229901     17.13538704
H       7.49382279      4.94501016     17.71834241
O       2.10007637      5.66493104     18.16549938
O       2.45195951     -1.01138690     21.06024198
H       1.96556527     -0.08890411     21.20695472
H       8.31204324      8.51540866     17.84807258
O      -0.90145115      2.21529806     19.75990430
H       1.56154193      6.25432493     18.73120397
H       0.68513448      1.73271342     20.51338127
H       3.14430913      4.50549703     19.18611420
O       9.97642558      4.91137840     20.57944403
H      -1.18003094      2.42798302     18.83518466
H       2.28034663      1.78330719     20.31624709
O       1.56674913      1.51256616     20.93276320
H       9.62648525      5.31085825     19.79620950
H       7.72834621      0.97654840     21.36966872
H       4.27720372      3.94767677     19.98170727
H      10.10408313      3.89808457     20.30556933
H       9.52182070      1.60955138     20.15713172
O       3.36765566      3.70139824     19.65534917
O      -2.16099394     -1.47564923     19.42425942
O       8.10603185      0.66669570     20.52842592
H       1.19733169     -1.80396411     20.37884210
H       9.20284311      5.61232022     22.00132567
H      -1.18439254     -1.67055683     19.43518823
O       7.35443039      5.85633234     19.28037854
H      -2.38727387     -0.67777061     20.02666902
H       7.84033074      6.71589562     19.43639185
O       0.52111214     -2.33734970     19.86059688
O       8.93519709      5.92462592     22.94919056
H       7.41998769      1.05064133     19.85575528
H       6.49013319     -3.40422398     18.88898402
H       6.36141867      4.91546798     20.30692682
H       2.85240412      3.91686618     21.33217095
H       8.03254409      6.16272321     22.90133974
O       5.74864868      4.36948083     20.88015731
H       0.24130864      6.53899344     20.42227771
H       3.39719314      8.07003345     22.29814663
H       5.79712955      4.76599526     21.75612090
O       2.71296142      3.75757515     22.28171244
O      10.52618688      9.48967643     24.45491100
O       3.96959658      7.48089681     23.02985173
O       7.05699174      1.45387159     22.99942671
H       8.87640737      4.07903473     23.67822805
H       1.94515523      3.12351125     22.31512305
H       3.19679042      6.94209271     23.43068967
H      10.80016599      8.65660743     23.81962521
H       6.12946109      1.87742505     23.13668453
H       7.71644134      2.23743612     22.94842598
H       3.78302439      2.68962930     23.12863543
H      11.06377594      0.67341628     24.23831355
H       2.08591462      4.95369909     23.21954830
O      11.12697875      7.50894981     23.16089162
H       0.68078275      6.76788698     23.41279045
O       1.84865350      5.80187296     23.70254386
O       4.55120983      2.22040123     23.64385074
O       8.92908732      3.11871583     23.61342071
O       0.38447044      2.30425814     23.76431842
O       6.26105177      6.08245989     23.24682447
H       7.52269785      0.40027441     24.08063626
H       4.47859799      8.36118438     23.97435192
H      10.59371231      2.49178876     23.61937993
H       5.45126776      6.69028028     23.23588567
H      10.29313152      7.02689567     23.19915309
H       8.77315463      2.84338833     24.60081662
H       4.70894169      0.33871550     24.14330864
H       8.94138022      9.27876163     24.38855656
H       4.75326494      2.86006309     24.29950972
H       1.83299502      5.44300542     24.62226584
O       7.93726387      9.22124433     24.43483274
O       4.99441979     -0.51205512     24.50739947
H       0.64820558      2.59918206     24.72188863
H       6.33377879      5.66651773     24.10146126
Pt      1.97391620      9.25789345     26.72026852
Pt      4.65176206      9.16892689     26.61864392
Pt      7.58832637      9.09869707     26.65698359
Pt     10.42074237      9.44725470     26.62022787
Pt      7.68980672      4.37986746     26.74803956
Pt      3.54332408      6.70183318     26.70971995
Pt      9.21556594      6.78566624     26.60553001
Pt      6.30557350      6.61458803     26.72307624
Pt     10.55028740      4.34291009     26.73241453
Pt      0.72875312      6.74570400     26.76829534
Pt      9.05557427      2.09090981     26.89248649
Pt      6.15244628      1.79655711     26.82541806
Pt      2.10855623      4.29509894     26.72495306
Pt      4.88897551      4.28872842     26.67623620
Pt      0.72413189      1.99876255     26.84023632
Pt      3.45301265      2.02090824     26.66570424
H       8.63532921      1.69358870      9.35063054
