   242
 Tv_1:  11.152900   0.000000   0.000000 Tv_2:   0.000000   9.658700   0.000000 Tv_3:   0.000000   0.000000  26.829700
Pt      5.38443040      7.78976265      2.35959697
Pt      6.65515834      0.60177498      2.30037132
Pt     10.82589134      7.75242840      2.39860406
Pt      8.14147627      7.83663595      2.32086901
Pt      8.11272149      2.97887664      2.40733309
Pt      2.52581230      7.67851726      2.29600424
Pt      9.52593893      5.43691649      2.15996007
Pt      6.69284812      5.44574478      2.27747891
Pt      5.17725816      3.06085060      2.28410579
Pt      3.95804029      5.40180515      2.43156014
Pt      9.43991879      0.64282658      2.37350164
Pt      1.13685122      5.40792987      2.29851885
Pt      1.20192570      0.51550524      2.25560219
Pt      2.32672442      3.03324834      2.10429930
Pt      3.91960191      0.48922730      2.23499017
Pt     10.75037754      3.00244387      2.24111065
Pt      5.90814209      6.65777201      4.71754725
Pt      8.74802622      6.54057893      4.56995650
Pt      7.28424906      9.03959270      4.59747556
Pt      7.40004305      4.14449637      4.90725784
Pt      8.73403963      1.73467745      4.81274889
Pt      5.93850752      1.80217924      4.66196678
Pt     10.05417586      4.11384992      4.54667446
Pt     10.13661201      9.05427538      4.70509874
Pt      1.80907751      9.10019021      4.61487685
Pt      0.32190809      6.53589421      4.75263932
Pt      3.20705343      1.84297515      4.42511984
Pt      3.06677489      6.68264610      4.72957752
Pt      4.52946341      9.04552524      4.58025924
Pt      4.69799430      4.16596223      4.58872955
Pt      0.53293736      1.84744294      4.43816925
Pt      1.88923126      4.30266094      4.51963531
Pt      7.96380147      3.01098980      7.18730363
Pt     10.72076665      7.67605951      7.05915349
Pt      9.31279747      5.37715300      6.99029397
Pt      9.32604493      0.49246076      7.25006205
Pt      6.60197016      0.53944858      7.06900173
Pt      3.73597759      5.35720814      6.89818279
Pt      3.85146178      0.68350464      6.89872287
Pt      7.94050528      7.80807226      6.99197335
Pt      5.09067723      3.05113417      7.14054356
Pt      2.33346323      2.92053837      6.85472807
Pt      0.96788231      5.22450251      6.99000155
Pt     10.75653881      2.83386703      6.82272586
Pt      6.66450525      5.41115651      7.13985874
Pt      1.12973502      0.56934499      6.88017754
Pt      2.43468950      7.78066427      7.01867656
Pt      5.20022723      7.85197690      7.02552619
O       6.54617024      5.38320395      9.08201426
O       2.37147048      8.01388427      9.08150007
O       1.02979541      5.10058188      9.10791808
H       3.73527820      2.97095508      9.66891768
H       8.57559547      5.71501105      9.52456598
O       0.98321696      0.62259052      9.15022039
H       1.68324729      8.68356052      9.24227938
H       4.75780686      4.10930970      9.53998395
O       9.48239633      0.47851002      9.22441284
H      11.12393815      0.60392127      9.38483618
H       1.44810926      1.44400202      9.59366593
H       1.52014156      5.87238968      9.34222155
H       7.61640841      2.60914133      9.95432889
H       1.78117884      3.77345357      9.93175560
H       8.68394534     -0.04070077      9.50891362
C       7.55523565      6.11454827      9.78739648
H       3.33910324      8.24907400      9.29975363
O       8.37326849      2.84119136      9.20455903
H       5.56465426      8.71548934      9.20436218
H       7.40736565      5.93028306     10.87256644
O       4.88102179      8.01762559      9.07112129
O       4.76018750      3.11453277      9.43699900
O       2.22297036      2.87182847     10.02754461
H       2.19915358      2.67016214     10.98141765
H      10.50607699      7.59421954     10.16939627
O      10.38438633      6.99734280      9.30749258
H       5.82392889      2.80533341     10.64368107
O       6.62142449      2.36542554     11.05790363
O       3.91619996      5.32507633     10.72698423
H       4.38833718      6.19273522     10.53736727
H       7.57573121      7.20644330      9.42728916
H       6.79063075      6.77734216     12.69525200
H       6.68489950      2.79197181     11.97470741
H      10.87693375      6.10838108      9.46423778
H       6.80485969      8.65405665     11.08054724
H       6.78923310      0.43206017     10.73135246
O       7.33936417      9.33572666     10.55541093
O       7.41157257      6.03254069     12.88055179
H       4.03837563      5.17086266     11.63849410
H       9.91367893      2.78316931     12.35600168
H       8.27450006      6.40982930     13.11356130
H       8.90548422     10.38611220     13.24756034
H      11.62213692      8.55943346     11.79377722
H       9.76546173      3.57774623     10.94761863
O      -0.42950567      8.21181480     11.60316875
O       9.78590904      1.07798814     12.92312120
O       9.84889764      3.66835698     11.88876829
Cl      5.18014582      8.02769164     12.26249694
H       1.93924222      3.72289707     13.12895110
O      10.24328681      6.08686515     13.21492854
H      10.23160730      5.19500346     12.73309033
Cl      2.13470333      5.82585743     13.82782848
O       6.86647557      3.40380693     13.28934940
H      -0.45164002      7.46630600     12.31855566
O       2.33241857      2.95108416     12.68661224
H      10.97705891      6.13506770     13.88810004
H       6.91261057      4.37876458     13.20145589
H       6.01925738      3.28488370     13.65331814
H      10.27845589     10.02886090     12.51192766
H       6.68433418      9.40258173     13.31817335
O       4.93871313      4.45493139     14.93668822
H       4.62709541      3.59415570     15.35196020
H       2.09668006     -0.16079905     13.19598168
H       2.50559197      2.25821937     13.45607113
H       7.25711455      6.11220088     14.73426545
H       3.27770485      1.98221605     16.06891117
H       4.09956304      4.85495051     14.46396553
H      10.39806088      1.39304775     14.51271798
H       6.21510827      5.44882075     15.74054536
O       7.34179805      0.18412402     13.93781633
H       7.28196379      9.40881108     14.78764302
O       3.88742067      2.52144768     16.60927048
O       2.05119989      9.40162362     12.22942652
O       7.03660099      5.99621497     15.70222312
H       3.24972030      3.31520660     16.82182150
H       5.33783746      8.55769896     15.64847485
O      10.81135248      1.31488487     15.44661423
O       2.16005090      0.85437900     15.13763171
O       6.16759508      8.62306715     16.10839194
H       1.18855409      0.98187198     15.43366349
H      -0.54860022      2.77404468     16.29318014
O      -0.56730343      3.40031008     17.11560678
H       2.81342869      8.82505357     12.00233611
H      10.09772003      0.79780007     15.97784753
H       5.45067020     -0.03625937     17.19977370
H       4.47114664      1.27959651     17.64682212
H       2.44369303     -0.01744386     15.27514307
H      -1.23296289      4.17838771     17.09797497
H       1.28284940      4.10263988     16.89203621
O       5.17174581      0.54879709     17.95605784
H       6.47174463      7.69097904     16.14795414
H       7.88615961      5.44387012     17.03185128
H       6.48622544      1.54211494     18.05131771
O       2.17397030      4.54817879     16.76804331
O       7.29726629      2.15365608     18.09603818
O       3.78644843     -1.32792971     14.96158032
H      13.25295507      5.03921628     15.87948352
O       8.58720248      5.16500203     17.67302704
H       3.55485622     -2.28776192     15.05709427
H       7.18461022      2.86428946     17.50976303
H       4.22347705      8.25695033     14.11160570
H       8.75306767      0.85241576     17.51081472
H       2.25393346      5.76859028     18.51064676
H       5.88873985     -0.59273329     20.72478942
O       9.15640695      0.09137492     17.03200604
H       8.23450776      5.15537672     18.54212382
O       2.27691384      5.83364779     19.49871083
O       5.03382747     -1.02942950     20.30078248
H       5.01914760     -0.61008204     19.37245677
H       9.27039503      9.03149334     17.74606238
O      -0.48682573      2.67374799     19.69862191
H       2.10343467      6.74307470     19.85508988
H       1.04478270      3.13742304     20.50411592
H       4.31078741      5.71966336     20.19465338
O       7.71468170      5.87178317     20.51680754
H      -0.72879431      2.78400524     18.68312421
H       1.87553144      4.31921422     20.39191693
O       1.92167400      3.43697711     20.77653243
H       6.75738034      6.06529427     20.67266652
H       7.72653350      2.80650561     21.12340161
H       5.00350345      6.98336843     20.75092171
H       7.73242987      4.88453480     20.44796899
H       9.78086137      2.76526625     20.01757975
O       4.91310224      5.99832896     20.96119064
O      -0.03797948      0.42288726     20.81650360
O       8.12781024      3.33101469     20.35384436
H       3.23344594     -0.75325317     20.61379594
H       8.49817056      6.08360806     21.92385988
H       0.93058487      0.34581042     20.83220742
O       9.61753691      8.29098532     19.59880519
H      -0.22824474      1.36134836     20.29624051
H      10.49536405      8.79203199     19.81259325
O       2.23513163     -0.83121413     20.76474587
O       9.11799095      5.99344194     22.68450601
H       7.66937844      2.91042802     19.53703094
H       9.92224869     -2.36118887     19.51777011
H       8.08983108      8.87148498     20.69197731
H       2.45892863      3.66478089     22.26671503
H       8.52447242      6.15476015     23.40138057
O       7.41377119      9.03151976     21.44691501
H       2.19890193      8.52051766     21.68539784
H       2.29777559      8.18847447     24.29563454
H       7.77411663      9.98089951     21.71074299
O       2.68600563      3.43831004     23.22163203
O      10.67116157      9.54743481     23.33457294
O       2.92218345      8.03002517     23.51837218
O       7.40040239      2.07805000     22.63087941
H       9.44631779      4.47632499     23.21800848
H       1.89412200      3.01285635     23.67207279
H       3.29644917      7.15744506     23.48700541
H      11.05803582      8.66103811     23.54986097
H       6.44073528      2.13916303     23.00268970
H       8.03579322      2.59703464     23.20386034
H       3.95125852      2.77264323     23.58259027
H      10.84486912      0.03985435     22.35660222
H       4.19202981      5.69858576     22.46871153
O      11.47120361      6.85915322     23.63828393
H       0.41184267      6.20964986     24.43121163
O       3.98569541      5.67135673     23.47460851
O       4.86612613      2.26846792     23.77866604
O       9.47516235      3.61784650     23.78325551
O       0.49018314      2.02413443     24.46799243
O       6.10923532      6.62033805     24.49284355
H       7.80569536      0.75027539     24.12588752
H       4.13630473      8.87507337     23.94003462
H      10.84105836      2.71555335     24.36536728
H       5.91545703      7.62581703     24.32426368
H      10.61153211      6.63436336     23.19554526
H       9.11149196      3.87779592     24.67277220
H       4.84522480      0.61366406     24.31804397
H       8.96463858      9.39188460     24.18915833
H       5.07026968      2.53206035     24.71688884
H       3.51996626      4.84944671     23.58062934
O       7.99051204      9.46832093     24.43642067
O       4.93405945     -0.38177420     24.44996986
H       0.07667550      1.19098152     23.99897910
H       5.16053604      6.17745222     24.25252138
Pt      2.13318815      9.01096276     26.77980163
Pt      4.75906549      9.08726136     26.73008024
Pt      7.79150735      9.21287746     26.72463054
Pt     10.56399013      9.00626930     26.87759153
Pt      7.78819255      4.29747081     26.80411078
Pt      3.35504218      6.58286159     26.79179697
Pt      8.99074091      6.79288176     26.77274171
Pt      6.10575325      6.74300312     26.79394877
Pt     10.49388786      4.27016607     26.69910574
Pt      0.70124697      6.65973378     26.72409216
Pt      9.15246120      1.90500706     26.88154539
Pt      6.38175490      1.98598194     26.86216371
Pt      2.14932104      4.29109821     26.66866081
Pt      4.79963899      4.28179897     26.79399354
Pt      0.77066634      1.68411767     26.60361799
Pt      3.62786415      1.93655226     26.73943233
H       8.95449852      2.02343888      9.38430915
