   242
 Tv_1:  11.152900   0.000000   0.000000 Tv_2:   0.000000   9.658700   0.000000 Tv_3:   0.000000   0.000000  26.829700
Pt      5.20995259      7.80338925      2.26160822
Pt      6.67542161      0.70950352      2.30165673
Pt     10.79896805      7.82944211      2.31182557
Pt      7.85278963      7.90917766      2.24190971
Pt      8.08771754      3.06671649      2.44273634
Pt      2.52076326      7.74771141      2.35451696
Pt      9.45065892      5.49574132      2.26406613
Pt      6.62572933      5.45384506      2.50029703
Pt      5.23160935      3.04063993      2.29472878
Pt      3.94975068      5.39210996      2.27494402
Pt      9.38962886      0.56799754      2.38360816
Pt      0.99322869      5.37768877      2.20788525
Pt      1.16997840      0.53488664      2.32005286
Pt      2.50727363      3.00729761      2.38442811
Pt      3.94025438      0.49691985      2.19098803
Pt     10.93200855      2.86607252      2.36149784
Pt      5.68081596      6.59687693      4.73703930
Pt      8.49721322      6.59401811      4.54348882
Pt      7.24416512      8.95304081      4.66135743
Pt      7.24008722      4.10917006      4.76445618
Pt      8.63108547      1.57671421      4.74634564
Pt      5.87547112      1.71941114      4.59066421
Pt      9.96067632      4.11569518      4.50218720
Pt     10.07855218      8.88883752      4.70206628
Pt      1.69491308      8.88365282      4.63404661
Pt      0.11974476      6.54973847      4.58567483
Pt      3.21872879      1.59215743      4.67142460
Pt      3.03135355      6.41399963      4.80801637
Pt      4.48131408      8.92396412      4.65326619
Pt      4.35175472      4.11019690      4.68691148
Pt      0.46217085      1.63789706      4.72223777
Pt      1.42885403      4.28552379      4.53378549
Pt      7.64682882      2.77522145      7.07084470
Pt     10.44393592      7.69524772      7.11915927
Pt      9.22286976      5.30954541      6.95861857
Pt      9.04166365      0.47687723      7.17310202
Pt      6.08004807      0.32570903      7.01951941
Pt      3.54845250      5.12794488      7.06324917
Pt      3.47462177      0.44061118      7.09942609
Pt      7.77442917      7.72785306      7.01770371
Pt      4.94095964      2.79208440      7.04276449
Pt      2.18394784      2.89807688      6.77823111
Pt      0.79617699      5.29589064      6.94093066
Pt     10.43647671      2.93672390      6.88019662
Pt      6.38077996      5.21811694      7.06555236
Pt      0.66571252      0.52249788      7.07054949
Pt      2.09859592      7.63364229      7.04110065
Pt      5.01409988      7.55392342      7.00107351
O       6.40764327      5.17042407      8.98495812
O       2.24923989      7.73935343      9.11706580
O       0.68951432      5.32736551      8.97716422
H       3.12665933      0.66002306     10.55832375
H       8.34585747      5.59671962      9.01266248
O       0.56127927      0.41045804      9.25471015
H       1.79839116      8.56548957      9.39764754
H       2.73180093      1.97511796      9.76262568
O       9.10225530      0.62351388      9.31540563
H      10.74008878      0.49343738      9.55562647
H       0.80474103      1.35910664      9.37650501
H       1.40354332      5.92644310      9.32497092
H       7.10369339      2.79450736      9.77513599
H       1.08802745      3.79195116      9.44881242
H       8.45823682     -0.01754045      9.66330776
C       7.44465930      5.85269353      9.63752890
H       3.64157048      7.89055666      9.20984864
O       7.96195149      2.85470099      9.20699761
H       5.24544981      8.38056908      9.49623859
H       7.58638968      5.55193555     10.68866902
O       4.67239841      7.64413268      9.13793568
O       3.42085839      1.22092994      9.82273648
O       1.27131113      2.87571918      9.91955600
H       1.18455049      3.08076109     10.88606061
H      10.43846272      7.91932223     10.23621328
O      10.23914364      7.35825205      9.46134533
H       4.80087869      2.36886964     10.59473154
O       5.78321612      2.60330635     10.70602844
O       3.94347860      4.69758303      9.29477499
H       4.95985903      4.98143476      9.34465802
H       7.23277909      6.91224238      9.56725098
H       7.18067804      6.93362148     12.69153150
H       5.96424113      2.72164250     11.70737751
H      10.77769658      6.51007506      9.74612083
H       6.19934801      8.81759949     11.22361351
H       5.95674101      0.60429573     10.60611688
O       6.25515660      9.36005924     10.38962529
O       8.06235769      6.53883351     12.71372435
H       3.34922748      5.02904483     10.06097765
H      10.15114437      2.68603351     12.96640531
H       8.64147229      7.29868940     13.03818004
H       9.18180761     10.17568162     13.89684039
H      11.83144874      8.86277102     11.77207416
H       9.07086264      3.60482464     12.41075334
O      -0.24723049      8.62417067     11.75315845
O      10.11261764      0.84086361     13.64772663
O       9.95570647      3.62668192     12.77190821
Cl      5.34644582      7.84294483     12.93957523
H       2.27951395      2.98766194     12.76521278
O      11.14401715      6.04198152     12.94793165
H      10.50904854      5.40633704     12.61047005
Cl      2.46246206      4.76646417     11.96985618
O       6.70731131      2.75722299     13.34649442
H      -0.12283346      7.64913162     12.13134707
O       2.12247803      2.04657507     13.08177624
H      11.97974703      5.57434146     12.70302547
H       5.91702154      3.26769728     13.88090938
H       6.74321353      1.86256322     13.70008213
H      10.43526207      9.77777491     13.01789529
H       6.74798386      8.97262870     14.00640392
O       4.79290569      4.34401799     14.46190376
H       4.49860446      4.35712974     15.41863860
H       2.44547279      0.50766225     12.53074868
H       2.55013246      1.96636953     13.97431021
H       7.61224899      5.83931866     14.07668365
H       3.71908499      3.03177464     16.89911035
H       4.03895507      4.71170702     13.95717903
H      11.11837803      1.06791469     15.28966477
H       6.34725208      5.39072876     14.95994354
O       7.58237388     -0.22667310     14.38767830
H       8.01114415      8.72197578     14.98465322
O       4.19762733      3.87654801     17.03528516
O       2.45305959      9.28410783     12.05048435
O       7.30453700      5.58577307     15.04757344
H       3.63899339      4.60933615     17.40739320
H       7.96548448      6.86071484     15.91297016
O      11.60010337      1.09364547     16.14510041
O       3.04432699      1.60415996     15.98634326
O       8.56491033      7.55414086     16.32012124
H       2.18350373      1.22336272     16.19027599
H       0.13526326      3.09697270     16.37516321
O      -0.11493407      3.93644270     16.84639024
H       3.15025015      8.71764974     12.45332746
H      10.89481233      1.05008527     16.85265794
H       7.21304571     -1.29611971     17.36170491
H       5.74410120     -0.69378912     17.18305117
H       3.69630554      0.82808954     16.12462432
H      -1.06686646      3.88665004     16.93009012
H      -0.05806659      5.55317900     15.63339178
O       6.55269832     -0.68807442     17.78905007
H       9.42185318      7.19662068     15.99137905
H       7.93182033      4.25207694     16.05874408
H       6.99520930      0.85894591     17.95656008
O       0.22093553      6.53900684     15.52365672
O       7.61518317      1.62850226     18.17790407
O       4.45596038     -0.79059626     15.95068117
H      11.37144361      6.65440203     14.45950355
O       8.30229219      3.70353030     16.80637152
H       4.68797069     -0.98712418     14.99503805
H       7.65624081      2.14988898     17.32728445
H       3.54055194      8.44642965     16.00077309
H       9.00399968      0.95435174     18.33084972
H       1.31955687      7.42427399     16.35317486
H       6.01556607     -2.07412357     18.62122533
O      10.02072859      0.60549312     18.30131977
H       8.09063406      4.16402740     17.72198392
O       1.86024296      8.17558472     16.74616678
O       5.59141656     -2.84436125     19.08802313
H       5.72326888     -2.72312535     20.10430679
H      10.09333561      9.46228257     18.78138934
O      -0.31244482      1.95683133     20.57399069
H       1.30824307      8.93720387     16.53814745
H       0.71238016      3.91470185     18.33741537
H       2.55653041      7.31192899     18.09545372
O       7.73689947      4.89122258     19.32381536
H      -0.49818640      1.29929012     19.80207533
H       1.88336397      5.01152287     18.97455192
O       1.22775579      4.21576433     19.21574586
H       6.88293657      5.44552062     19.25373561
H       7.27236195      2.14145238     21.54843167
H       3.88159219      6.58665050     18.82289240
H       7.61868636      4.19907539     20.01452650
H      10.05092746      2.49208042     20.57022126
O       2.91957089      6.50330623     18.60402769
O      -0.70598947     -0.86569665     20.76647375
O       7.69791588      2.68731209     20.84277069
H       2.58231885     -2.18089152     21.69700334
H       9.80154700      5.33505859     20.68016361
H       0.13421724     -1.41338540     20.89104806
O       8.63073712      7.33184465     22.48463070
H      -0.58932965     -0.03846387     21.26361260
H       8.51898258      7.83366565     23.32918817
O       1.78865212     -2.23841455     21.09897766
O      10.67418144      5.13301011     21.03385873
H       7.59334405      2.14159683     20.04732483
H       9.25026398     -1.83748235     21.87810365
H       6.99604253      6.76592550     21.83134285
H       2.09811464      3.49857397     20.49900470
H      11.23378040      4.87040011     20.26419432
O       6.07453168      6.38630680     21.64492922
H       2.17238109      7.19954948     20.23620293
H       4.86110239      7.12938946     22.44311691
H       6.20318533      5.42959926     21.90575338
O       2.14979293      3.09307395     21.35405338
O      10.80619120      9.32364209     24.41066020
O       4.06202610      7.39742587     22.98413090
O       8.23911066      2.03687971     23.73824303
H      10.28839542      4.29158957     22.44243385
H       1.30899641      2.54803479     21.38917095
H       3.81099258      6.50991581     23.35986971
H      11.31724290      8.46981036     24.14459002
H       8.41764598      2.14602360     24.67197886
H       8.95468436      2.55668600     23.27171038
H       3.60423751      2.36859866     22.37983965
H      11.39783569      0.44627614     24.17924357
H       2.45234300      4.48618169     22.77736574
O      11.75764325      7.00998259     23.67357121
H       1.40131159      6.52259914     23.88816537
O       2.65569425      5.08944491     23.55176914
O       3.96506315      2.29340905     23.28846095
O      10.13056434      3.78940511     23.34944082
O       1.10315359      2.04426445     23.99182738
O       6.56547938      4.17971204     23.29181283
H       6.71469265     -0.27608400     24.29717672
H       4.55801268      8.63279004     23.79221245
H      11.61862893      2.73876999     24.08666621
H       7.06941167      3.31673037     23.33266055
H      11.62357801      6.68347849     22.71828277
H       9.84531916      4.50830498     23.95377703
H       4.71787983      0.58873823     24.06720066
H       8.24256193      9.77717548     24.16895394
H       4.79200728      2.80367459     23.42043568
H       2.43795803      4.69066216     24.43481238
O       7.63374998      9.01027921     24.37416912
O       5.02333013     -0.29844130     24.37662787
H       2.05185901      2.25228128     24.31508108
H       6.57105894      4.45363770     24.25701020
Pt      2.36034431      9.20966997     26.69120022
Pt      4.97903176      9.16137986     26.58373550
Pt      7.85449827      9.02403827     26.71304059
Pt     10.66262040      9.03171328     26.64877220
Pt      7.81301892      4.22416563     26.71472457
Pt      3.53195465      6.78574553     26.71935294
Pt      9.24708847      6.66077230     26.66191366
Pt      6.29908736      6.63589355     26.78087964
Pt     10.43685071      4.18563217     26.74114741
Pt      0.84781698      6.63157051     26.75218808
Pt      9.16556625      1.96329641     26.91252009
Pt      6.44295723      1.97844526     26.75623832
Pt      2.30212783      4.36734874     26.76239677
Pt      4.98804653      4.33538465     26.59144602
Pt      0.69588560      1.92380577     26.87116654
Pt      3.55580444      2.02448307     26.89203964
H       8.49879723      1.97450077      9.53507688
