   242
 Tv_1:  11.152900   0.000000   0.000000 Tv_2:   0.000000   9.658700   0.000000 Tv_3:   0.000000   0.000000  26.829700
Pt      5.32052524      7.92104859      2.10406960
Pt      6.77200732      0.60671433      2.32404683
Pt     10.85270328      8.01582151      2.24321742
Pt      8.16452500      7.97978763      2.20082708
Pt      7.99913022      3.04069216      2.42508159
Pt      2.54313381      7.90568301      2.23004310
Pt      9.59922046      5.55340625      2.29321629
Pt      6.83752542      5.45946268      2.18081410
Pt      5.30310128      3.13785332      2.29367772
Pt      3.86578519      5.47395415      2.30597431
Pt      9.41273383      0.72596157      2.40939364
Pt      1.10907833      5.49169603      2.30796845
Pt      1.09798917      0.55326856      2.34555050
Pt      2.43979295      3.06987878      2.46282705
Pt      4.07941891      0.62456257      2.30737486
Pt     10.77399906      2.98484706      2.31691878
Pt      5.56899041      6.38941533      4.52901132
Pt      8.41970975      6.58401566      4.59465892
Pt      7.04452256      8.96366171      4.60109617
Pt      7.10252364      4.10536117      4.79139643
Pt      8.47346389      1.68712152      4.81601361
Pt      5.65147002      1.71154718      4.68092355
Pt      9.82559534      4.06840689      4.52569857
Pt      9.81822860      8.94779491      4.71144136
Pt      1.51095096      8.89472548      4.70029777
Pt      0.01106258      6.56395312      4.68582917
Pt      2.94343315      1.69334517      4.76688291
Pt      2.79438692      6.69825627      4.61867702
Pt      4.36124475      8.92390708      4.53586909
Pt      4.34508185      4.08170987      4.66120298
Pt      0.30062540      1.71217497      4.79127928
Pt      1.49936541      4.18140964      4.70754597
Pt      7.61460412      2.71705851      7.17593934
Pt     10.18766865      7.60709011      7.08136888
Pt      8.92863759      5.06153282      6.84162061
Pt      8.70381392      0.28314406      7.08147685
Pt      6.01043593      0.32139512      6.99119266
Pt      3.40914708      5.21875741      6.95963122
Pt      3.39460238      0.36714828      6.95555362
Pt      7.38674248      7.71058550      6.95859778
Pt      4.73956902      2.64782187      7.07608870
Pt      2.01676103      2.85860275      7.11661219
Pt      0.59499662      5.27302998      7.03571287
Pt     10.35488403      2.92147006      6.94251906
Pt      6.11834099      5.29707804      6.98598223
Pt      0.38830436      0.42026017      7.15280764
Pt      1.85316316      7.73355600      7.10646840
Pt      4.59417093      7.57962245      7.01582917
O       6.21740936      5.33356397      8.99985242
O       1.84668054      7.88086688      9.14292110
O       0.78122507      5.04263965      9.20814623
H       4.01299760      3.49008957      9.72348942
H       8.36297414      5.60506577      9.38191128
O       0.46084509      0.42479002      9.24645580
H       1.23786922      8.64340902      9.37087377
H       5.31853281      4.03549397      9.11104260
O       8.81140595     -0.16124365      9.12880246
H      10.68609101      0.45998276      9.43603694
H       1.04207468      1.69565559      9.32117912
H       1.65315630      5.42716128      9.56153636
H       6.92498121      2.37938633      9.73628420
H       0.79139343      4.06541387      9.40681403
H       7.83037421     -0.17914485      9.41618675
C       7.29303176      5.96156892      9.70959567
H       3.31819495      8.07537985      9.40444368
O       7.72177868      2.72324776      9.31946871
H       5.00190283      8.41489702      9.57763129
H       7.21945460      5.75869831     10.79663857
O       4.35887099      7.74453512      9.19552772
O       4.76223774      3.19985943      9.21151626
O       1.59039058      2.63604416      9.34211640
H       2.26596421      2.34325040      9.96607660
H       9.32481377      8.34924657      9.30619066
O       9.80711033      7.34585174      9.23070856
H       5.16598859      1.96962425     11.22718336
O       6.10296452      1.93868213     11.17016653
O       3.16876403      5.30890258     10.51889876
H       3.69242698      6.10779716     10.25968622
H       7.24811348      7.06592013      9.48573057
H       7.11133929      6.30169989     13.12321959
H       6.55930093      2.09540207     12.07329250
H      10.63273783      7.33159541      9.71481270
H       6.06148640      8.79324250     11.10064346
H       6.27798245      0.55244575     10.49110425
O       6.38498598      9.21671488     10.23588878
O       7.77383302      5.63200698     13.34214799
H       3.16373923      5.21740918     11.46654083
H       9.91759682      2.02043902     11.45238336
H       8.61035656      5.86938348     12.89728219
H       8.96230614     10.30856969     12.97735104
H      12.30385930      8.50443333     12.05629181
H       9.58054529      3.48117951     11.30923243
O       0.20408381      8.48593305     11.84492399
O       9.87173079      0.96940903     12.73811117
O       9.76817295      2.69491301     10.68058938
Cl      5.33331117      7.35703097     12.43475384
H       3.15796708      2.62703647     12.15624358
O      10.57832855      5.39426000     11.72389397
H      10.88778519      5.34859519     10.76565133
Cl      2.24072933      4.52404279     13.45768806
O       7.30764903      2.28732140     13.59032715
H      -0.12307401      7.67569955     12.14690660
O       3.36257568      1.91016548     11.54778198
H      11.39705798      5.21401331     12.23025878
H       6.79175206      3.02801091     14.05373822
H       7.07971362      1.46202658     14.16091693
H      10.39444673      9.81097704     12.39481779
H       6.63509185      8.81761405     13.39166995
O       4.94004632      3.41726305     15.34869523
H       4.46557166      2.79516912     15.92955689
H       2.68129917     -0.83313539     13.44473764
H       3.03372959      1.07038522     12.01910035
H       7.32373865      5.35693634     14.92705182
H       3.46407263      0.57895503     16.30349419
H       4.25724863      3.80858068     14.74741323
H      10.54422344      0.85149787     14.34473888
H       6.02152474      4.77368851     15.76654649
O       7.19230785     -0.28032065     13.97396525
H       7.20861782      8.83590140     14.81139400
O       3.87003482      1.03625138     17.09626486
O       2.71339433      8.91805800     12.45914800
O       6.85756400      5.30747392     15.78528024
H       3.08535240      1.31156350     17.58887550
H       7.00908645      6.89782233     16.10370107
O      11.05218103      0.62465037     15.20310117
O       2.47297684     -0.53263384     15.15236743
O       7.12269641      7.92252803     16.34952288
H       1.47887701     -0.33338111     15.08024633
H       0.01638813      1.93662334     16.52501336
O       0.01111107      2.56719618     17.28831615
H       3.62893534      8.56950748     12.28019584
H      10.53697537     -0.04465052     15.68737168
H       5.66833023     -1.39399898     17.67051430
H       4.77251645     -0.02790093     17.73824356
H       2.58574374     -1.50161365     15.39280373
H      -0.85280035      3.01724351     17.40461273
H       1.19035797      3.56331423     16.51721821
O       5.35120520     -0.65317091     18.25665623
H       8.02471481      8.06580267     16.77146910
H       8.24314299      4.46655179     17.12095961
H       6.67036319      0.68937598     18.64564013
O       1.98421303      4.17011090     16.40177674
O       7.50330102      1.28391869     18.77050196
O       3.86593400     -3.04798560     15.15700617
H      13.42571422      3.97986183     15.47001020
O       8.70304583      3.90576131     17.69303604
H       4.64307887     -2.76241456     14.60578875
H       7.53807141      1.96537898     18.08847485
H       3.34204673      6.05476249     14.51518455
H       9.99861520     -0.63817754     17.81870062
H       1.24207883      5.72602332     16.85843230
H       4.51131132     -0.74547655     19.47134616
O      10.01155240     -1.07958060     16.94638604
H       8.63873830      4.40559501     18.57614009
O       0.73443856      6.44717854     17.29103880
O       3.90981102     -0.67047451     20.31899209
H       3.60005891      0.27133466     20.20665688
H      10.56116049      7.76491452     17.09010576
O       0.49334505      1.99977203     20.09354167
H       1.14295558      6.60962971     18.16691148
H       2.12363915      2.13688741     20.43221945
H       2.77160512      4.51341522     18.17538638
O       8.14753746      4.99102328     20.38774919
H       0.47851388      2.21088031     19.13506892
H       3.27040591      3.18772139     19.96512811
O       3.12158369      2.31969384     20.51020354
H       7.18039733      4.99448023     20.60312540
H       8.54352560      1.98579758     21.64781860
H       2.97106387      5.45750976     19.43143650
H       8.40504697      4.00596850     20.63042947
H      10.65728026      2.23281280     20.38134524
O       3.32796134      4.68498260     19.03536973
O      -0.65370107     -0.82206732     19.60242578
O       8.92424369      2.31891798     20.82963587
H       1.42216430     -2.46793697     20.77605227
H       8.79881970      5.66665530     21.72968248
H       0.18369660     -1.30296285     19.78160673
O       7.74854935      8.85587862     21.63416000
H      -0.37267048      0.10229572     19.84220334
H       8.31374755      8.73860877     20.82355913
O       1.77102066     -2.34466302     19.85040964
O       9.38282853      6.08661681     22.46588829
H       8.41541609      1.81604015     20.11180730
H       6.92705962     -1.28111257     21.36747385
H       5.60455626      4.61545259     23.11071048
H       2.93365348      2.80052147     22.09604732
H       8.78790951      6.60502754     23.04851056
O       5.58558832      5.57489547     22.71086773
H       2.57647901      7.98009852     19.83711058
H       4.05503814      8.59425955     21.79678353
H       4.63122659      5.73104089     22.71527688
O       3.21589546      3.27954102     22.93259193
O      11.25880415      9.03777295     24.21639956
O       3.98862436      8.60699268     22.83191850
O       7.90543169      1.91965116     23.26868944
H      10.07208745      4.25502467     23.38331598
H       2.64997472      2.68678426     23.58219308
H       3.74965065      7.71188899     23.19414702
H      11.54812835      8.15171918     23.94195357
H       7.01583251      2.31301311     23.42991402
H       8.63606204      2.56453525     23.69714627
H       4.59747468      2.97135681     23.19356737
H      11.87541636      0.10818383     23.95593305
H       2.95330840      4.84414967     23.21283236
O      11.86554453      6.93783622     22.42838526
H       1.37781570      6.26630943     22.72796051
O       2.99024509      5.82352010     23.63272375
O       5.49566288      2.81054308     23.67555393
O      10.01014161      3.41429529     23.83284474
O       1.19027830      1.80088439     23.85594559
O       7.00948541      7.18332318     24.34001482
H       8.03371204      0.74539395     24.02521917
H       4.79403735      9.48965972     23.73107438
H      11.48222137      2.28466480     23.76124213
H       6.41265154      6.75793627     23.71606275
H      10.95126635      6.49390217     22.37305383
H       9.78439345      3.73990340     24.74969598
H       5.25887307      1.19404529     24.36033598
H       9.08544470      9.20312272     23.94359847
H       5.41364346      3.38523170     24.48432441
H       2.89276798      5.89658470     24.61658938
O       8.29891438      9.48115071     24.47922384
O       5.41692549      0.23994616     24.44018874
H       1.26172271      1.96715086     24.90915342
H       6.97378452      8.15860953     24.23690574
Pt      2.42641615      9.17076834     26.80735389
Pt      5.15488516      9.33017780     26.57573404
Pt      8.09873246      9.19949981     26.54181152
Pt     10.91239998      9.01337691     26.59225792
Pt      8.07713444      4.43304851     26.79076428
Pt      3.81293677      6.81662652     26.73129669
Pt      9.41327434      6.76620162     26.73840446
Pt      6.53701857      6.77986115     26.57069011
Pt     10.78790240      4.31905183     26.70289935
Pt      1.07302049      6.80176296     26.78925427
Pt      9.49988405      1.97800468     26.83562995
Pt      6.62300688      2.18182581     26.79431492
Pt      2.47868598      4.38840472     26.86667780
Pt      5.14074953      4.41663580     26.72445166
Pt      1.10278285      2.03825870     27.03706294
Pt      3.78805414      1.96657759     26.77182389
H       8.58617090      2.53869188      9.90621991
