   242
 Tv_1:  11.152900   0.000000   0.000000 Tv_2:   0.000000   9.658700   0.000000 Tv_3:   0.000000   0.000000  26.829700
Pt      5.64069869      7.88655273      2.03703752
Pt      6.96031034      0.69496124      2.29379249
Pt     11.01686989      7.66151016      2.33091836
Pt      8.38032802      7.83380364      2.24280634
Pt      8.48785941      3.10283507      2.31918306
Pt      2.83960209      7.76271268      2.27695147
Pt      9.80659334      5.38246192      2.26451903
Pt      6.97711881      5.48260910      2.37896676
Pt      5.70193330      3.09733430      2.32294188
Pt      4.29595808      5.39760246      2.30525458
Pt      9.76421391      0.61479189      2.26023991
Pt      1.45095883      5.44670864      2.32616869
Pt      1.45533231      0.53262457      2.25927174
Pt      2.96740989      2.95627443      2.41006351
Pt      4.20088942      0.46121412      2.28644653
Pt     11.28554737      2.97568321      2.42112414
Pt      5.78722318      6.42461074      4.65165296
Pt      8.48218346      6.36160727      4.54454528
Pt      7.11501947      8.79873558      4.50605479
Pt      7.18532994      4.04277979      4.68681084
Pt      8.58228745      1.56185234      4.52499146
Pt      5.75518842      1.60444317      4.57295540
Pt      9.97302841      3.98939229      4.58926695
Pt      9.87384609      8.81353209      4.54579312
Pt      1.60006171      8.79651781      4.50275491
Pt      0.29942584      6.41501354      4.66253537
Pt      2.96596204      1.52306431      4.64548058
Pt      3.08936304      6.38133602      4.51301036
Pt      4.39721882      8.79646827      4.57062532
Pt      4.37477287      4.03666642      4.71281533
Pt      0.31641531      1.42146203      4.60153246
Pt      1.58308029      4.01525413      4.70675426
Pt      7.48178012      2.57274516      6.93789214
Pt     10.27750749      7.49018920      6.88067529
Pt      9.04046956      4.94980405      6.88486711
Pt      8.90289479      0.18107421      6.94161344
Pt      6.09534291      0.05326213      6.76835623
Pt      3.24145012      5.01101037      7.09204404
Pt      3.39527528      0.22663921      6.92104600
Pt      7.50472452      7.37064135      6.96765423
Pt      4.79897377      2.54436274      6.97088452
Pt      1.97549404      2.50917868      7.08493700
Pt      0.57344345      5.12997038      7.10073859
Pt     10.32596867      2.59316899      6.79749236
Pt      6.10646360      5.02817021      6.97811374
Pt      0.56406917      0.22309787      6.97253240
Pt      1.96845108      7.40132267      6.83615123
Pt      4.61352119      7.45300267      7.00637695
O       6.17912588      5.03878599      9.01276651
O       2.64592770      8.57399857     10.61193797
O       0.45874504      5.13988300      9.31594039
H       1.21767140      2.61924028      9.65827288
H       8.26676499      5.10270892      9.47264082
O       0.29112264     -0.21134303      9.06390472
H       1.84300534      8.98549979     10.22004907
H       2.47972073      3.56080463      9.35671526
O       8.50873466      0.25557541      9.03916226
H      10.75594839     -1.06428796      9.07944868
H      -0.05256777      0.64289605      9.50150808
H       1.44236065      5.36365787      9.55073409
H       6.64652681      2.66818134      9.42967745
H      -0.66678190      2.25057155     10.90656475
H       7.63831001     -0.12679516      9.22745576
C       7.35323197      5.67538260      9.52622508
H       3.57481570      7.77978906      9.72136674
O       7.63706450      2.59575787      9.18196616
H       5.08588697      8.06863318      9.65769605
H       7.07916517      5.59452446     10.91899217
O       4.44997320      7.36378435      9.31821787
O       2.10082110      2.65269960      9.13259990
O       0.13826899      1.79286566     10.45113748
H       0.73751878      1.47107242     11.33601681
H       9.36519013      7.19499196      9.39884504
O      10.29950080      7.22536440      9.13011086
H       4.33890702      2.65808005     10.34314230
O       5.22259084      2.27685396     10.59175263
O       3.07146465      4.98536306      9.16354407
H       3.86006431      5.48060088      9.50720468
H       7.52606871      6.71481365      9.40429773
H       6.51977738      6.33423836     12.46675163
H       5.38558642      2.58430222     11.52307750
H      11.03861063      6.01132391      9.44438901
H       6.28650703      8.65064010     11.22479551
H       5.70236784      0.26976787     10.43420253
O       6.24526233      9.08766839     10.34000898
O       7.08526576      5.54662351     12.33994979
H       2.16897906      7.95107806     11.19239541
H       8.74675074      2.55856524     12.21635370
H       6.58605581      4.73561088     12.63058136
H       7.89022369     10.53265619     14.05222948
H      10.26641977      8.58094688     11.55983246
H       8.66555012      2.91184135     10.75134600
O      -1.83436756      8.95290754     11.56264127
O       8.79809895      1.20759210     13.72461015
O       9.20563702      3.07012617     11.55226977
Cl      5.68099089      8.06923085     13.45701197
H       1.79758827      1.90470024     13.01854357
O      11.13850648      5.17621174     12.57074560
H      10.42656161      4.56010769     12.34501616
Cl      2.68244209      3.72000869     13.48686515
O       5.80016132      3.30065501     13.11386350
H      -2.07239667      9.26689312     10.69678681
O       1.30023393      1.16216009     12.62883116
H      11.97279737      4.59254468     12.58907620
H       4.84089094      3.54926447     13.25383922
H       6.03224549      2.78692483     13.95342424
H       9.06633121     10.25391598     12.96164417
H       5.75196591     10.98377887     15.64793659
O       3.90682710      6.10164381     15.24778520
H       3.39595805      5.55970316     14.53541563
H       0.72829550     -1.78423072     12.82558117
H       1.76338932      0.40535283     13.00105182
H      11.06315855      5.03742734     14.61622214
H       4.74872355     -0.60386979     15.66371952
H       4.43922644      6.78399666     14.81140363
H       9.69420101      0.65991095     14.91659468
H       9.86079991      5.54424153     15.53391392
O       6.33363014      1.91603373     15.16132136
H       6.60296333     12.42316936     15.66881577
O       4.83874702      0.15232087     16.29660233
O       0.44242450      7.69480963     11.92479971
O      10.72223647      5.05663270     15.59779010
H       4.02208666      0.68591235     16.31492391
H       7.93413084      6.65876664     14.78019454
O      10.40191488      0.30059575     15.63488156
O       1.18407028     -1.25942643     14.71264354
O       8.16920248      6.36706795     15.70719207
H       0.44260443     -0.61103446     14.95007567
H      -0.23961241      2.10063354     16.21364928
O      -0.04569420      2.75456968     16.88699486
H       0.17908125      6.73487670     12.02618822
H       9.81639000     -0.21199495     16.26720613
H       4.00400065     -1.78928468     18.39039916
H       4.61789867     -0.36788109     18.53655338
H       1.24263725     -1.91179861     15.46636183
H      -0.20899418      3.63316335     16.37748588
H       1.70422591      2.34035106     16.58723435
O       4.29534850     -1.13982101     19.07972048
H       8.10164345      7.21100045     16.28906615
H       7.29286529      5.11951507     16.04966969
H       5.20542068      2.87815794     18.73204914
O       2.65700697      2.09306283     16.28573945
O       6.12417695      2.51521975     18.91056118
O       3.43817221     -3.33815598     17.88363667
H      13.79757925      2.28648766     15.35113949
O       6.57015478      4.36457421     16.24864790
H       3.46926996     -3.44301764     16.88716592
H       6.64393944      2.80872758     18.13923457
H       2.46608843      6.34839830     18.06925909
H       7.44579383     -0.31363379     16.73845835
H       0.18322210      6.11006261     17.09467498
H       2.66537861     -0.74783203     20.25476437
O       8.11096364     -1.00798399     16.95220768
H       5.73202739      4.73487256     15.81234961
O       0.72225041      6.82931303     17.52477008
O       2.02409251     -0.48638461     20.95121749
H       1.97724209      0.52189294     20.81410032
H       8.30326074      8.62952167     17.97742675
O      -1.05492168      2.90419602     19.47080013
H       0.21537114      7.07342527     18.39659963
H       1.11481732      2.50412880     19.75579578
H       3.44523904      3.24377757     17.46155449
O       9.13070101      5.19701412     20.28895086
H      -0.76345570      2.75188868     18.48150570
H       2.61634307      2.78305264     19.32293544
O       2.05007871      2.34913984     19.99781936
H       8.22479444      5.31763597     19.95264351
H       7.91377513      1.65480370     21.40323018
H       3.81882425      4.56280381     18.28075544
H       9.52479336      4.27625706     20.04270613
H       9.53771848      2.12479226     19.72036788
O       3.72576875      3.54828914     18.37506221
O      -2.67338106     -1.24632137     19.71437388
O       7.94274716      1.38767950     20.39944374
H       0.59163044     -1.77028263     20.62792117
H       9.29441755      5.53432922     21.72241750
H      -1.67855388     -1.30410422     19.89356455
O       6.07002664      6.79414773     20.56772521
H      -3.02533423     -0.36367661     20.13347725
H       6.82302062      7.34024469     20.41708798
O      -0.19597870     -2.04141493     20.15626419
O       9.26046575      5.64840164     22.76445548
H       7.30694047      2.02186743     19.94645670
H       5.37453644     -2.28895892     20.18877685
H       5.56622205      6.48001886     22.09193251
H       2.72106166      3.16403782     21.68549078
H       8.43527024      6.11715778     23.09740092
O       5.40094878      6.52981033     23.06147310
H      -0.54234955      6.74855391     20.38810125
H       2.73027218      9.24106406     22.82223255
H       4.46319075      6.34475219     23.17852925
O       2.91711615      3.34257399     22.62955292
O      11.20985078      9.20583870     24.68756610
O       2.90423054      9.22385391     23.76669484
O       7.99450992      1.85525086     23.02498361
H       9.73832415      4.39877450     23.46197816
H       2.38694555      2.65882494     23.17503779
H       2.60282668      8.39275902     24.13970332
H      11.37924436      8.23032703     24.16876463
H       7.10099757      2.36161976     23.16106469
H       8.77044410      2.49314843     23.22368207
H       4.53387420      2.82075530     22.97703460
H      11.71955449      0.25983687     24.31070067
H       2.67273134      4.97619126     23.14211339
O      11.36075101      7.08901918     23.40534658
H       1.03021973      6.48665693     23.33140162
O       2.55766888      5.90354522     23.41809146
O       5.39585367      2.63714248     23.55208928
O      10.10795502      3.43350417     23.76482095
O       1.24327240      1.89178860     23.85604039
O       7.42642268      7.07581272     24.29204652
H       8.21835224      0.67365327     24.09117926
H       4.58315479      9.36823608     24.20749451
H      11.58355468      2.41697329     23.68637656
H       7.61805112      8.03996324     24.32412358
H      10.53490732      6.49181452     23.36443416
H      10.28469199      3.58755006     24.78297649
H       5.54096808      0.93094193     24.49116915
H       9.45709981      9.34402142     24.31882033
H       5.54772809      3.37557687     24.18809874
H       2.45635433      5.97033348     24.40172940
O       8.46719487      9.45617501     24.52470406
O       5.54264602     -0.09194524     24.42766153
H       1.51700964      2.15992672     24.75926827
H       6.44416454      7.04270514     23.87705398
Pt      2.61606617      9.16464946     26.79985235
Pt      5.49666192      9.35763774     26.65825512
Pt      8.28828597      9.20121953     26.75039672
Pt     11.09868895      9.20838519     26.80777830
Pt      8.28893187      4.41792016     26.72971011
Pt      4.13136407      6.77421141     26.72016052
Pt      9.59822419      6.77843318     26.63458790
Pt      6.86236552      6.72573020     26.67020461
Pt     11.14415248      4.52132937     26.79794680
Pt      1.28358933      6.84390348     26.81455835
Pt      9.71313098      2.10816977     26.75545871
Pt      6.89630332      2.12142252     26.88780550
Pt      2.63849858      4.36217155     26.83391107
Pt      5.49607783      4.44852169     26.84661673
Pt      1.25947252      2.08730937     26.95293769
Pt      4.09149195      2.08673676     26.65213453
H       7.94701865      1.57125696      9.16767951
