   242
 Tv_1:  11.152900   0.000000   0.000000 Tv_2:   0.000000   9.658700   0.000000 Tv_3:   0.000000   0.000000  26.829700
Pt      5.62581472      7.85714660      2.36866993
Pt      7.08381892      0.59117665      2.15340117
Pt     11.05576891      7.66930624      2.56356921
Pt      8.37838156      7.75280769      2.29875342
Pt      8.48826179      2.85856019      2.40355718
Pt      2.74230704      7.87788000      2.32104425
Pt      9.81571449      5.23758416      2.43813952
Pt      7.02818509      5.42649677      2.33469202
Pt      5.68899080      2.97714230      2.31248237
Pt      4.26510195      5.42559893      2.40351834
Pt      9.83253126      0.43380082      2.40081401
Pt      1.40496676      5.47437814      2.53604149
Pt      1.36084899      0.48908419      2.28669678
Pt      2.94223885      3.08812800      2.51197148
Pt      4.13446548      0.54326721      2.25258945
Pt     11.34853251      2.93733631      2.37866930
Pt      5.87498183      6.46483520      4.67566202
Pt      8.50150062      6.24929956      4.64829030
Pt      7.25700636      8.77970322      4.60851547
Pt      7.15541463      3.92836340      4.63372110
Pt      8.53830640      1.54672465      4.70978367
Pt      5.79211518      1.46352872      4.45521336
Pt     10.00362768      3.83365666      4.53896599
Pt      9.82670311      8.59278121      4.69554486
Pt      1.40762814      8.64959930      4.71714054
Pt      0.21953856      6.22333587      4.93286485
Pt      2.98542376      1.42337411      4.66692074
Pt      2.98437599      6.41526931      4.76402348
Pt      4.33285920      8.76744317      4.53937759
Pt      4.45375995      4.10378650      4.76081992
Pt      0.22578092      1.38457138      4.56986668
Pt      1.68960568      3.87670125      4.75176275
Pt      7.58194128      2.50634962      6.97591126
Pt     10.07467273      7.32440049      7.16496488
Pt      8.84065713      4.89282151      6.92023786
Pt      8.82500559      0.07427490      7.02157681
Pt      6.02122519      0.05536337      6.90220278
Pt      3.40989392      4.85724624      7.09409886
Pt      3.29565144      0.07963825      7.06082663
Pt      7.35695729      7.19674173      7.14769209
Pt      4.85842229      2.42538395      6.87908705
Pt      1.86426056      2.59130349      6.97597013
Pt      0.50106163      4.91616684      7.10389711
Pt     10.27390729      2.61078323      6.79041882
Pt      6.00778015      4.85905521      7.08936271
Pt      0.38461226      0.20216319      7.01417036
Pt      1.72218462      7.42454924      7.04301142
Pt      4.59796036      7.39440974      6.88720746
O       6.35405474      5.29833664      9.06366335
O       1.49488425      7.53329336      9.12530899
O       0.78486053      4.44205403      9.09053744
H       1.26480440      1.51101022      9.22645658
H       8.08251221      6.37954618      9.39591578
O       0.44599044      0.23457259      9.07382772
H       0.62928819      7.18242792      9.43512002
H       1.38998258      3.12611661      9.32305543
O       8.98300934      0.32359022      9.14134529
H      12.38913061     -1.11794435      9.17422134
H      -0.53178407      0.41180182      9.25676812
H      -0.05335655      4.29982731      9.59848804
H       6.80205704      2.60082215      9.64960071
H       1.18658917      3.21051599     11.88394673
H       8.34727708     -0.16520297      9.64869641
C       6.98639669      6.45972974      9.12907482
H       4.04224621      8.20981223     10.07685032
O       7.75840178      2.64198813      9.23981326
H       4.26628916      7.15952424     11.28692137
H       6.86108596      6.55201379     10.60446010
O       4.24812719      7.25929463     10.30218036
O       1.95043071      2.28458834      9.11473906
O       0.83319798      2.29686295     12.08289146
H       1.57645107      1.75692021     12.30017506
H       9.89336140      7.61326255     10.30902807
O      10.17770051      6.90316961      9.57263356
H       4.87459396      3.10584199      9.21270593
O       5.30253385      2.54500119      9.94442984
O       3.31004204      5.13476094      9.18867643
H       3.55543146      6.09131869      9.52255263
H       6.25592030      7.23529631      9.45120281
H       6.28733634      6.95555239     12.33112745
H       5.15393125      3.19959202     10.70352228
H       9.74092654      6.01864983      9.74655744
H       4.71472551     10.61682227     10.28103539
H       3.43499338      0.64168051      9.66094175
O       4.08671255      9.91105429     10.26518787
O       6.78597751      6.20515864     11.73357041
H       2.36689676      5.09833306      9.23414649
H       9.33564506      4.21930862     11.23572665
H       6.11566896      5.35998176     11.86681693
H       9.05715830     11.74780969     12.73884073
H      10.19565806      7.80614093     12.21561010
H       8.67175003      3.84059825      9.87971370
O      -1.09409787      8.54612716     11.56474835
O       9.61853924      2.60462140     13.27144271
O       9.38510912      4.39369488     10.28267494
Cl      7.37020973     10.33132825     11.92951085
H       3.28540335      0.32998483     11.81195250
O       9.37384437      5.12565486     14.64840769
H       9.39620328      4.34746504     13.97688962
Cl      2.24149584      5.33554339     12.44917150
O       5.17397122      4.45252668     12.04192801
H      -1.87205975      9.02171584     11.92626296
O       2.73752695      0.59735105     12.59620850
H       9.88171429      5.87576815     14.20838240
H       4.27842112      4.80769095     12.14104516
H       5.37616340      3.80041687     12.82363986
H      10.52466050     12.10627952     12.89520795
H       6.54780035     11.72885635     13.06966726
O       5.59586156      8.01972456     13.00874083
H       6.00496598      7.97040214     13.95268919
H       0.12906291     -2.00769532     14.07016556
H       2.20591751     -0.24126331     12.86746134
H       7.95913835      4.97791103     15.06914950
H       3.70400478      0.81608709     14.30307144
H       6.08163478      8.77712057     12.50503800
H       9.78278203      1.12784886     14.84885213
H       6.65147451      3.95335251     14.84247309
O       5.99857123      2.71117209     13.59585644
H       5.36084376     11.76476345     14.14702907
O       4.09315591      1.44119648     14.98567145
O      -0.21209502      6.89821380     13.53080971
O       7.07953109      4.66017863     15.47360539
H       3.27566593      2.03001184     15.16643730
H       4.98524603      7.04201541     15.63977121
O       9.92958643      0.91207674     15.84134132
O       0.87516978     -0.68730501     14.76577536
O       5.94913903      7.11604547     15.55128683
H       0.37809218     -0.50079844     15.54426701
H      -0.61297582      2.49786908     16.44558797
O      -0.14814594      3.42102218     16.37387260
H       0.68458995      6.51596627     13.18520973
H       9.11500636      0.55164895     16.19606094
H       5.89312799      0.27639672     17.21121662
H       4.59114364      0.94186390     16.65659972
H       1.63061683     -1.17817807     15.12835524
H      -0.78109600      4.05889162     15.92348917
H       1.50385265      3.35491803     15.55355936
O       5.08774557      0.76033727     17.49489859
H       6.43728020      6.20978802     15.52514530
H       6.91498119      4.48146601     17.15681740
H       5.66301339      1.45707857     19.04660368
O       2.38840394      3.38345914     15.18451007
O       6.04755028      2.13017606     19.67857056
O       2.78666950     -2.44832021     15.66012179
H      13.48835912      3.63826212     14.27519071
O       6.95024711      4.32637476     18.19139194
H       2.72330333     -3.14080900     14.96104234
H       6.16868875      2.85611092     19.01922567
H       2.73899191      6.70036442     16.48409060
H       6.99107365     -1.53479615     16.53189714
H       1.76709119      5.51728164     18.41900793
H       3.99449172      0.27291696     18.78026835
O       7.63421804     -0.82712701     16.75883191
H       6.11505673      4.73838316     18.47341454
O       2.31126402      6.34874852     18.26297238
O       3.41458364      0.18722252     19.61434729
H       3.08427582      1.09056258     19.66681568
H       7.93557707      8.65408303     17.68840047
O       0.60606611      4.33067138     18.82521039
H       1.87002160      7.12123518     18.82821049
H       1.86518726      3.50753377     19.75729495
H       3.65826722      5.69059637     18.91611231
O       9.06190363      4.17613303     19.91882696
H       0.51579974      3.86060865     17.93891659
H       3.38172798      3.75557142     19.85329639
O       2.71790169      2.93633948     19.91800817
H       8.27747905      4.26721083     19.21292243
H       8.38254036      1.43804160     21.44294934
H       4.86316057      5.59016590     20.03674807
H       9.07571921      3.18251853     19.95699742
H      10.84484406      4.36844229     19.22117853
O       4.39532684      5.06644374     19.31400989
O      -1.65001001     -1.31119312     19.93861903
O       8.41113134      1.10348849     20.48555844
H       2.13242427     -0.90644398     20.01232596
H       9.01387393      5.95582241     22.56293074
H      -0.69205612     -1.24570110     19.69742806
O       7.87322977      6.14452107     21.26730043
H      -1.94750196     -0.38379468     20.17304568
H       8.32462537      6.84460482     20.78923384
O       1.37128976     -1.53704816     19.94912402
O       9.67542613      5.87951125     23.28827692
H       7.58891832      1.51399017     20.05171230
H       8.12502146     -4.38674243     20.81779754
H       6.08018919      5.90246107     21.82566271
H       3.25017476      2.83249061     21.77738550
H       9.19067178      6.21047619     24.10396253
O       5.12883800      6.06753097     21.83644568
H       1.28292174      7.77303584     20.86931899
H       4.24786479      9.41856567     21.47304834
H       4.73805803      5.58728797     22.57284885
O       3.13852404      3.00759290     22.77386026
O      11.06834055      9.20468748     24.34529253
O       4.28358661      8.85548512     22.31576204
O       7.90257253      1.88844194     23.03227429
H       9.98553458      4.25723877     23.54646739
H       2.34643529      2.48437697     23.10158751
H       4.82618188      8.07974097     22.02450665
H      11.43345630      8.38126017     23.83651716
H       7.13985028      2.45583607     22.95279264
H       8.63659341      2.52288811     23.26894361
H       4.39838280      2.61853408     23.54906302
H      11.52478340      0.41421244     24.08181131
H       2.96913150      4.61585020     23.42736887
O      12.13125347      7.09840255     23.04414174
H       1.64934423      6.48677541     23.45339234
O       3.25731147      5.54479050     23.59699519
O       5.29722679      2.46701037     23.99788146
O       9.94995519      3.28284730     23.85312285
O       0.97174845      1.84475444     24.01002014
O       7.07940779      7.03792605     24.44838036
H       7.92537233      0.33213826     24.05999064
H       4.73670947      9.31438209     23.97945606
H      11.26624615      2.37736083     23.91312625
H       7.61824373      7.84782911     24.31518448
H      11.30470804      6.56756883     23.12686166
H       9.80197843      3.41735196     24.81573024
H       5.49342734      0.91691203     24.38463779
H       9.49582222      9.29928270     24.03157968
H       5.38509921      3.14557246     24.72919608
H       3.46498991      5.53032458     24.58323524
O       8.52835145      9.24087252     24.34670915
O       5.51570459     -0.09197033     24.54660589
H       1.15597530      1.90942260     25.07744148
H       6.18436582      7.10918740     24.07147677
Pt      2.72427320      9.24826622     26.71848274
Pt      5.44787751      9.21526504     26.75189725
Pt      8.42010452      9.14307637     26.75685448
Pt     11.23631043      9.26844097     26.73732942
Pt      8.45229119      4.35685908     26.84802783
Pt      4.29621450      6.78508133     26.81353493
Pt      9.67600284      6.77309414     27.01731716
Pt      7.00620373      6.72221976     26.61812886
Pt     11.15060442      4.58926632     26.83146478
Pt      1.50713199      6.83221932     26.90441491
Pt      9.68469782      1.97653095     26.86632293
Pt      6.97470299      1.97426754     26.78251605
Pt      2.75434959      4.48583844     27.03606049
Pt      5.49339051      4.36957704     26.72292256
Pt      1.39174583      2.09431557     26.96685519
Pt      4.26248360      1.94515436     26.80594137
H       8.21002398      1.73522779      9.37566135
