   242
 Tv_1:  11.152900   0.000000   0.000000 Tv_2:   0.000000   9.658700   0.000000 Tv_3:   0.000000   0.000000  26.829700
Pt      5.66066987      7.79569976      2.35473026
Pt      7.04967481      0.42348211      2.12088467
Pt     11.15960180      7.79254833      2.39254869
Pt      8.46894124      7.67953161      2.41164366
Pt      8.21679458      2.89429306      2.21445510
Pt      2.89365371      7.85817695      2.27541730
Pt      9.75439182      5.35722170      2.37556061
Pt      7.00629098      5.33231818      2.34313886
Pt      5.42911596      2.90654437      2.24533069
Pt      4.16553406      5.45897477      2.43722577
Pt      9.76038387      0.41080492      2.13309913
Pt      1.31511034      5.36538457      2.42137377
Pt      1.45721860      0.56481049      2.33253423
Pt      2.74597390      2.99959779      2.27590678
Pt      4.24869070      0.63470293      2.24985108
Pt     10.93515399      2.89842453      2.25361453
Pt      5.93439568      6.36468764      4.74212476
Pt      8.64822086      6.42141443      4.73348763
Pt      7.18731939      8.78697309      4.54979641
Pt      7.23862752      3.86436323      4.56945569
Pt      8.66582677      1.47184261      4.54765219
Pt      5.86673860      1.53359446      4.57495431
Pt     10.03377966      3.87488811      4.63651579
Pt     10.04985569      8.78908638      4.56991122
Pt      1.56735317      8.70787909      4.60979925
Pt      0.20973058      6.27563977      4.75480554
Pt      3.04539684      1.44006897      4.58630815
Pt      2.94934355      6.37734388      4.71109633
Pt      4.39546043      8.75215998      4.64053066
Pt      4.48298040      3.90406744      4.60366182
Pt      0.25915425      1.51435618      4.53503732
Pt      1.66718982      3.88369181      4.69870436
Pt      7.75710099      2.55583172      6.95270103
Pt     10.49656492      7.43477976      6.93201792
Pt      9.12633226      5.10009166      7.02076237
Pt      9.08849769      0.08792839      6.93502517
Pt      6.25068078      0.10273778      6.78662272
Pt      3.52491529      4.99429791      7.08336433
Pt      3.46057358      0.07432985      7.00215296
Pt      7.61103458      7.39423352      7.17685679
Pt      4.89619595      2.59217875      6.98771815
Pt      2.16691077      2.53928817      6.85704532
Pt      0.67136688      4.94052784      7.18178750
Pt     10.47820239      2.65825819      6.87880229
Pt      6.19088797      4.96590878      6.89858401
Pt      0.59362034      0.22005463      6.86093673
Pt      2.12090855      7.31010718      7.03768725
Pt      4.85429177      7.40561136      7.09242111
O       7.97725660      6.00292292      9.82061633
O       1.73684257      7.75204388      9.10305096
O       0.97578461      4.62867732      9.35719081
H       1.12010789      1.18517386      9.11872757
H       9.14398541      7.42810415      9.13844039
O       0.52589485      0.36749171      8.93019050
H       0.88942121      7.35299517      9.62433928
H       1.53040174      3.67639799      9.37625768
O       9.21380946      0.56720335      9.19284429
H       1.32084127      8.71185578      9.03216969
H      10.32751157      0.54044197      9.10757004
H       0.16021042      4.61864094      9.92502058
H       6.49336651      2.44005719      9.29627306
H       2.05898448      3.34651142     12.80298592
H       8.94035271      9.41508090      9.76866590
C       8.10589964      7.21010515      9.16097337
H       3.44581116      7.71549016      9.28192030
O       7.53003777      2.62520905      9.15698049
H       5.01440988      8.39593564      9.69177108
H       7.13642631      5.83340780     10.39167254
O       4.45827619      7.55179802      9.24626569
O       1.98681925      2.39224766      8.98575245
O       1.81563720      2.66104070     12.13330529
H       2.44208977      1.93851390     12.35075026
H      11.03340137      7.96817633     11.18648054
O      10.82495243      7.43724161     10.38609334
H       2.97502247      2.27307696      9.15765705
O       4.75405238      2.10714287      9.13678674
O       3.63854696      4.90440586      9.37512647
H       4.18124880      5.65367352      9.65632552
H       7.47273697      8.01878855      9.63565285
H       4.68145781      2.82260937      9.78612685
H      -0.43515914      6.53327111     10.76756548
H       5.56828964      9.50734284     11.03665598
H       5.10463382      0.81594667      9.84557875
O       5.53443111      9.55743597     10.06772616
O       5.86753079      5.58548642     11.12344834
H       2.66291141      5.10138169      9.53458006
H      10.23257643      4.12103315     11.64778717
H       5.36603625      4.73393257     11.26345255
H       9.80813662      2.41757623     12.80346242
H      11.23307611      8.14990802     13.23645653
H       9.21703643      4.90854018     10.52235780
O      11.12496206      8.99578578     12.63808044
O      10.46831285      3.17205643     12.79422445
O      10.07439500      4.87425956     10.96122107
Cl      8.46975178      0.64672731     12.59688766
H       3.05213945     -1.06309354     12.61583478
O       9.57460327      4.88086207     14.93377142
H       9.95928430      4.19221468     14.26719403
Cl      2.84314390      6.30465173     12.69939310
O       4.72395309      3.17423757     11.49241177
H      10.20378621      9.34695104     12.89661733
O       2.71846156     -0.13344410     12.65995088
H      10.17507239      5.61081104     14.55473457
H       3.81403647      3.46250584     11.73631158
H       5.26118653      2.95562475     12.34674458
H      11.44002778      2.74008395     12.67755579
H       6.68146421      1.88992036     13.39701700
O       6.06689417      8.45574016     12.64638173
H       0.33716405      7.13685606     15.11914448
H       1.76383464      9.42309936     12.85595581
H       7.89387365      4.90044168     15.11206530
H       3.25096940      0.67829155     14.34983149
H       9.42417200      0.76594687     14.91755262
H       6.61193988      4.04603625     14.67121300
O       6.04813949      2.41030476     13.92877367
H       5.38218775      1.72717535     14.31379015
O       3.76320702      1.25715719     14.96796537
O       0.20294323      6.76001056     14.18675765
O       6.91484829      4.94646833     15.00958043
H       3.43484247      2.21122044     14.76460841
H       4.38721194      6.75764450     14.18895686
O       9.86488207      0.95674089     15.79195894
O       0.58647858      8.32538858     16.52565388
O       5.04359980      6.90942354     14.99275847
H       0.07775673      9.10049836     16.37008159
H      11.40354517      2.68253408     16.36003635
O       0.31479324      3.61126907     16.51350255
H       1.09349703      6.53999620     13.83522129
H       9.07382898      0.74676568     16.41585877
H       4.50096146      9.27042585     17.34469994
H       4.49125434      1.03251137     16.73228712
H       1.52830048      8.63014509     16.25363883
H      10.62071562      4.02144620     16.16852775
H       1.80013545      3.80907149     15.39483679
O       4.95254234      0.50281076     17.42577327
H       5.71180726      6.19242422     14.91312272
H       6.42511983      5.37798923     16.96151522
H       7.00524206      0.68410644     17.50837000
O       2.61250460      3.68789724     14.85412537
O       7.95901421      0.61288575     17.63866187
O       3.50480082      8.00484011     16.86515170
H       2.91697368      4.56815862     14.54804516
O       6.74187896      5.59533157     17.85106116
H       4.17757352      7.50329287     16.31119587
H       8.18224672     -0.38634324     17.71738033
H       3.10584164      7.35605045     17.57085231
H       7.75283766     -2.79730578     17.78476521
H       1.78943880      5.71733820     18.96037348
H       3.94332141      0.54297360     19.00675287
O       8.38989366      7.63714514     17.60170042
H       5.98221658      5.51573403     18.52618580
O       2.62330243      6.24059392     18.96627520
O       3.57725689      0.53415422     19.93305446
H       3.29839073      1.48532010     20.04301553
H       9.04108541      7.30650707     16.91417085
O       0.32473630      4.14866693     19.13023812
H       2.36863876      7.02998129     19.52722107
H       2.06992778      3.52985133     19.78494728
H       4.11136593      5.78519385     19.56311254
O       8.63710439      4.31742622     19.84961840
H       0.38784016      3.96099108     18.14126915
H       3.62478855      3.81852154     19.89050866
O       2.91259544      3.23577957     20.14338551
H       8.08851824      4.49405900     19.05218732
H       8.11790918      1.22801959     21.08529002
H       5.28397840      6.20499769     20.52399438
H       8.49311471      3.38239218     20.10760588
H      10.54834894      4.21546020     19.36315556
O       4.95731782      5.44362133     20.01898559
O      10.08033268      8.81743168     20.92722731
O       8.61837600      1.39873349     20.26709143
H       2.45182993      8.97030257     20.21378346
H       9.48099518      6.30221244     22.87984075
H      10.98955370      8.96493535     20.62358970
O       8.65561624      6.73513134     21.53525244
H       9.57137230      9.56706309     20.59919186
H       9.23181645      7.50578413     21.08313337
O       1.74986800      8.27225008     20.27415611
O      10.11017423      5.82415971     23.51025569
H       8.16283858      1.08697241     19.40580899
H       8.59564874      5.95668088     20.97723128
H       7.92166447      4.17045781     23.62958340
H       2.93635986      3.26117093     21.69102815
H      10.06570048      6.13883642     24.48006233
O       6.99176638      4.48212323     23.50184936
H       1.59569408      8.04043106     21.20822354
H       6.05608010      8.33921492     21.68966993
H       6.32205111      3.71851224     23.58589656
O       3.08283460      3.17570637     22.72856881
O      11.02737282      8.72236308     24.27462118
O       6.04855471      7.34224131     21.89569947
O       7.58126934      1.21635173     22.89533227
H       9.88399557      4.18338928     23.61423076
H       2.30154165      2.74159702     23.10024154
H       6.98095913      7.06112291     21.80930396
H       0.61752474      8.04902824     24.01556246
H       6.64653459      1.52931868     23.09940031
H       8.07750843      1.93101821     23.31356307
H       4.40613789      2.56033763     23.20956016
H       0.29547850     -0.05440635     24.02740901
H       3.31958216      4.91670847     23.36378064
O       1.33920269      7.11404282     22.87042342
H       2.06415079      6.54789068     23.23448278
O       3.41693318      5.81482194     23.71569874
O       5.34419049      2.29480070     23.67704879
O       9.63290255      3.22528805     23.68190023
O       1.16365646      1.64394732     23.74487140
O       6.48112315      6.86140156     24.61806367
H       8.15789151     -0.32077543     23.57587388
H       5.54794523      8.18293273     24.22465617
H       0.42385644      2.28350152     23.76237470
H       7.32962271      7.34840265     24.48943698
H      11.67040766      6.54646534     22.92474230
H       9.77444380      3.17109714     24.69197710
H       4.82805756     -0.17267210     23.88975139
H       9.35521856      8.51992968     24.15733844
H       5.20163517      2.11580025     24.65127827
H       4.19804569      6.28236668     23.37829781
O       8.35399252      8.61422119     24.28306423
O       4.81939573     -0.86198195     24.51103032
H       1.54263765      1.73266003     24.73044661
H       6.70111813      5.92522244     24.17295384
Pt      2.50303622      9.23392431     26.75763283
Pt      5.16285692      9.05773536     26.69951488
Pt      7.95784407      9.19785946     -0.28174044
Pt     10.71147638      9.25794814     26.60798244
Pt      8.12832093      4.31973409     26.81516297
Pt      3.69048747      6.72914315     26.69244571
Pt      9.46815110      6.71082705     26.79870732
Pt      6.63463014      6.58309157     26.83973937
Pt     10.79415991      4.29787762     26.80250606
Pt      1.05049616      6.78519768      0.05815594
Pt      9.37527616      1.91873874     26.64853958
Pt      6.65674189      2.13260552     -0.06374660
Pt      2.44287814      4.40878091     26.86848080
Pt      5.26729069      4.39116208     -0.06958639
Pt      1.13408168      1.98640943     -0.00223775
Pt      3.78312754      1.89400714     -0.21274670
H       8.07280873      1.82384685      9.44383534
H       6.98676341      8.75820821     12.83457173
H       5.32781767      6.23070428     11.63202964
H       5.77258645      7.98667952     13.42293155
