   242
 Tv_1:  11.152900   0.000000   0.000000 Tv_2:   0.000000   9.658700   0.000000 Tv_3:   0.000000   0.000000  26.829700
Pt      5.65216156      7.87900701      2.34439372
Pt      7.05137241      0.51529230      2.19516114
Pt     11.26914177      7.82687864      2.11636858
Pt      8.45475517      7.88426602      2.34365256
Pt      8.41188278      3.11002411      2.39377765
Pt      2.93067574      7.86438093      2.54265264
Pt      9.90155869      5.43839849      2.50416012
Pt      7.15054364      5.43063294      2.39276830
Pt      5.67709720      3.05569944      2.48051848
Pt      4.33393808      5.49174392      2.47260641
Pt      9.78540031      0.57302756      2.33962452
Pt      1.60785049      5.42384892      2.45252703
Pt      1.46487739      0.67156006      2.33644238
Pt      2.90727345      3.11660422      2.45303368
Pt      4.15443426      0.67574496      2.39503327
Pt     11.25991264      3.02917116      2.51171485
Pt      5.98180177      6.41412056      4.70163693
Pt      8.80483336      6.47535292      4.74409425
Pt      7.32282772      8.78534619      4.71609710
Pt      7.24634295      3.93246496      4.71527520
Pt      8.70104318      1.57523548      4.64745010
Pt      6.02714448      1.41957027      4.54419134
Pt     10.09962422      4.11494088      4.80346523
Pt     10.19816163      8.90976403      4.59130535
Pt      1.67834077      8.94845603      4.68516847
Pt      0.39238778      6.56933501      4.64622974
Pt      3.07174735      1.60687856      4.77129074
Pt      3.05733661      6.49341794      4.82522313
Pt      4.49920868      8.75976951      4.67402578
Pt      4.50995309      4.05053593      4.70643555
Pt      0.30050171      1.61172791      4.80747468
Pt      1.76197127      4.04648782      4.80986512
Pt      7.38014188      2.55633973      6.99160526
Pt     10.30486738      7.57123721      6.99887545
Pt      9.02951661      5.06902873      7.05650021
Pt      8.64216291      0.15220604      6.98783652
Pt      5.95513726      0.20316704      6.98770804
Pt      3.40516917      5.03426778      7.09501274
Pt      3.29745552      0.08306468      6.95612777
Pt      7.57349080      7.25000058      7.12107623
Pt      4.58376517      2.51011857      6.99938717
Pt      1.87763105      2.50602438      7.24450970
Pt      0.62989724      5.23510753      7.15727776
Pt     10.31293272      2.61817315      6.87293174
Pt      6.08901978      4.93595785      7.02859157
Pt      0.50278379      0.18133308      7.12036134
Pt      1.94178888      7.49191590      7.20908321
Pt      4.91415648      7.38377575      7.00177091
O       8.73244379      5.43370723      9.19536774
O       2.05022015      7.54482993      9.25569914
O      -1.01970155      2.76074004      9.21061003
H       2.14719483      1.93171538      9.82536218
H       8.71681582      7.55334786      9.60248065
O      -0.00840369      0.08137545      9.40941831
H      -0.33993593      5.77218609      9.57047004
H       2.78966119      3.79338287      9.39555560
O       8.61697686      0.26354832      9.19875643
H      10.07293784      0.18836432      9.25446174
H       0.44715518      0.92866979      9.70637711
H      -1.48023360      3.58346356      9.34293394
H       6.58682851      2.42977211      9.69761550
H       2.59300029      1.83190070     11.78644533
H       7.81372893     -0.18115669      9.57774215
C       8.09670151      6.73383293      9.11876713
H       3.71297027      7.72055411      9.41946627
O       7.47936812      2.58709338      9.22157548
H       5.16952005      8.15450730      9.76960836
H       8.27557176      4.83552514     10.13964029
O       4.64835765      7.47804626      9.18687451
O       1.61464790      2.53698223      9.29265910
O       2.78702511      1.08699680     11.23437470
H       2.49262919      0.20200593     11.62385518
H      12.32683294      6.13012872      9.46825906
O      11.64880935      5.35166014      9.28919606
H       4.49088288      1.84571638     10.26822993
O       5.44795802      1.95251549     10.61038363
O       3.48937688      4.52782579      9.20654750
H       3.66456092      5.17332309      9.99535286
H       7.05364323      6.77318421      9.64420100
H       7.37636473      4.79163133     11.62738521
H       5.26695161      2.58894939     11.40624104
H      11.08919380      3.00383870      9.47315182
H       6.07390480      8.40430006     11.69490421
H       5.43829031      0.18633784     11.17644695
O       5.81061957      8.91842341     10.88517797
O       8.23016718      4.32673010     11.29452343
H       1.45572368      8.33165697      9.47315256
H       8.93049148      0.86055754     12.29902967
H       8.09804109      3.35025011     11.56020637
H       8.39860028      8.42496377     13.11525873
H      11.60350640      7.46062680     11.67277029
H       9.91530180      1.87715539     11.84296478
O      -0.26706090      6.95524459     11.30554049
O       9.19048292     -0.85751816     12.69793387
O       9.10945720      1.83099876     12.36428838
Cl      6.62995622      7.74444710     13.93429025
H       2.57371461     -1.57931923     13.36845643
O      10.38493147      4.77665207     13.02982932
H       9.67969690      4.18196624     12.77654477
Cl      2.07138272      3.74042140     12.90232276
O       5.10076021      3.28957438     12.87781647
H      -0.30158697      6.16522036     11.87370439
O       2.26796407     -1.43048271     12.45437464
H      11.20150150      4.22003194     13.02213813
H       4.12578716      3.47780561     12.86241545
H       5.36282686      2.62453072     13.62757044
H       9.57476530      8.08130938     12.15679290
H       5.57813292     10.96047288     15.34103832
O       6.31577645      5.51812847     12.28896673
H       5.94777744      4.79824661     12.85021762
H       4.69452157     -3.84184847     11.57008944
H       2.72796539     -2.16247482     11.93034382
H      10.21635951      5.10986249     14.81481725
H       3.74906816      0.09583241     15.56335805
H       6.74795404      6.21730438     12.88325101
H      10.37979788     -1.06133836     14.67556597
H      10.44941571      6.23073910     15.85854581
O       6.19811396      1.59439047     14.62875890
H       6.87229750     11.76958717     15.10381105
O       4.20476365      0.72262258     16.13530034
O       3.75169801      5.93390556     11.40386213
O      10.38842654      5.23814231     15.80472724
H       3.51132287      1.52787548     16.14277202
H       6.20323403      6.38805745     17.08502958
O      10.88951676     -1.31772099     15.49108299
O       2.56959818     -1.45687279     15.10735510
O       6.85793787      7.07244483     16.88229733
H       1.57859121     -1.38447906     15.23337759
H      -0.21815855      2.05468971     17.03315120
O       0.29177328      2.92180375     16.86124366
H       3.27553325      5.45108758     12.09988084
H      10.69178826     -0.65515755     16.26404116
H       6.06879228     -1.11767258     17.74159891
H       5.39053903      0.18375482     17.37231563
H       2.79699295     -2.43162767     15.29122531
H      -0.17757636      3.75738593     16.59172555
H       1.73752529      2.90227673     16.27843292
O       5.84676041     -0.26492218     18.13568165
H       6.88033121      7.33006430     15.92166265
H       7.86258466      4.32038467     17.15266651
H       7.41910643      0.52154346     18.30916982
O       2.65237345      3.05595429     15.91925600
O       8.17335016      1.11016589     18.50705029
O       3.81915168     -3.93862810     16.17811458
H      13.57614962      3.22550185     14.99497967
O       7.37216650      3.59417448     17.65319603
H       3.33077219     -4.77430416     16.00752242
H       7.86991766      2.06508187     18.31876150
H       3.63189503      5.99861093     17.09938458
H       9.53454168      0.64648132     17.51631194
H       2.59719760      5.38989204     19.13360034
H       5.13374283      0.05820279     19.64526798
O      10.50575508      0.47084037     17.38119476
H       6.59527739      3.89912438     18.21793442
O       3.31929148      6.04463712     19.04694176
O       4.63279121      0.04780754     20.51791687
H       4.14940911      0.95999966     20.52968821
H      10.90264932      9.87882905     18.26395757
O       1.52610440      3.71963535     19.17444885
H       2.99559309      6.86487806     19.44522079
H       2.69580805      2.90885233     19.90685102
H       4.63900646      5.18103688     19.23981335
O      10.42527914      4.39440774     20.20261791
H       1.19408276      3.53047995     18.22000399
H       4.33664093      3.05648824     19.85773499
O       3.58207784      2.54397025     20.29071947
H       9.84493195      4.87949991     19.55312974
H       8.89519892      1.94194346     21.45685124
H       5.94677487      4.94087765     20.07644777
H      10.09524204      3.42993979     20.22654182
H      11.77796227      4.03602762     19.64025460
O       5.30028423      4.46732710     19.49129693
O      -0.00311763     -0.92073719     19.90317884
O       9.45111439      1.79504820     20.66231476
H       3.29008062     -0.95378465     20.46624633
H      10.27122124      5.18147565     21.59526813
H       0.94061009     -1.08650678     20.15795861
O       8.66472737      6.68492357     19.01273492
H      -0.23631273     -0.21084328     20.53330998
H       9.34325072      7.37679614     19.15686668
O       2.52267123     -1.55751150     20.49722785
O      10.41634509      5.71610091     22.49633870
H       8.85626143      1.51809861     19.87164229
H       8.31320157     -2.83516777     18.11076782
H       7.74838846      6.00863570     20.24611544
H       3.44344640      3.38826039     21.77276631
H       9.52628034      6.06057894     22.67326529
O       7.22909631      5.40819517     20.85560837
H       2.61344556      7.77827787     21.47201966
H       5.32334622      8.83826160     21.83817452
H       7.20326184      5.74339770     21.78622553
O       3.50654385      3.62517464     22.75320689
O      11.35548150      9.36299991     24.42920264
O       5.40218712      8.42100231     22.72222196
O       8.28460499      1.94804030     23.33865045
H      10.39824017      4.36466105     23.26100297
H       2.77487155      3.20330963     23.19616617
H       4.88156491      7.54430821     22.86171621
H      11.97506398      8.51264227     24.28520969
H       7.36520460      2.25079977     23.46067621
H       8.94629888      2.63117991     23.67601794
H       4.97852996      3.05151362     23.23817313
H      11.91372780      0.47135052     24.13351270
H       4.27808450      5.10636548     23.33888587
O      12.92105043      7.28132750     23.66817112
H       2.36466331      6.69304141     24.17546287
O       4.52188379      5.99250943     23.64835056
O       5.62314631      2.57931654     23.79833817
O      10.24751280      3.58611348     23.90312543
O       1.31456138      2.00509365     23.84773469
O       7.80144466      6.22347980     23.49856392
H       8.37536486      0.59606919     24.05346413
H       5.19802484      9.19009577     23.91354073
H      11.73753650      2.66394449     23.77041810
H       7.72555418      7.16023522     23.72301696
H      12.21073370      6.66980757     23.32652530
H      10.37283872      3.81007035     24.82119028
H       5.25878101      1.07276278     24.55991586
H       9.39686969      9.16104766     24.34440964
H       5.88344678      3.20377675     24.53655969
H       4.79470515      5.87632690     24.58565764
O       8.43725441      9.29856367     24.51072867
O       5.04946867      0.13408587     24.75185013
H       1.76610473      2.27929269     24.70635294
H       7.91182650      5.78277136     24.37520690
Pt      2.75282627      9.11743021     26.98171009
Pt      5.42803414      9.24056498     26.81324469
Pt      8.39041957      9.32001034     26.68234436
Pt     11.14759455      9.38008059     26.79582224
Pt      8.37226000      4.46725006     26.89812671
Pt      4.29420268      6.85741678     26.93326868
Pt      9.60305826      6.85187882     26.86931845
Pt      6.85499116      6.91692695     26.96384475
Pt     11.13407859      4.45016270     26.87964847
Pt      1.33131305      6.80611844     26.83577223
Pt      9.71874368      2.02772601     26.92152725
Pt      6.98984467      2.10730612     26.91580285
Pt      2.73455088      4.37675431     26.79979393
Pt      5.51508997      4.45090345     26.88495308
Pt      1.38413060      2.06789402     26.88965503
Pt      4.30910884      2.17663461     26.88895128
H       8.02330728      1.69463398      9.23362518
