   242
 Tv_1:  11.152900   0.000000   0.000000 Tv_2:   0.000000   9.658700   0.000000 Tv_3:   0.000000   0.000000  26.829700
Pt      5.60335939      7.91497073      2.18284469
Pt      7.03380111      0.60683621      2.45143638
Pt     11.16354900      7.94136522      2.35105791
Pt      8.43440684      7.78991646      2.33769190
Pt      8.40402941      3.07884101      2.44523611
Pt      2.69033730      7.97090508      2.35336737
Pt      9.98065397      5.44246791      2.36362368
Pt      7.02647018      5.44301618      2.34738350
Pt      5.61905437      3.09111506      2.38476080
Pt      4.10756436      5.63381711      2.43258954
Pt      9.90249326      0.62556749      2.52386828
Pt      1.42950897      5.48028251      2.39926005
Pt      1.44939068      0.71067163      2.49893418
Pt      2.92319972      3.11380791      2.39338823
Pt      4.10624480      0.69709425      2.33579245
Pt     11.13080527      3.11196775      2.28357519
Pt      5.92220669      6.44847722      4.59361167
Pt      8.70022132      6.45634233      4.70503960
Pt      7.31630459      8.90138805      4.66800664
Pt      7.27014032      3.99571761      4.71705684
Pt      8.68460762      1.64810817      4.66056873
Pt      5.89615050      1.55569370      4.67596024
Pt     10.04860083      4.05063301      4.62303307
Pt      9.98611308      8.88998614      4.80301993
Pt      1.67566711      8.84520430      4.74225348
Pt      0.34242904      6.56359366      4.67255373
Pt      3.11606614      1.55521663      4.82017326
Pt      3.05504726      6.45525755      4.77257863
Pt      4.50600967      8.80584647      4.50030664
Pt      4.35839884      4.06120606      4.54707838
Pt      0.31904134      1.71165084      4.83897218
Pt      1.75806042      3.99598487      4.65898634
Pt      7.66163113      2.43233764      6.96962938
Pt     10.16157130      7.29139992      7.09488940
Pt      9.07414023      4.86997271      6.91903896
Pt      8.86435134     -0.00257231      7.08639846
Pt      5.97040211      0.02216553      6.91366251
Pt      3.47991615      5.01013745      7.00951447
Pt      3.30515922      0.24086374      7.22774419
Pt      7.37839935      7.20291187      7.02135752
Pt      4.83061146      2.62148913      6.78483461
Pt      2.06314366      2.67212643      7.14669494
Pt      0.65254137      5.00761864      6.92125671
Pt     10.62600776      2.59432751      7.24336378
Pt      6.27524667      4.83428276      7.06204001
Pt      0.48182705      0.04588735      7.11416324
Pt      1.84480031      7.41688811      7.04027001
Pt      4.61039997      7.41595453      6.68157911
O       6.18960471      5.76810296      9.18235172
O       1.82847206      7.27753707      9.17302693
O      -0.94498097      3.22798431      9.31483189
H       2.10936990      2.53817363     10.06589195
H       7.97191626      6.90944622      9.55151550
O       0.24779641      0.14374646      9.22513549
H       0.61489838      6.19344381      9.63779528
H       2.83930668      3.97528012      9.37293782
O       8.98614335      0.13805421      9.42861855
H      10.37312075      0.21657289      9.38950269
H       0.66144614      0.90675135      9.79514127
H      -1.94570413      3.33861372      9.29991647
H       6.85010650      2.48147110      9.41325592
H       0.94336598      2.79817569     11.55473144
H       8.76495894     -0.63672040     10.01206519
C       7.01134193      6.95671212      9.01472776
H       2.84950948      8.55072200      9.49812868
O       7.79810324      2.35407688      9.09953227
H       4.31184003      9.49050739      9.73889176
H       6.69289745      5.22500171     10.40974872
O       3.35340949      9.41523513      9.30993332
O       2.63442961      2.95450171      9.20612341
O       1.29160396      2.04115147     11.09511839
H       1.59122985      1.33727262     11.76971233
H      11.65452443      5.23556375     10.97108807
O      11.33467702      5.40454903     10.00552300
H       4.42259528      2.48538232      9.49638339
O       5.30305744      2.66507628      9.91479632
O       3.44937709      5.28033752      9.10844522
H       4.42646695      5.41977401      9.26723152
H       6.49676777      7.84069973      9.31206297
H       6.51602884      5.37762769     12.72442624
H       5.18263154      3.22874844     10.68648060
H      10.63460926      4.12910576      9.43207566
H       5.71286686      9.24647312     11.39903213
H       5.71320615      0.88998546     10.37091325
O       5.73959357      9.53753278     10.40734828
O       7.08938179      5.24778088     11.37785647
H       2.52048647      6.49505063      9.23414297
H       7.61050695      1.78045371     13.51235790
H       7.73709095      4.44301057     11.49570588
H       7.38003337      9.24280716     13.61471917
H       9.91147367      7.81593942     11.69896696
H       6.74677383      3.04211032     13.57994765
O      -2.20659994      8.06471481     11.58976478
O       8.22270841      0.11056858     13.70639877
O       7.52617352      2.68986150     13.16695842
Cl      5.48486128      8.35947481     13.44068789
H       1.71481441      0.17684794     13.64732244
O       9.78285959      4.30534415     14.16854247
H       9.03027361      3.75132334     13.85716091
Cl      1.24460740      4.52255453     12.79809140
O       4.22086483      4.12148175     12.19670155
H      -2.76554014      7.55065108     12.15138789
O       2.39763490      0.33596281     12.89332524
H      10.67580576      4.12641383     13.78554808
H       3.30199117      4.37317127     11.88640409
H       4.17441241      3.21607232     12.72635546
H       8.60240225      9.50032465     12.85682393
H       4.31660077     10.76357170     13.45196300
O       5.77135067      5.50071598     13.40359429
H       4.86544184      5.02323834     12.84451019
H       0.87637829     -2.55211013     12.66862724
H       2.28812133     -0.52976902     12.43808554
H       4.91670068      6.02855075     15.55632464
H       2.81024033      0.88746987     15.82580348
H       5.72930601      6.53121842     13.52482632
H       9.48811350      0.46573029     15.38153794
H       3.68304417      6.82292756     16.43818926
O       4.69518740      2.02888022     13.60235624
H       4.47546767     11.74397004     14.57968320
O       3.56055222      1.46059544     16.17207665
O       0.65506944      7.68180303     11.92753624
O       4.63468151      6.46360667     16.37861969
H       3.11059596      2.32149546     16.39557129
H       5.75329035      7.48755010     17.09108190
O       9.95993297      0.57941860     16.23239976
O       1.13296975     -0.07272266     15.36266529
O       6.07923635      8.07815166     17.78919187
H       0.24509929      0.11786354     15.77765252
H      -0.86973316      2.49545648     16.40681688
O      -0.74151110      3.45922328     16.44971196
H       1.09075542      7.37823317     11.12777884
H       9.35895537      0.62671220     17.04033699
H       4.52198963     -0.45866864     18.54959282
H       3.87747598      0.75990029     17.71343725
H       1.53745279     -0.94325296     15.72299004
H      -1.10179796      3.81446392     15.56106491
H       1.02823761      3.72941068     16.32649241
O       3.91387492      0.39967997     18.61826440
H       6.85018789      8.57290384     17.48252174
H       4.28611302      4.86452913     17.47101072
H       5.33806119      1.79767750     18.68343189
O       2.00388595      3.96832628     16.10972872
O       5.99238963      2.50682246     18.75558048
O       1.94434587     -2.53940437     16.64509622
H      13.12890247      4.07602145     15.13352756
O       4.19515164      4.49499989     18.34850170
H       1.76389957     -3.51765110     16.32840144
H       5.61930586      3.39400390     18.56105348
H       1.57733649      7.13786479     17.51653999
H       7.33140741      1.21021742     17.95836414
H       0.77419788      5.71705140     19.04689149
H       2.95840039      0.18830979     19.92737486
O       8.00076066      0.44354161     17.96524936
H       4.23861294      5.26603146     18.95011207
O       1.25074889      6.60324475     19.19770413
O       2.51417294      0.36218934     20.80761814
H       2.34123340      1.36685982     20.69735218
H       8.25904854     10.06863849     18.95879203
O      -0.38224284      4.51292872     19.10817936
H       0.72649002      7.27320564     19.67553056
H       0.94411975      3.49906646     19.67773479
H       2.62047663      6.40170919     19.90400628
O       8.53186817      5.03137656     20.82074146
H      -0.83471071      4.28735428     18.27144678
H       2.48979958      3.73200603     19.23119636
O       1.92419660      3.23616341     19.89915153
H       7.93078239      5.73930710     20.29301192
H       7.29546646      2.31181365     21.79926127
H       3.81333565      6.16764809     21.03428064
H       7.99397831      4.23784791     20.90036907
H      10.09323898      4.69196839     19.75160054
O       3.57854326      6.51129340     20.14142390
O      -2.47060292     -0.49208214     20.51728931
O       7.79798980      2.43273049     20.92306051
H       0.90764612     -0.64816827     21.04698217
H       8.72048533      5.24925166     22.23843937
H      -1.50007608     -0.60296689     20.64180585
O       7.07187308      7.10304056     20.06276069
H      -2.55189080      0.32543352     21.09510507
H       7.57464972      7.87451819     20.43782905
O       0.13707152     -1.30269192     20.84899088
O       9.09718177      5.35823732     23.23565923
H       7.06383922      2.36356869     20.26602635
H       6.65918548     -2.17059805     19.24614516
H       5.89450018      6.81963750     21.94100026
H       2.35929449      3.60520221     21.68686325
H       8.41335518      5.78691791     23.78856384
O       5.48884491      6.76222350     22.83304415
H      -0.00670100      7.73438919     21.60961713
H       3.08584469      9.35357390     22.23465683
H       5.13661835      5.80046590     22.93914073
O       2.35308009      3.60231812     22.69089455
O      10.98081211      9.20805680     24.70019734
O       3.04950926      9.08756257     23.21751231
O       6.70176678      2.18533633     23.64592742
H       9.24436194      3.89000935     23.66037924
H       1.74585164      2.86361337     23.02523904
H       3.32022370      8.10031983     23.28560650
H      11.21698191      8.33617981     24.24937600
H       6.10316173      2.95950100     23.70349176
H       7.58061901      2.56050445     23.89228219
H       3.97956626      3.81123567     23.19609109
H      11.47589175      0.32983377     24.30833583
H       2.44482294      5.27589317     23.46901185
O      11.18696632      6.95964401     23.28047432
H       0.87942855      6.47901441     23.47818434
O       2.47767594      6.22270036     23.75721337
O       4.80101257      4.14608206     23.64979048
O       9.15173847      2.94803977     23.94147879
O       0.68725127      1.84502502     23.86769529
O       7.28890150      6.89102827     24.70808375
H       8.30607175     -0.16472556     24.56445192
H       4.51688683      9.62748155     23.92646245
H      10.93732504      2.18853149     23.74903728
H       7.84284696      7.69491602     24.40236966
H      10.46552669      6.22596858     23.39127927
H       9.33424059      2.97270186     24.89899388
H       5.91598577      0.74859443     24.03142517
H       9.44886169      8.95870032     23.78578189
H       4.51157734      4.19420536     24.60011741
H       2.56402292      6.04393294     24.75753078
O       8.53100166      9.02746891     23.69189814
O       5.42564608     -0.05732881     24.30247872
H       0.96691921      2.15127444     24.79134777
H       6.56094446      6.98315668     24.06316185
Pt      2.71378213      9.40709002     26.89174436
Pt      5.36294187      9.30457783     26.48331106
Pt      8.10321933      9.35889655     26.94403036
Pt     10.88943571      9.28402739     26.85050659
Pt      8.27307793      4.43468545     26.80632014
Pt      4.06207898      6.89250713     26.77411214
Pt      9.69550689      6.76167839     26.85733530
Pt      6.78480471      6.92985658     26.88023402
Pt     11.09802906      4.44052755     26.62825058
Pt      1.29295783      6.87581299     26.86752527
Pt      9.63319988      2.03639143     26.89856639
Pt      6.84119540      2.11750662     26.82680280
Pt      2.65648935      4.53496728     26.83825378
Pt      5.47722843      4.56949721     26.90711116
Pt      1.30469030      2.12400363     26.92252058
Pt      4.02817906      2.10334069     26.82301204
H       8.22294018      0.93248902      9.40551507
