   242
 Tv_1:  11.152900   0.000000   0.000000 Tv_2:   0.000000   9.658700   0.000000 Tv_3:   0.000000   0.000000  26.829700
Pt      5.60331266      7.88734463      2.27930997
Pt      7.08045190      0.50284508      2.39791277
Pt     11.17323948      7.77950500      2.28014588
Pt      8.39376950      7.64982720      2.31924168
Pt      8.26885614      3.02597745      2.47106285
Pt      2.80555616      7.94933999      2.35788669
Pt      9.75999133      5.26044545      2.33143049
Pt      6.98646272      5.32175774      2.23689327
Pt      5.53461085      2.92057623      2.37773369
Pt      4.21065464      5.41219825      2.44804536
Pt      9.81629009      0.53505171      2.42395800
Pt      1.30106713      5.34931525      2.26070632
Pt      1.36146461      0.58007430      2.34559126
Pt      2.88538769      2.98172968      2.37761015
Pt      4.25725150      0.66769670      2.36221566
Pt     11.24242801      2.88220414      2.40699890
Pt      5.99527932      6.51682536      4.70670853
Pt      8.77192878      6.33017176      4.73270701
Pt      7.49305457      8.83421094      4.73627239
Pt      7.27669257      4.12545345      4.84232940
Pt      8.75759861      1.57514995      4.68809378
Pt      5.88534511      1.71391946      4.73973410
Pt     10.22088823      3.92386330      4.74333460
Pt     10.19062199      8.92413581      4.72258555
Pt      1.78858347      8.90152280      4.66038870
Pt      0.45506823      6.45035698      4.67177446
Pt      3.24914131      1.69020967      4.85538990
Pt      3.22081089      6.54163582      4.66337267
Pt      4.67117961      8.89599379      4.63334557
Pt      4.44254165      4.11362087      4.71796137
Pt      0.53174844      1.64847463      4.82863409
Pt      1.86539682      4.09342291      4.69530682
Pt      8.01270386      2.56949342      7.10515037
Pt     10.61154859      7.44206063      7.04630726
Pt      9.40011723      5.14735959      6.95394398
Pt      9.16139321      0.08320211      6.99361090
Pt      6.41182063      0.24964195      7.03351398
Pt      3.95167295      5.37195495      7.09814078
Pt      3.61895226      0.49419364      7.31093083
Pt      7.64661961      7.44259549      7.13575599
Pt      5.34037029      2.78802166      7.06069318
Pt      2.66459025      2.95343197      7.18149420
Pt      0.97622596      5.14984501      7.03977012
Pt     10.93469101      2.64627860      7.18940033
Pt      6.75589453      5.03331088      7.17581608
Pt      0.76774240      0.17909253      7.12285884
Pt      2.17758034      7.52828813      6.97450949
Pt      4.82836912      7.78366928      7.05962972
O       6.54801087      5.97644989      9.15301547
O       1.97221156      7.27289447     10.18394948
O      -0.57526270      2.90925485      9.29418790
H       2.35320195      2.61653936      9.75518478
H       8.32289013      7.15958039      9.48922735
O       0.68519233     -0.23062454      9.23278853
H       0.94138479      5.91879819      9.50302334
H       3.65781053      4.69183923      9.67787255
O       9.01617956     -0.27886986     10.20200322
H      10.91379808     -0.44655034      9.36841832
H       0.97211764      0.65026852      9.81386404
H      -1.63871087      2.76697600      9.41701549
H       7.17484304      2.08015335      9.55390085
H       1.39625264      2.13754478     11.49354445
H       8.86696807     -0.18272770     11.21776641
C       7.28532744      7.17266627      9.09136432
H       1.78687093      8.17730149      9.83574751
O       8.04136789      2.35149207      9.17375357
H       4.46447039      9.28038738      9.52176556
H       7.01142390      5.14852938     10.56138285
O       3.80851977      9.98686848      9.33970234
O       2.62430419      3.42935357      9.17078180
O       1.86304962      1.62809211     10.77071823
H       2.62082989      1.23629844     11.22956253
H      12.89070308      4.38199544      9.30944220
O      11.97942987      5.03166961      9.13609104
H       4.86248856      1.44645451      9.92969313
O       5.71166102      1.88546687     10.33996059
O       3.84628626      5.66895222      9.49269327
H       4.79344597      5.91087692      9.46363600
H       6.67514069      8.00891224      9.47040504
H       6.42011763      5.49458276     12.54473170
H       5.42296579      2.64067631     10.84426335
H      10.88535788      3.89516869      9.40510228
H       5.68846939      8.25157542     11.94087928
H       6.01283123     -0.10013367     11.38468766
O       5.43283540      8.80456369     11.21976877
O       6.92420691      4.61878147     11.42461355
H       2.73267914      6.78022158      9.86399701
H       9.05124555      2.30196623     12.23683049
H       7.84754449      4.32123841     11.69822667
H       7.49545518     10.24569872     13.14521773
H      10.96369325      8.32374136     13.10559430
H      10.16894532      3.40117197     12.13441734
O      -0.79854654      8.95840903     13.61292409
O       8.38182600      0.70606190     12.72761085
O       9.17852272      3.30158327     12.32467438
Cl      6.70377226      8.34722214     14.89206086
H       3.82957407     -0.27390699     12.84401449
O       9.41427308      7.32068939     15.71392216
H       8.42092469      7.52116558     15.73328810
Cl      1.21978153      3.83420640     12.68879992
O       3.92331194      4.56721101     13.91202639
H      -0.19616801      9.49461450     14.20755966
O       3.69898396      0.71629702     12.67310100
H       9.54318198      7.90136653     14.91195037
H       3.09257163      4.41282363     13.34359512
H       4.51767209      3.64545652     13.83134325
H       9.00317150      9.68796716     13.14058868
H       5.17633983     11.28673252     13.55634356
O       5.70744091      6.14013671     13.10513325
H       4.79105258      5.52406261     13.47684753
H       0.74829823     -3.65922474     12.71883700
H       3.19430195      1.07201951     13.48306652
H       1.96841359      7.45096793     14.38374927
H       1.97019271      1.46439942     15.28088636
H       6.12284357      6.69317906     13.81765936
H       9.49802837      2.69628597     14.16086373
H       1.62280542      7.81952537     15.95782892
O       5.63612999      2.46143671     13.73808683
H       6.06014348     11.88484383     14.63834425
O       2.94978382      1.76044460     15.18091751
O       1.08076554      6.99077550     12.72406829
O       2.24906854      7.45619714     15.29079322
H       2.87674578      2.79987252     15.11175636
H       3.60222923      7.53300395     16.31258922
O       9.71322711      2.41504390     15.08512879
O       0.55811648      0.79537822     15.59936322
O       4.34140892      7.45555018     16.97442843
H      -0.24382213      1.37220991     15.47898753
H      -0.95289776      3.84184142     16.04303362
O      -0.56632123      4.61613555     16.48281092
H       1.45924535      7.12468625     11.81168788
H       8.79471101      2.24081690     15.49410134
H       4.15559759     -0.32948140     17.27539146
H       3.36937833      0.94199184     16.77637358
H       0.38132922      0.23402881     16.40620249
H      -0.96788990      5.43640840     16.07799789
H       1.48888266      4.74404075     16.42167618
O       3.74111223      0.49658639     17.57663006
H       5.22483836      7.58104094     16.46397093
H       3.16912127      4.51113237     17.92399920
H       4.97920339      1.51736952     18.10223852
O       2.37701185      4.42495154     16.63426688
O       5.64422291      2.29567698     18.06888182
O       0.52448425     -1.46240119     17.12324653
H      14.06075345      4.92276383     15.97276135
O       3.81250101      4.27529356     18.70787003
H      -0.33192674     -1.89904722     16.87997015
H       5.03944273      3.07481333     17.95489349
H       0.95643566      7.72677207     17.84214897
H       6.52954888      1.88829526     16.79139390
H       0.71748510      5.94766547     19.44090448
H       2.35625056     -0.61795737     19.51701559
O       6.97647053      1.73013506     15.86455521
H       3.94261782      5.06896027     19.21789991
O       1.35016852      6.76143685     19.50341566
O       2.18625749     -0.11257825     20.32024818
H       2.27876151      0.86230532     20.05710341
H       7.06198683     10.37443790     15.55286329
O      -0.56625199      4.43184033     19.30635261
H       0.88007445      7.35508463     20.08709082
H       1.40774335      2.93386694     19.56002153
H       3.04273070      6.72178473     19.74180152
O       8.12936261      4.89291628     20.43448336
H      -0.85617742      4.47018599     18.32989415
H       2.94171233      3.18222628     19.26316940
O       2.27488527      2.58737054     19.80627917
H       7.37984392      5.54418023     20.33438321
H       6.59877414      2.10186255     21.29804259
H       4.15858396      7.03264047     18.55952132
H       7.80338996      3.98618144     20.37258787
H       9.82935229      4.68137103     19.85857299
O       3.99468964      6.74635319     19.51900987
O      -3.19499830     -0.34406666     20.84049843
O       7.10492312      2.24490275     20.44506780
H       0.31037590     -0.36821310     20.50233298
H       8.66303821      5.06372174     22.17689206
H      -2.32366408     -0.59599425     20.48337787
O       6.40397434      6.98168789     20.35258809
H      -3.51430885      0.53667601     20.47871330
H       6.76474079      7.87754034     20.48960593
O      -0.50524016     -0.96023940     20.58666183
O       9.07252663      5.00532115     23.12040742
H       6.39935596      2.08347679     19.71904749
H       5.46466193     -2.52718974     20.12652435
H       5.70142490      6.74807793     22.25004374
H       2.45694268      3.17699074     21.33352295
H       8.30902631      5.44517351     23.55016184
O       5.43020935      6.36576035     23.13224241
H      -0.36707389      8.45374958     21.50130092
H       3.26515694      9.03596014     22.32156339
H       5.36560180      5.39351731     23.10141673
O       2.47918835      3.46137847     22.31399375
O      10.94762811      9.21717183     24.51410863
O       3.32777340      8.79590607     23.24039398
O       6.26658276      1.78245396     23.13716182
H       9.08070665      3.31872898     23.49625638
H       1.72388650      3.02123045     22.78299300
H       3.12013500      7.75875818     23.29583781
H      11.15028846      8.32303983     24.02127030
H       5.89815513      2.76491181     23.34995180
H       7.23608614      1.83579724     23.28662452
H       3.93490249      3.53652470     23.08703009
H      11.63251295      0.32031265     24.39807505
H       2.40211380      5.41076449     22.95817295
O      11.12901651      7.15999042     23.16935280
H       0.85669997      6.61082155     23.26321371
O       2.36151679      6.23862947     23.52138728
O       4.82530400      3.76157585     23.50807283
O       8.83098697      2.35335791     23.57382980
O       0.67157865      2.30020167     23.90722373
O       7.41840940      6.83172978     24.52016004
H       8.35438069     -0.47327735     22.51455794
H       4.78169192      8.83362354     24.05517778
H      10.86026237      2.27615856     23.71379586
H       7.81427650      7.74348380     24.23348563
H      10.38512559      6.60819310     23.40490768
H       8.77798316      2.17831099     24.53912774
H       5.80424737      0.56175882     24.16646105
H       9.37158024      9.34869741     23.77772093
H       4.59179511      3.68886576     24.54272727
H       2.57993519      5.94704768     24.43259911
O       8.60730860      8.86752926     23.44456442
O       5.54999538     -0.32544813     24.59349610
H       0.72322444      2.95507243     24.65492878
H       6.44621211      6.80640001     24.05447755
Pt      2.65179905      9.05360151     26.75207357
Pt      5.40843845      9.18078322     26.75880552
Pt      8.43988779      9.04681955     26.88398614
Pt     11.06831716      9.10031294     26.75503076
Pt      8.28602097      4.20703460     26.75281938
Pt      3.94393804      6.59492896     26.74956194
Pt      9.55695958      6.55437662     26.93182956
Pt      6.85598912      6.64478202     26.61662574
Pt     10.97108469      4.27603696     26.79228469
Pt      1.16897492      6.73953298     26.85887854
Pt      9.50593767      1.85299981     26.82903401
Pt      6.73313737      1.85670056     26.79290492
Pt      2.49181328      4.27762613     26.78501215
Pt      5.37785382      4.24815690     26.84333797
Pt      1.25932180      1.88147197     26.76105477
Pt      3.98474098      1.84372507     26.77471949
H       8.54487251      0.57800341      9.83961722
