   244
 Tv_1:  11.152900   0.000000   0.000000 Tv_2:   0.000000   9.658700   0.000000 Tv_3:   0.000000   0.000000  26.829700
Pt      5.64269285      8.01827668      1.94073548
Pt      7.11568118      0.66497711      2.04372674
Pt      0.25888698      7.71103299      2.02658013
Pt      8.51101002      7.95136983      1.92454619
Pt      8.42572496      3.02886777      2.12466595
Pt      2.90844775      7.65481573      1.93395224
Pt      9.79699852      5.43000483      2.14394339
Pt      7.04765391      5.52061530      2.13325035
Pt      5.63499991      2.94881201      1.89062773
Pt      4.34312910      5.35332388      1.99304455
Pt      9.76492707      0.64403233      2.02372657
Pt      1.51057153      5.32563641      1.95339005
Pt      1.43408894      0.51784465      1.87699462
Pt      2.71030310      2.86541608      2.11942801
Pt      4.16617375      0.63488987      1.97742462
Pt      0.06077247      2.96318857      1.98161057
Pt      5.26758820      6.46493387      4.27423957
Pt      8.14102359      6.52395686      4.36694174
Pt      6.60918808      8.90224700      4.36684353
Pt      6.69889451      4.06270631      4.17914406
Pt      8.02489305      1.66388460      4.46939796
Pt      5.20539434      1.67938311      4.36590536
Pt      9.51585801      4.12133153      4.43789264
Pt      9.42388843      8.90105038      4.26685733
Pt      1.01160845      8.88278418      4.37350159
Pt     10.89023177      6.46080008      4.45268422
Pt      2.37195512      1.61652961      4.42706512
Pt      2.39041522      6.41540831      4.30902599
Pt      3.78567813      8.97034916      4.37077104
Pt      3.87699657      4.04615480      4.28621279
Pt     -0.43009022      1.62030509      4.36121846
Pt      1.09071234      4.05199757      4.38055880
Pt      6.21618204      2.75798737      6.78704383
Pt      8.99618771      7.44396624      6.71218129
Pt      7.61257885      5.03072812      6.69039331
Pt      7.43184843      0.29018763      6.90478641
Pt      4.62069588      9.74838355      6.90841404
Pt      2.02092632      5.07912131      6.70283172
Pt      1.96571867      9.88922690      6.83487893
Pt      6.28890307      7.43718511      6.65628977
Pt      3.43087416      2.72128573      6.66692956
Pt      0.60032261      2.69763133      6.76485892
Pt     10.32230714      5.02537563      6.85816435
Pt      8.98869939      2.70930515      6.86358225
Pt      4.83197412      5.13991313      6.64333093
Pt     10.31665309      0.35601416      6.82426261
Pt      0.59602190      7.44044921      6.84165037
Pt      3.40061006      7.48910398      6.56449661
O       4.99418042      5.41496158      9.15053497
O       0.40248348      7.71904566      9.12967251
O      10.52017850      5.16601454      9.06776327
H       2.57833712      2.25704541      8.64912575
H       5.24474599      7.36569275      9.93051191
O      10.21433100      0.07896404      8.86992338
H      -0.20430362      8.58866890      9.12740301
H       3.26462988      2.29077714     10.12770922
O       7.63457922      9.89156532      8.96375041
H       8.72952544      0.22429632      9.04623371
H       9.61028104      5.36083989      9.62329622
H      -0.66274919      0.96577323      9.29359789
H      -0.07957736      5.99171904      9.31749711
H       5.62387617      3.92765717      9.10223094
H      -0.41434701      3.32923253      9.80170211
C       5.71736587      6.46575716      9.52315642
H       1.36058499      7.96605600      9.45283270
O       5.92618981      2.95557493      8.91684558
H       3.80260602      9.47445630      9.67045346
H       4.94619288     10.51342019      9.44386487
H       6.40816359      7.13351359      8.40233247
O       4.65272096      9.67010026      9.08951732
O       2.43666596      2.63112659      9.58835707
O      -0.56925220      2.42312647     10.24682876
H       0.39851539      2.10750259     10.47160131
H       6.89046401      9.10013910     11.70001822
O       7.35625925      8.51687570     11.04803251
H       4.96621267      1.59610414     11.81944034
O       4.52855807      2.17358024     11.07882004
O       2.33129005      5.16020350      8.83285465
H       3.33669294      5.54301892      9.01411362
H       6.73458444      6.31021430      9.97450757
H       1.04776255      5.81966600     13.44495515
H       5.12189478      2.91827585     10.96291000
H       8.26804415      8.50639245     11.40236613
H       2.88914301      6.22325331     12.46801569
H       4.37664231     -2.99117726     12.17745852
O       3.49598422      6.53824957     11.71747810
O       1.91876436      5.39554130     13.62877687
H       2.36763412      4.21350547      9.24196005
H       8.83580181      2.60866302     10.52399488
H       2.29685931      5.72861835     14.50599511
H       9.32451749     10.25561972     12.67540635
H      11.45045815     10.09752125     12.04770294
H       7.90471383      2.74329569     11.67601761
O       1.18678614     10.43257908     11.79862030
O       9.73822946     -0.18168357     12.19035636
O       7.97815603      3.13375427     10.79735807
Cl      5.60398587      0.22051231     13.25111412
H       2.11972567     -0.28812555     11.05135383
O       8.56758980      5.63545899     10.44387948
H       8.27118785      4.72773560     10.69711186
Cl     -0.77132993      6.73735375     13.23079311
O       8.19362134      1.91487708     13.30193924
H       1.52437486     11.14379408     12.40916557
O       2.60674316     -0.91356866     10.40507506
H       9.00236255      6.04213853     11.24055333
H       8.30038413      2.68604795     13.90832158
H       7.39248358      1.38049985     13.51736875
H       9.83688066     -1.05883108     12.73256791
H       5.87667106     -4.11151455     18.09876774
O       5.95283594      6.14580923     13.93156703
H       6.21755103      7.08125326     13.76425198
H       6.83070447      1.06031846     15.51061778
H       2.94585812     -1.76183434     10.82797982
H       8.85041113      5.13526227     14.07869257
H       4.32849505      1.45196315     14.58292474
H       5.66433326      6.10001659     14.85480324
H      12.65518928      3.64994592     13.64982233
H       7.42086287      4.97264940     14.49144189
O       6.17283533     -4.21324573     19.04739861
H       7.13410688     -3.78013192     19.12923933
O       3.61369756      1.57793376     15.25758641
O       7.12356153     11.30484424     16.19018495
O       8.24327632      4.44104819     14.49331450
H       2.92288463      2.16619266     14.82775108
H      10.85872149      7.65888315     14.92557246
O       1.31555310      2.70577680     13.86844264
O       2.65465546      8.87502810     16.32751596
O      11.09897498      8.02202124     15.80261124
H       2.70005404      9.14129341     17.32684978
H       2.14955872      5.86147340     16.73414523
O       2.77139565      6.11476122     15.98762269
H       7.92141176     10.87504584     16.54482275
H      12.08044155      2.64664182     14.73632583
H       5.92288537      2.23761676     17.23646455
H       4.42473379      2.41751205     16.61951194
H       3.16876631      9.62442922     15.85338778
H       2.77746407      7.09171410     15.93584564
H      11.36501999      6.81246888     17.17860912
O       5.08322796      2.77977217     17.34233150
H      11.98022275      8.39738590     15.73229585
H       8.84936625      4.42285048     16.11437235
H      11.76908620      2.70484842     17.15688343
O      11.72887875      5.93941730     17.59507013
O      11.30201440      2.43338979     16.30846862
O       2.70689134      8.89374291     19.00990036
H      11.00176740      5.32044061     17.37068007
O       9.41031353      4.44990977     16.94572082
H       3.09472734     -1.66288354     19.25253663
H      10.59995841      3.03380841     16.39134122
H       1.87577607      9.05910660     19.50973103
H      10.14276179     10.67525369     17.03982759
H       0.25344078      6.35222944     19.42664439
H       3.84093082      0.60207384     19.49513609
O       9.49187264      9.92678915     17.06688107
H       8.96531334      4.09739985     17.75003045
O      -0.17633610      6.42815986     20.33174411
O       4.47217398      1.22449232     19.88923885
H       4.70124210      1.93397029     19.18978419
H       9.88160900      9.24497166     16.46809452
O      12.41774602      2.82924110     19.13568209
H      -1.15094843      6.60645543     20.19327049
H       2.36089077      3.77239296     20.28001470
H       5.37271773      4.38569837     16.55640490
O       7.94096094      3.26625978     19.26063589
H       1.23602239      1.93178047     19.41620279
H       2.01947368      4.56806476     21.61006055
O       2.71012937      4.28409620     21.01943453
H       7.11571789      3.88202647     19.30790426
H       6.03261594      0.45700584     20.48269024
H       4.28041637      5.53352346     16.55056130
H       7.64157685      2.37810349     19.44878468
H      11.62494385      3.17714356     19.65524633
O       5.25649882      5.39470200     16.63004997
O       0.67084043      0.03123666     20.47650255
O       6.76771258      0.19559943     21.09889282
H       3.43109844      2.84052508     22.14871226
H       9.47922933      3.78216572     20.43655277
H       0.92223631      0.05326559     21.39770723
O       9.09193852      9.25836458     19.73444862
H      -0.31165564     -0.09522789     20.47245500
H       9.22844596      9.61345977     18.82368991
O       3.50181099      1.92701612     22.55302989
O      10.25947544      3.83860405     21.09268553
H       6.67165667      0.93801870     21.75472363
H       8.20888666      0.00715650     20.01527970
H       8.54217655      7.74907478     19.82896297
H       4.68020524      6.36251225     19.95324093
H      10.55571632      4.82745225     20.98576756
O       8.29922229      6.75913799     20.06927975
H       3.84191100     11.00215750     21.89721020
H       3.91704836      7.76229492     21.72761454
H       7.91758754      6.76111682     20.96342346
O       3.82070925      6.62012567     20.37232767
O      12.32402955      8.98014852     23.26333013
O       3.88181067      8.54766113     22.35036436
O       6.42997518      2.22936517     23.33209073
H       9.67614946      3.21195593     22.76453034
H       3.39647822      5.72815881     20.52732753
H       2.90717656      8.61866415     22.53197270
H      11.59528561      8.30941809     23.45307837
H       5.69839590      2.91765610     23.33379264
H       7.31146135      2.66302271     23.42559090
H       4.55170469      4.95685152     24.12787423
H      12.24804350      9.54835133     24.08407866
H       1.57349633      5.17703601     24.22644595
O      10.73089682      6.82446259     23.13404215
H      -0.06687586      6.73488554     22.13785599
O       1.14668493      4.87333912     23.40770770
O       4.87386039      4.84310548     23.25168081
O       9.16355368      2.82966413     23.52489212
O       1.44137849      2.06561937     24.24391000
O       7.84968562      6.90658261     22.75864895
H       8.74451377     10.57371828     23.68590051
H       4.74963734      8.95541169     23.63182718
H       2.27483269      1.97481736     23.67354098
H       7.57526460      7.86329143     22.99486216
H       9.72332257      6.70539586     23.08280542
H       9.34869345      3.35559937     24.35734499
H       5.84255794      0.63260450     23.86330038
H       9.48922588      9.16435717     23.78666272
H       4.38800831      5.56653814     22.75932482
H       0.22999579      5.20854643     23.61598725
O       8.57267842      9.59547794     23.84925467
O       5.51285246      9.34694290     24.17783105
H       1.14588656      3.02277993     23.91838342
H       7.13690848      6.32561641     23.19149668
Pt      2.91750457      9.23263462     26.39552718
Pt      5.75537175      9.11337192     26.28405178
Pt      8.61873823      9.01377475     26.35534218
Pt      0.10713960      9.16614923     26.57105981
Pt      8.57767917      4.27663016     26.48485978
Pt      4.35910372      6.74997808     26.51943412
Pt      9.94982355      6.68136270     26.63919490
Pt      7.12359396      6.73441982     26.53816721
Pt      0.21126087      4.30978360     26.43572123
Pt      1.65137334      6.77497631     26.48142320
Pt      9.93842913      1.85307696     26.54731010
Pt      7.19355162      1.94547028     26.39617783
Pt      3.04704515      4.33274587     26.56153263
Pt      5.77754871      4.38702396     26.40748987
Pt      1.62087429      1.93452548     26.42476808
Pt      4.40805755      1.94679556     26.50465491
H       7.33865372      9.16962999      9.67753246
H       6.80503616      2.86849042      9.39713769
