   244
 Tv_1:  11.152900   0.000000   0.000000 Tv_2:   0.000000   9.658700   0.000000 Tv_3:   0.000000   0.000000  26.829700
Pt      5.65737990      7.81030721      1.93710947
Pt      7.09601268      0.49606775      1.95172084
Pt      0.20024381      7.90457833      1.83209139
Pt      8.54350294      7.83878361      1.84751095
Pt      8.47021401      2.87252639      2.05474042
Pt      2.88087719      7.75812255      1.79754358
Pt      9.84233092      5.37750907      1.95305646
Pt      7.16039693      5.42248856      2.06373041
Pt      5.60212316      2.95472061      1.98266990
Pt      4.34319619      5.49952385      1.97663967
Pt     10.03001366      0.61929975      1.83405721
Pt      1.40370837      5.39565347      2.00716661
Pt      1.58048760      0.68788303      1.76608863
Pt      2.85539737      2.99127847      1.98626636
Pt      4.30043307      0.51394745      1.86607465
Pt      0.16379060      3.04094586      2.01859830
Pt      5.38140907      6.30612773      4.28525560
Pt      8.13667867      6.54473025      4.30631841
Pt      6.62242241      8.80293941      4.24584503
Pt      6.75536655      3.84440698      4.19530201
Pt      8.00924025      1.48544940      4.33272233
Pt      5.17246245      1.57177022      4.42155331
Pt      9.63606798      4.21604152      4.45693888
Pt      9.52744420      8.88718999      4.20727620
Pt      1.01623317      8.88709192      4.25538145
Pt     10.92287996      6.54343894      4.19381863
Pt      2.41871482      1.63608609      4.21154119
Pt      2.61415782      6.60130477      4.21188129
Pt      3.82968054      8.82718200      4.24242161
Pt      3.90348655      4.05257627      4.27497923
Pt     -0.44327463      1.66492204      4.23034901
Pt      1.24240608      4.26396892      4.39925563
Pt      6.19468168      2.65271726      6.74910984
Pt      9.05641078      7.48687991      6.56770670
Pt      7.54743757      5.02313730      6.57615971
Pt      7.55826317      0.23094744      6.76439915
Pt      4.74659861      9.96679638      6.74074123
Pt      1.94333425      5.08285631      6.81790139
Pt      2.17526806     10.00062098      6.51695693
Pt      6.36036437      7.49229598      6.61774913
Pt      3.29827137      2.72238567      6.69964400
Pt      0.64503944      2.71791653      6.49323276
Pt     10.13811915      4.97963132      6.91021718
Pt      8.95657066      2.63554971      6.56762539
Pt      4.78012306      5.05054055      6.63432455
Pt     10.51358331      0.31718254      6.64211614
Pt      0.59015434      7.47159833      6.56962666
Pt      3.30278980      7.58539130      6.66572277
O       5.11143585      5.25571982      8.92443827
O       0.66725317      7.67411290      8.76220378
O      10.41469484      5.19817035      9.04531168
H       2.42569470      2.15562368      9.15416241
H       5.43721163      6.93770828     10.13798937
O      10.66650889      0.10332207      8.70402905
H       0.35139195      8.67915218      8.76104025
H       3.37529784      2.73029265     10.44839759
O       7.97431525      9.80102028      8.79284899
H       8.89985999     -0.20498448      8.73657007
H       9.70231902      5.42143229      9.71064226
H      -0.27326646      1.05056642      8.96908786
H      -0.24081209      6.06256929      9.13617634
H       5.73452741      3.79707922      9.16046133
H       0.09945183      3.16718236      9.62607470
C       5.91197918      6.32616455      9.31371752
H       1.59605676      7.72839301      9.07645645
O       5.96839415      2.79069226      9.27400254
H       4.04845839      9.66659640      9.25185735
H       5.18647231     10.94783925      9.08230080
H       6.14251628      7.12711032      8.40261265
O       4.97796997      9.93619019      8.95198925
O       2.45861009      2.72259609      9.93757850
O      -0.41972818      2.36709488      9.91234426
H       0.12353648      1.88925857     10.70227320
H       7.00744208      9.00346757     11.70197095
O       7.57200875      8.48102237     11.12027717
H       4.90524148      2.98486967     12.43318089
O       4.44283625      3.65529516     11.81070046
O       2.55187110      5.30473854      9.13963624
H       3.50553575      5.49689913      9.21779624
H       6.93544545      6.00934303      9.66607989
H       1.79491521      4.93847453     13.56461161
H       3.65795446      3.99480242     12.43236492
H       8.50452367      8.75317737     11.34455023
H       4.44103569      8.64321793     13.17515114
H       4.78021091     -2.45527800     12.59673463
O       4.06892811      7.88013008     12.62153947
O       2.56013173      4.39161626     13.88741858
H       2.42682898      4.44639882      9.61296049
H       9.14289983      2.66608201     10.05999711
H       2.77452671      4.76272862     14.82649598
H       9.85457165      9.82175312     12.94742472
H      11.50043364     10.00953189     11.77348171
H       8.44954356      2.42360039     11.43747856
O       1.04396283     10.67315116     11.65953408
O      10.02564060     -0.47353150     12.22615125
O       8.24505794      2.86794846     10.55140601
Cl      6.03011153      0.82090993     13.30176122
H       2.28503184     -0.05364940     10.73698027
O       8.76991905      5.59773083     11.01477220
H       8.44285988      4.66565236     11.05947971
Cl     -0.33034110      6.35135961     13.47749724
O       8.71813305      1.84245938     13.07826933
H       1.17899741     11.00318096     12.62219686
O       2.94619992     -0.57114869     10.24037069
H       9.36599814      5.66453294     11.81415703
H       8.78616749      2.63617249     13.64906393
H       7.76450109      1.50267082     13.21582124
H      10.28859539     -1.34220802     12.65408893
H       6.11759089     -4.65424274     18.76489459
O       6.07567435      6.08944196     12.81222060
H       5.59213563      5.35360949     12.36096966
H       7.10581349      1.42286778     15.91818227
H       3.53885596     -1.02510564     10.91526225
H       9.28405963      4.98491443     14.20895699
H       4.16618596      0.53886473     14.94355252
H       6.72853368      6.47793356     12.21840857
H      13.09118267      2.76279208     13.97786950
H       7.66729021      4.78651052     14.08442434
O       6.41834910     -4.47413604     19.72782066
H       7.17374149     -3.85275014     19.66462140
O       3.37577597      0.53057277     15.51269579
O       6.97106997     10.89629828     16.85212089
O       8.53175661      4.32998522     14.33917558
H       2.59936224      0.94016680     14.99915187
H      10.76631763      7.49735072     15.40600824
O       1.51048781      1.85205221     14.15072916
O       2.60635022      7.80738238     16.77479631
O      10.95541211      8.03234194     16.23715946
H       2.87255205      7.84845818     17.74885646
H       1.93691855      5.15275521     16.63778718
O       2.83791789      5.20309527     16.26252010
H       7.83669719     10.43759532     17.09183815
H      11.98091213      2.00499851     14.90546258
H       5.38493367      1.27565847     17.79358500
H       3.97872633      1.44401542     17.14700115
H       2.97068402      8.58066230     16.20840240
H       2.95190771      6.18989386     16.30955701
H      11.26889119      6.47676537     17.05009959
O       4.52148167      1.67467114     17.93678270
H      11.95016211      8.10710790     16.31112934
H       8.83857202      4.03271288     16.29837629
H      11.96554857      2.14845448     17.38160627
O      11.36699883      5.55899004     17.52540161
O      11.37402982      2.33450266     16.63223431
O       2.90529189      7.91258726     19.51379905
H      10.52808449      5.08872013     17.57026800
O       9.24957780      3.95318330     17.20889313
H       3.27524207     -2.51786678     20.01834413
H      10.69261401      3.04737068     16.83328725
H       1.93192034      8.13152186     19.84583072
H      10.10856953     10.77351109     17.10691358
H       0.17335826      5.61098112     19.37624393
H       3.86927766     -0.45141127     19.93522671
O       9.50126119      9.98616078     17.08975904
H       8.59145017      3.52393294     17.84434431
O      -0.15950546      5.63284968     20.28014437
O       4.18985961      0.42248174     20.32215746
H       3.94232898      0.94952050     19.51750739
H      10.10490366      9.24460675     16.82444950
O      12.30118718      1.79877550     19.41814373
H      -1.03772151      6.11144213     20.21382179
H       2.06598918      3.59321202     21.67103095
H       4.99918517      3.53102464     17.67923472
O       8.01134123      2.94347200     19.70687088
H       1.30215269      0.90250075     19.71890829
H       2.03023122      2.89327103     20.27153694
O       2.47444270      3.63488652     20.78410539
H       7.41737773      3.72104603     19.94598876
H       5.81485460      0.39545328     20.50995099
H       4.73887133      4.97094671     17.16471594
H       7.44697828      2.11443274     19.59056969
H      11.41547073      1.99808618     19.93519536
O       5.43578843      4.38236114     17.47650592
O       0.68915755     -0.97674365     20.59308902
O       6.78760022      0.56659826     20.43916668
H       3.39715702      0.46565032     21.84838613
H       9.44314458      2.96924695     20.17281239
H       0.57028060     -0.70813554     21.55564027
O       9.19277264      9.24433387     19.69629982
H      -0.22349024     -0.91777334     20.25809976
H       9.18303734      9.51510023     18.72468979
O       3.32151502      0.49694816     22.86496495
O      10.32558272      3.08979338     20.61575932
H       7.03926890      0.94930867     21.28723008
H       8.29469703     -0.13460139     20.02134604
H       8.79681705      7.55187983     19.78807494
H       4.84520108      5.54960176     20.51012131
H      10.56119754      4.10168420     20.58389012
O       8.58808445      6.78842380     20.32251951
H       3.05798521      9.24256341     22.94036442
H       4.08698385      6.61331671     22.47779824
H       8.34694097      6.97610705     21.31954454
O       3.95430727      5.85918124     20.80563029
O      11.13042204      8.82661080     23.11918973
O       4.19545847      7.42906227     23.09070791
O       7.74498508      1.74102163     22.95813156
H      10.24092535      3.06260855     22.30287235
H       3.34966972      5.06135206     20.65630422
H       3.76702891      7.16586842     23.90663923
H      10.91794537      7.82331271     23.14072610
H       6.97823487      1.83802288     23.54944910
H       8.44758727      2.52687683     23.14984561
H       4.39513717      3.10252709     22.43699416
H      11.65943457      8.95436445     23.99376723
H       2.98606318      4.85864198     24.30499275
O      11.11420400      6.18485269     22.99836251
H       0.15342008      6.17115127     22.02555162
O       2.36269772      4.90538895     23.55722403
O       4.97872406      2.83758125     23.17074079
O       9.97940581      3.38181164     23.22457071
O       1.62945960      2.18768690     24.09046877
O       8.13822969      6.32971108     22.92359076
H       8.36639167     10.06940142     23.67430983
H       5.34978750      8.70029684     23.47110334
H       2.18954184      1.67026569     23.52165976
H       8.02801401      5.43136344     23.23978832
H      10.47442287      5.46145935     23.14028222
H      10.49117865      2.96726970     23.92524705
H       4.94681112      0.44813769     23.70955375
H       9.67192498      9.16315442     23.68578568
H       5.11080009      3.63377948     23.67739659
H       1.76939192      5.72505582     23.60773481
O       8.74042267      9.27755075     24.06619389
O       5.70601384      9.52372556     23.86762837
H       1.59700453      3.15981179     23.76610558
H       7.68478877      6.94520699     23.51925407
Pt      3.08394164      9.08537678     26.21689830
Pt      5.82190048      9.14980607     26.25188660
Pt      8.55860559      9.18080772     26.20030844
Pt      0.22594624      9.21192216     26.33229656
Pt      8.70301792      4.34182627     26.45092112
Pt      4.47569223      6.67956564     26.29537652
Pt     10.03476621      6.68160280     26.27864533
Pt      7.13600920      6.74724559     26.47793116
Pt      0.26052470      4.33991255     26.49385925
Pt      1.83598279      6.62975848     26.24428030
Pt     10.12761575      1.93554780     26.39126352
Pt      7.21726505      1.99560187     26.51610188
Pt      3.15046796      4.39015032     26.53195092
Pt      5.91837412      4.28240153     26.47258705
Pt      1.66360539      2.02327527     26.22015997
Pt      4.31650587      1.90519613     26.34882943
H       7.46420422      9.35440397      9.53293590
H       6.88854429      2.84677840      9.75392293
