   244
 Tv_1:  11.152900   0.000000   0.000000 Tv_2:   0.000000   9.658700   0.000000 Tv_3:   0.000000   0.000000  26.829700
Pt      5.51738207      7.71790957      1.88144578
Pt      6.86547991      0.43516435      2.00447660
Pt      0.01871150      7.68570222      1.89826851
Pt      8.31675399      7.71887797      1.91346068
Pt      8.23786584      2.79022671      2.28408662
Pt      2.79133277      7.66608274      1.95860774
Pt      9.90120776      5.17082070      2.05755150
Pt      6.96973382      5.24330712      2.03396760
Pt      5.48827994      2.73909250      2.23781453
Pt      4.22663233      5.27400930      1.99514725
Pt      9.75217589      0.30492553      1.89709920
Pt      1.45688317      5.34836656      1.97281785
Pt      1.38683318      0.46659198      1.83522417
Pt      2.58679598      2.88101399      2.03668532
Pt      4.14767853      0.44308624      2.13047242
Pt     -0.14782219      2.67704546      2.09293048
Pt      5.19512889      6.27616374      4.32167563
Pt      7.98813729      6.32843894      4.18977667
Pt      6.47982836      8.67806410      4.25863236
Pt      6.54852374      3.79714479      4.49666947
Pt      7.76457291      1.36882800      4.60030210
Pt      5.03535674      1.47383332      4.52248770
Pt      9.44829835      4.04792233      4.43173236
Pt      9.32556065      8.71196028      4.37966206
Pt      0.92982841      8.76220945      4.19700445
Pt     10.88909676      6.41123516      4.35719203
Pt      2.12383841      1.50320371      4.26305445
Pt      2.52235263      6.33360806      4.24977381
Pt      3.59995942      8.84341088      4.29943934
Pt      3.73631037      3.94509879      4.22156407
Pt     -0.63906956      1.46428857      4.46381566
Pt      0.90248123      3.94309536      4.31884697
Pt      6.24448547      2.79672757      6.89139711
Pt      8.69864458      7.34183227      6.54524661
Pt      7.57324855      5.05471767      6.67527331
Pt      7.40942263      0.20602651      6.98300955
Pt      4.58156270     10.00919658      6.92013259
Pt      1.85756251      4.97420873      6.66460849
Pt      1.88544107      9.79575813      6.68448959
Pt      6.03358049      7.49648735      6.65994754
Pt      3.39369263      2.69953317      6.62774612
Pt      0.72990907      2.45291832      6.63802781
Pt     10.27573345      5.06789668      6.89876076
Pt      8.81302827      2.63815550      6.68526407
Pt      4.77355285      5.04827969      6.74531521
Pt     10.18667585      0.22458276      6.84485887
Pt      0.48690929      7.47959805      6.68409302
Pt      3.32917635      7.48876009      6.57261901
O       4.86652226      5.18667743      8.85862278
O       0.43223904      7.47219034      9.01782333
O      10.65173954      5.09762428      8.96087384
H       2.26945026      2.05677686      9.16462295
H       5.19378988      6.67547127     10.28952534
O       9.93665393     -0.31840009      8.82511547
H      -0.32785173      8.30611650      9.05860260
H       2.69476640      2.52100991     10.54200454
O       7.53225554      9.74121653      9.11910123
H       8.52527033     -0.20789361      9.11317539
H       9.89510646      5.14655210      9.66880078
H      -0.95867312      0.53063017      9.36526332
H       0.02022908      6.00885284      9.12480201
H       5.46759337      3.46514191      9.33389886
H       0.26969748      2.13418214      9.95872497
C       5.71628226      6.20532209      9.43878514
H       1.31503713      7.77551179      9.46016408
O       5.90359002      2.58376898      9.26253557
H       3.82847181      9.35813143      9.60036421
H       5.02733180     10.69531222      9.55428450
H       5.82448549      7.07952483      8.67350044
O       4.60280294      9.87579391      9.09599764
O       1.92812211      2.59437123      9.87673735
O      -0.62739330      1.75846142     10.29969463
H      -0.28954370      1.37188894     11.11850021
H       8.57867992      8.46570378     11.65145060
O       7.91516555      8.04179841     11.05712937
H       4.38834328      2.19919632     11.80942286
O       3.91863126      2.92987905     11.37586283
O       2.38513766      5.22063572      8.90053779
H       3.36362943      5.17608023      8.91216368
H       6.80363258      5.95631372      9.66056541
H       2.45073494      5.47577870     12.93028019
H       3.72810763      3.57912404     12.05074653
H       8.40227383      7.20507738     10.83447393
H       4.08339404      6.61259072     12.55489160
H       4.32539145     -1.42730783     12.83421228
O       3.93274562      7.53264145     12.19243592
O       3.32567227      5.09518794     13.10933850
H       2.09774870      4.36468590      9.39892830
H       8.96568913      2.38700711     10.62129714
H       3.48934816      5.25249971     14.14374210
H       8.90292656     10.13531978     13.47952232
H      11.68351658      9.52716992     12.84601757
H       7.78250649      2.47511938     11.72251324
O       1.03013566     10.09074257     12.31045544
O       9.42483373     -0.22904259     13.11837933
O       8.06945651      2.80226991     10.78847557
Cl      4.77170058      0.58626162     13.41290877
H       2.10903979     -0.35235044     11.01969536
O       8.99763169      5.35691692     10.97194756
H       8.42626672      4.47596270     10.93367458
Cl     -0.02502413      5.80258010     13.35932023
O       7.61851937      2.11094423     13.64053579
H       1.10508253     10.94403022     12.80443500
O       2.57446943     -0.94773504     10.34216588
H       9.33063210      5.32688539     11.87111373
H       7.39334107      2.70695677     14.42514309
H       6.78261794      1.53118435     13.67423205
H       9.56990880     -0.86175435     13.82640376
H       6.12077922     -3.46930328     19.19271182
O       6.46732769      7.49195330     13.76453083
H       6.69895803      7.61967204     12.79277404
H       6.13573858      0.30463870     17.30305192
H       3.08877380     -1.49355456     11.01927997
H       9.10495540      5.87904597     14.62616722
H       3.74719142      1.78519323     15.04823162
H       6.70820970      8.32871375     14.15382003
H      11.85053934      3.47578233     13.85600330
H       7.65810506      6.54429376     14.89867494
O       6.25784569     -3.50098959     20.16531529
H       6.80524170     -2.72162920     20.36608162
O       3.41704801      2.49185985     15.67732446
O       6.93832789     10.50702158     17.17819906
O       8.45842014      6.16144409     15.33064847
H       2.71795615      2.82609711     15.06628035
H      11.24326507      7.15495151     14.76461350
O       1.10439910      2.67110882     14.16477331
O       2.88271191      8.46596331     15.58243078
O      11.23797230      7.84820076     15.47114697
H       3.09947070      8.87969216     16.42054058
H       2.93806963      5.46546215     16.55058585
O       3.70850362      5.82844794     15.99788544
H       7.70195993      9.84558290     17.10074256
H      11.76434211      2.38979362     14.99896977
H       6.54095280      2.46053367     16.54584299
H       5.40860642      3.23836847     15.82047828
H       3.56058229      8.80747275     14.94341639
H       3.42117805      6.77880614     15.95406778
H      11.99416630      6.11479438     16.81007144
O       6.31522228      3.34301901     16.14082111
H      12.19777729      8.08974128     15.44198110
H       8.98535921      4.87249567     16.80009378
H      11.24707601      2.35324053     17.14092986
O      12.57952534      5.57586097     17.33080576
O      10.66029939      2.04831950     16.35578383
O       3.37820938     10.12096833     17.51706077
H      12.20199229      4.64735248     17.41269713
O       9.36694556      4.11120170     17.29259025
H       3.16674945      1.28268978     16.99762486
H      10.01159837      2.74491121     16.49776918
H       2.60808636     10.08636110     18.17660606
H       9.74711470     10.03646583     16.55284901
H       0.61891449      6.42223424     19.20313235
H       4.24486832      0.88170931     19.13399742
O       9.43346141      9.16521622     16.95832529
H       8.82411644      3.87744276     18.05248841
O      -0.05183869      6.64580592     19.89835870
O       4.46553998      1.37361633     19.95056371
H       4.39884114      2.33019591     19.77969754
H      10.14400625      8.51534042     16.52755857
O      11.86671277      2.94188448     18.61318805
H      -0.35321831      7.64144286     19.66858118
H       3.18545617      3.87281431     19.11477922
H       6.13559752      4.64875502     17.15311383
O       7.61290782      3.86657903     19.60139431
H       0.93918605      2.14258845     19.09601666
H       4.61016763      4.38349816     18.88699887
O       4.03029944      4.04849480     19.59563718
H       7.06548619      4.65729889     19.84525605
H       5.94987275      1.30485616     20.38296344
H       4.93040020      5.78374150     17.11936655
H       7.18088068      3.06615727     19.99193345
H      11.11160400      3.32140836     19.13605835
O       5.62515384      5.39095786     17.68264032
O       1.25102637      0.43393537     19.52913753
O       6.84165392      1.50713066     20.75018232
H       4.65329567      2.64662802     23.51859033
H       9.10619992      4.05963862     20.21436201
H       1.58597666      0.51468326     20.40774266
O      10.00973072      8.86479246     19.43493123
H       0.27832330      0.06749985     19.56099750
H       9.73183597      9.09194104     18.49278076
O       3.97936958      1.85774730     23.27284656
O      10.12437677      4.08876976     20.40126151
H       6.76964130      1.65379564     21.72222803
H       9.20735163     -0.79496574     20.05824131
H       7.26614172      9.53296984     20.62843198
H       4.82322057      6.36424178     21.14040365
H      10.40002064      5.02492540     20.44754957
O       7.58679969      8.56526186     20.74965383
H       3.97894703     11.55152956     22.27089810
H       3.24892581      7.25868139     22.65870594
H       7.83265734      8.41532694     21.67975411
O       4.10126959      5.99081627     21.80629726
O      11.36854821      9.14779939     24.00758545
O       2.91510919      8.12744734     23.16122744
O       7.37117034      2.25867271     23.51145284
H      10.05170338      3.38839326     21.85014812
H       3.70938051      5.21618695     21.39718510
H       2.77766967      7.73116945     24.07120888
H      11.55485652      8.17450305     23.50416019
H       6.86362896      3.07282614     23.60269254
H       8.19365693      2.59588156     23.18107804
H       5.10447715      4.71637335     22.78008238
H      12.04697318      9.71680421     23.55852513
H       2.55331665      5.10638228     24.33977111
O      11.42852934      6.75323981     22.79864143
H       0.40682997      6.61784998     21.81316270
O       2.13887264      4.81420718     23.47425914
O       5.50560201      4.01483467     23.39064714
O       9.74672429      3.25173278     22.78296610
O       1.49685731      2.21937779     24.08197168
O       8.69523149      6.01902264     23.05982285
H       8.20874492     10.24323792     24.13032989
H       4.84759045      8.67125977     24.07973860
H       2.48901469      2.00887771     23.73724284
H       8.70878433      6.38751320     23.98448299
H      10.44052748      6.63133858     22.93936400
H      10.47755789      3.06696545     23.36434721
H       5.14309624      0.39078031     23.96764570
H       9.64990104      9.48268968     23.97633731
H       5.51592148      4.54829987     24.23501835
H       1.38653120      5.46754733     23.32540355
O       8.68162269      9.39202622     24.10647580
O       5.62482500      9.24980902     24.20681312
H       1.52307893      3.27224293     23.96863919
H       8.96965628      5.07868758     23.27076903
Pt      3.08237184      9.06585065     26.57725294
Pt      5.74518074      8.90066288     26.42590150
Pt      8.47724570      8.87447461     26.31447676
Pt      0.20865108      8.95768576     26.39317174
Pt      8.75554867      4.10631045     26.55248445
Pt      4.45586984      6.49987616     26.37950444
Pt     10.08012763      6.51749862     26.49887565
Pt      7.22673326      6.43342866     26.60143892
Pt      0.34096754      4.04980236     26.54955237
Pt      1.68741907      6.65557021     26.36997059
Pt     10.02708321      1.79146540     26.45469362
Pt      7.31952123      1.78574987     26.64404283
Pt      3.02422189      4.15878938     26.54235627
Pt      5.78755097      4.11417165     26.62525230
Pt      1.65262222      1.72906912     26.39001418
Pt      4.35813748      1.73954032     26.54604578
H       7.07966100      9.01932535      9.62775154
H       6.76409552      2.61878619      9.85137885
