   244
 Tv_1:  11.152900   0.000000   0.000000 Tv_2:   0.000000   9.658700   0.000000 Tv_3:   0.000000   0.000000  26.829700
Pt      5.74184439      7.82072047      1.91620443
Pt      7.04368366      0.59337917      2.09331738
Pt      0.00503214      7.86414228      2.06085434
Pt      8.43411943      7.87473158      1.79845023
Pt      8.29498766      2.93882750      2.18129643
Pt      2.89074292      7.76104271      2.05711957
Pt      9.60998056      5.40972515      2.06471824
Pt      6.95137427      5.42818867      2.01446229
Pt      5.52389331      2.80152037      2.25422760
Pt      4.19348770      5.38163567      1.89918560
Pt      9.80428721      0.58798213      2.04955167
Pt      1.19508452      5.39853407      2.13503083
Pt      1.41039678      0.53626291      2.08767664
Pt      2.74213794      3.04180268      2.01476112
Pt      4.30794756      0.49723425      2.12447729
Pt     -0.03893188      2.90713816      2.04235030
Pt      5.25269661      6.36865154      4.29872487
Pt      7.94055269      6.37177020      4.26684477
Pt      6.71913687      8.79446010      4.23826201
Pt      6.62802554      3.95638283      4.39895523
Pt      7.99360044      1.51697411      4.41492969
Pt      5.33659569      1.61913320      4.66609001
Pt      9.44940311      4.02047088      4.40675877
Pt      9.38279102      8.85552019      4.32393527
Pt      1.03254155      8.82679252      4.48861140
Pt     10.84043168      6.52638704      4.37561716
Pt      2.60227703      1.58112525      4.31802047
Pt      2.46736127      6.50354268      4.40504108
Pt      4.00292736      8.79603114      4.43961440
Pt      3.81487069      4.09339398      4.42968311
Pt     -0.30576794      1.60183319      4.46724608
Pt      1.02675183      3.97412196      4.48148449
Pt      6.28995652      2.72469872      6.96813087
Pt      9.10912330      7.48491695      6.55449654
Pt      7.75730737      5.04038661      6.81382181
Pt      7.77884766      0.29713662      6.84115311
Pt      5.06124689      9.86461721      6.90826100
Pt      2.10871470      4.97548764      6.89600877
Pt      2.21620862      9.86850840      6.66838669
Pt      6.29345332      7.52183245      6.58179416
Pt      3.60242114      2.66380247      6.79154563
Pt      0.91222572      2.57122064      6.67421125
Pt     10.37874854      5.03246462      6.79607988
Pt      9.18953657      2.71088958      6.74638021
Pt      4.92131453      5.11444167      6.70594196
Pt     10.59368599      0.24855625      6.71897519
Pt      0.87571640      7.47907445      6.77146107
Pt      3.60625493      7.55730884      6.75491830
O       5.13605037      5.21516397      8.84903927
O       0.95924536      7.25733089      8.91234940
O      10.27034788      5.04388999      9.07472377
H       2.42220258      2.02226982     10.19038000
H       5.90484075      6.31366152     10.44040076
O      10.60548500     -0.14436419      8.78281973
H       0.51474638      8.15273509      9.05205638
H       3.84803927      2.56265246     10.68908982
O       8.10749515      9.79810414      8.97988853
H       9.08229673     -0.10417974      9.12348829
H       9.64730412      5.66941999      9.67569634
H      -0.03781093      0.58860290      9.16553812
H       0.01428883      5.30618400      9.42062257
H       5.89595031      3.88124424      9.12761568
H       0.44116127      2.85604877      9.09238233
C       6.05349338      6.21883323      9.34177523
H       1.80472965      7.19495090      9.40624994
O       6.32248370      2.99343016      9.04830844
H       4.19995570      9.18507280      9.44851631
H       4.48825735     10.73456232      9.29870911
H       5.93761744      7.25794603      8.88178543
O       4.85833237      9.83669878      9.10960670
O       3.28539107      2.40328119      9.88864670
O       0.50439468      2.25766425      9.89059375
H       0.38304419      2.81593466     10.68652962
H       6.68159016      8.93539476     11.60107957
O       6.96109857      8.46278266     10.73255205
H       5.37402538      2.40947212     12.31246214
O       4.94794272      3.19590842     11.91286107
O       2.57995366      4.79343249      9.08275987
H       3.51478915      5.21172526      9.06913610
H       7.11455077      5.95360049      9.17272052
H       2.38756345      4.68038963     13.09202306
H       4.33292853      3.65823221     12.60983756
H       7.67176641      7.91673241     11.06471483
H       4.15436179      6.07578311     12.94204468
H       4.85347853     -2.15743583     13.07604895
O       4.87472600      6.68879025     12.56145199
O       3.29648153      4.69175435     13.45498852
H       2.77282631      3.81027412      9.30809849
H       9.43950394      3.30786939      9.95309441
H       3.17480447      5.16358892     14.33380779
H       9.43283605      8.80056231     12.68670582
H      11.59715053      8.33974304     12.13142607
H       8.78751902      2.20755971     10.84971103
O       1.31442323      8.80604628     12.06451270
O       9.84584654     -1.79628588     12.67998320
O       8.57650793      2.98649913     10.29191847
Cl      6.01096837      0.33386402     13.15211496
H       2.49732788     -1.23271401     10.88496104
O       8.89361095      6.51355851     10.56385926
H       8.30481151      5.82207589     11.01154687
Cl      0.41785096      4.49864171     11.89445594
O       8.88259224      1.32678527     12.44782949
H       1.20223053      9.72468516     12.36861873
O       3.19570659     -1.55232660     10.21039990
H       9.49234195      6.71374659     11.31195590
H       8.92432528      2.14732845     13.04623350
H       7.81793757      1.10858570     12.62076300
H      10.09080714     -2.09633747     13.58041719
H       6.47248749     -3.23776306     18.12697535
O       6.96555239      4.87113846     12.03874333
H       6.28206931      4.15469866     11.87181461
H       8.05148106      1.53854706     16.27192420
H       3.78007926     -2.07260958     10.87444744
H       9.81162381      4.17641224     13.03877029
H       3.05341315      1.54311799     14.26191226
H       6.42064143      5.56441375     12.39859581
H      12.11192877      2.53968735     13.07934797
H       8.09041532      4.24767283     13.10608594
O       7.39170943     -3.20851901     18.42396128
H       7.40099457     -2.82890944     19.34088512
O       3.65094320      1.22691335     15.04389868
O       7.40304335     10.50158718     16.51443055
O       8.95501721      4.00909539     13.57535475
H       4.51200564      0.97053212     14.69130493
H      10.99359471      6.22164516     15.22378839
O       1.33536188      1.64838442     13.38553027
O       2.60676349      8.11344827     14.69363935
O      10.75991346      7.18841698     15.33728513
H       2.98186138      9.04655742     14.88278313
H       2.03556534      5.37825209     16.21376198
O       2.97054761      5.71751542     15.99716971
H       8.02856224      9.70141628     16.59405635
H      12.13249214      1.41718284     14.31601007
H       5.66510607      0.90076397     16.97013678
H       4.11614847      1.22921389     16.99067655
H       2.19440701      8.14815233     13.78944085
H       2.89645583      6.63130769     15.57575798
H      11.26663812      4.45473555     17.16363356
O       4.84480490      0.90463083     17.54469205
H      11.65804794      7.61674032     15.57540404
H       9.38810571      3.32032063     15.08230070
H      12.16476350      1.57665833     16.72791790
O      11.62432889      4.57418829     16.21641966
O      11.71663438      1.25746977     15.87113346
O       3.55092356      8.30454886     19.21759297
H      11.63468301      3.61828450     15.90555141
O       9.36713895      2.72980151     15.89767281
H       3.86144460     -0.60127562     18.68222343
H      10.83056287      1.69148590     15.99583445
H       2.69513420      8.64783985     19.50884793
H       9.53140060      7.90315773     16.78182677
H       0.12052496      7.36594685     20.65406041
H       5.60788227      2.03162711     18.66834178
O       8.93952285      8.38032833     17.44875851
H       8.91666427      3.17265317     16.69007721
O      -0.12667608      6.50969283     21.00153352
O       5.87752375      2.48256933     19.43724883
H       5.23213877      3.00919970     19.86460360
H       8.21177342      7.72887315     17.55804759
O      12.69349284      2.26361472     18.36604239
H      -1.11030432      6.62724909     20.92619547
H       3.09684412      3.86493265     19.75888204
H       4.19289576      5.61652242     17.38824545
O       8.11505267      3.88246112     18.03803620
H       1.49503688      1.61443969     19.11426166
H       4.13779203      4.95038052     19.48601151
O       3.91607946      4.21962028     20.16705491
H       7.90168868      4.84887111     18.15907820
H       7.47428251      1.80543215     19.88089470
H       4.11567673      6.78893107     18.46424995
H       7.36403791      3.33939142     18.40787473
H      12.22835920      3.05189626     18.69512123
O       4.56052190      5.93968322     18.21448552
O       1.55150563      0.05596093     20.24468838
O       8.38203876      1.54572416     20.26155892
H       5.19000951      1.13633084     20.87252237
H       9.91761296      3.86343498     19.12637948
H       1.74539913      0.48946272     21.12834613
O       9.96438247      9.08034510     19.93872127
H       0.59896626     -0.10775338     20.10025569
H       9.54790104      8.77912327     19.06816975
O       4.75169734      0.38594304     21.37964342
O      10.85739744      4.14527357     19.16505296
H       8.35381466      1.78100091     21.24621205
H       9.52385659      0.30038914     19.99195098
H       8.79062508      8.09513996     20.98824855
H       5.35046080      6.01853953     22.44355776
H      10.80445346      4.74498352     19.95330161
O       8.20977392      7.30533887     21.01775999
H       4.43480320      9.52884681     20.60550617
H       3.54933701      6.80113122     23.36382751
H       7.71350436      7.15102090     21.92337889
O       4.53031549      5.54649942     22.39705456
O      11.30472514      9.44412876     24.14242244
O       3.38221330      7.73993608     23.55169091
O       7.64944104      2.03109911     23.14465840
H      10.73337700      3.22292807     23.09493777
H       4.20557523      5.58782760     21.45179510
H       2.73883243      7.72219084     24.31136460
H      11.29797449      8.41168937     23.95951713
H       6.63768727      2.41774195     23.01897261
H       8.30250487      2.76247213     23.25151714
H       4.77732182      3.72980076     22.74931401
H      12.15625651      9.70656146     23.80059889
H       2.43620729      3.96513245     22.96541850
O      11.56094808      6.93068395     23.66877050
H       0.18010070      6.46952098     24.48913237
O       1.89175714      3.29138510     23.35713775
O       5.18111899      2.99040312     23.26915961
O       9.91129400      3.73060687     23.23057502
O       2.24534807      0.65430462     22.72478716
O       6.86429414      6.72168805     23.19756068
H       8.24475318     10.33769144     23.92951289
H       4.79139802      8.53606936     23.70186348
H       3.19424546      0.48546029     22.69704908
H       6.62518239      7.62165860     23.68436994
H      11.20184432      6.65622421     22.80287525
H       9.88324806      3.96953016     24.14132087
H       5.81532472     -0.00023935     23.36366132
H       9.60238475      9.48593240     23.93373158
H       5.10534374      3.26910246     24.22055086
H       2.12806354      3.51440660     24.30597406
O       8.68361283      9.42665003     24.09961694
O       5.65791434      8.90981596     23.99051942
H       2.30364313      1.63384613     22.96389775
H       7.48988729      6.36918823     23.79862503
Pt      2.95471807      9.21682349     26.73579861
Pt      5.82782546      9.17743128     26.44327645
Pt      8.54841518      8.94168036     26.21328560
Pt      0.20340962      9.11330605     26.49159829
Pt      8.56215345      4.19644915     26.47756829
Pt      4.30987116      6.66814971     26.37019672
Pt      9.88196207      6.57860172     26.41723537
Pt      7.09205242      6.69343002     26.38795064
Pt      0.18665336      4.34666079     26.59229367
Pt      1.68059999      6.71766837     26.56432682
Pt     10.07073110      1.91885049     26.55923760
Pt      7.16058704      1.82334201     26.52365344
Pt      3.03239169      4.32857644     26.44594331
Pt      5.79748934      4.31002880     26.53443588
Pt      1.72160567      1.92169154     26.42232759
Pt      4.44541798      1.86931648     26.66000882
H       7.48758454      9.39037624      9.71273410
H       7.29513910      2.93179426      9.48639666
