   244
 Tv_1:  11.152900   0.000000   0.000000 Tv_2:   0.000000   9.658700   0.000000 Tv_3:   0.000000   0.000000  26.829700
Pt      5.56143795      7.90626808      1.83701562
Pt      6.85654820      0.61177727      2.06819678
Pt      0.06868723      7.90143506      2.05864168
Pt      8.23525897      7.84271415      1.84259921
Pt      8.53240807      2.99649612      2.15559130
Pt      2.86742325      7.93643462      2.03562196
Pt      9.84916889      5.42366828      2.16591725
Pt      6.82142615      5.44124387      2.01334349
Pt      5.42714662      3.13398031      2.11309938
Pt      4.05737258      5.45480543      2.02671339
Pt      9.58570227      0.52090141      2.05598657
Pt      1.39311428      5.43419793      1.96649923
Pt      1.29004704      0.64176308      1.97845908
Pt      2.67397128      3.05807573      2.03049753
Pt      3.98126632      0.58049334      2.05306426
Pt      0.02379934      3.08349496      2.08344732
Pt      5.32349580      6.41308643      4.35728833
Pt      8.02344459      6.44877279      4.26562409
Pt      6.70598165      8.85188754      4.19815456
Pt      6.70688209      4.04614463      4.27500177
Pt      8.08273013      1.55772816      4.51536042
Pt      5.24262192      1.63162137      4.36744683
Pt      9.44663872      4.07652330      4.49454374
Pt      9.34777588      8.84101895      4.38808674
Pt      1.21391709      8.91267747      4.43449589
Pt     10.77846764      6.49792172      4.40081641
Pt      2.45861378      1.69476407      4.20671155
Pt      2.43982364      6.38752602      4.37975263
Pt      3.91444833      8.80496575      4.31672458
Pt      3.94341178      4.08383402      4.25388719
Pt     -0.24586732      1.58535556      4.34821844
Pt      1.05355971      4.07880803      4.47192038
Pt      6.51897906      2.71050264      6.76637301
Pt      9.34947133      7.50492209      6.68458572
Pt      7.85544306      5.07504502      6.63952109
Pt      7.87487817      0.32355616      6.81257198
Pt      5.08323840      9.81273790      6.74653682
Pt      2.43721181      5.01878790      6.75648629
Pt      2.50427089      9.95277947      6.70528880
Pt      6.53978074      7.51310500      6.65281445
Pt      3.68274303      2.67815639      6.59562132
Pt      0.89390988      2.67953119      6.79376298
Pt     10.76062329      5.03467177      6.91433326
Pt      9.32999109      2.71866630      6.81262373
Pt      5.05746052      5.07373103      6.76735094
Pt     10.73222391      0.34765994      6.64734111
Pt      0.90675306      7.45375576      6.72908697
Pt      3.71073504      7.45150736      6.60074080
O       5.16280499      5.19972439      8.76185141
O       0.57696070      7.60691191      8.97370807
O      10.85035816      4.95119841      9.32023708
H       2.11174522      1.81030059      9.89673081
H       5.95395894      6.01841294     10.49993810
O      10.46517097      0.32235525      8.81300047
H      -0.03724725      8.43256089      9.03383778
H       3.21376622      2.49049258     10.55981961
O       8.06762138      9.80792752      8.85264876
H       9.27541655      0.26880454      8.85555329
H      10.00687536      4.97319107      9.82095679
H      -0.30844873      1.15373806      9.17129998
H       0.01682850      5.88352213      9.29218139
H       5.82841059      3.39001392      9.18333951
H      -0.10879321      3.19614578     10.00908065
C       6.09009739      6.12803975      9.41204394
H       1.49346212      7.80951238      9.39397789
O       6.13666725      2.50639174      9.05639825
H       4.30748570      9.26694608      9.33943731
H       5.31596477     10.55031420      9.17904873
H       6.00701879      7.21288442      9.19051641
O       5.17889470      9.59061020      8.99084743
O       2.81260270      2.44251931      9.70465482
O      -0.34080247      2.40898916     10.57380270
H       0.00931149      2.68197396     11.45124990
H       8.92065957      8.33409396     11.17667867
O       8.38094217      7.76448248     10.53930492
H       4.24384382      1.73348713     12.85281647
O       4.13410292      2.59163044     12.37919690
O       2.49237116      5.19395217      9.00220050
H       3.49843120      5.36533496      9.02763251
H       7.11926601      5.80048441      9.06886965
H       2.13472099      4.45820304     13.78056766
H       3.72538611      3.25520318     13.01829850
H       8.30619725      6.85490249     10.80120758
H       3.64282746      6.06296361     12.70155222
H       4.35044253     -2.15896573     12.48953317
O       4.20162224      6.61732737     12.07833061
O       3.06345776      4.64064232     13.71008504
H       2.46125395      4.23287813      9.30502896
H       8.97787481      2.65123891     10.57674278
H       3.33695274      4.86024021     14.58644817
H       9.71078659      9.67611720     12.73217037
H      11.90723748      9.81201497     11.86571469
H       7.75624913      1.96542510     11.41270977
O       1.74267617      9.96535623     11.77241116
O      10.41731177     -0.62436345     12.41104885
O       8.01814255      2.56947384     10.67773084
Cl      4.14223584     -0.43040775     13.73167349
H       2.69337809     -0.87324003     10.71945406
O       8.96692812      5.11048707     11.13133482
H       8.21278575      4.52107687     11.42165305
Cl      0.07641079      4.39589459     13.17667299
O       7.90314462      0.94751365     13.00074122
H       2.17048844      9.89385466     12.62122328
O       3.11829791     -1.47493449     10.08926204
H       9.58926239      5.07238106     11.92660952
H       8.07981162      1.73748584     13.54383628
H       7.06741239      0.53627372     13.22833167
H      10.56525241     -1.16659330     13.18938158
H       4.38125869     -3.97622035     19.17717133
O       6.52062261      4.48790229     12.61458712
H       5.81743672      3.84864676     12.49288548
H       5.23569283     -1.32429005     15.34695889
H       3.29412279     -2.27539522     10.61583534
H       9.50241177      3.76001623     13.82803578
H       1.88878974      2.95611872     16.61874004
H       6.10666873      5.39802590     12.55661546
H      11.60646158      2.75238068     14.71020767
H       7.89842422      3.97718721     13.47669283
O       5.08941125     -4.47262179     19.73695162
H       5.52601944     -3.72469800     20.28191630
O       2.51764161      2.99832387     17.36676280
O       5.42481428      8.03391222     16.27038314
O       8.52089938      3.45311204     13.99743269
H       3.31853910      3.58250443     17.15404313
H      11.08920364      6.23823391     14.13048007
O       0.40602555      2.38019982     15.62135082
O       1.31300647      9.26139452     15.35356881
O      10.84188094      7.17722800     14.46851565
H       1.59030547      9.26498137     16.29750342
H       4.23656313      5.72809791     16.71184928
O       4.28955143      4.79813074     16.23339762
H       6.33206945      8.30713142     16.48975194
H      11.88390840      1.47590566     15.49163317
H       4.99212826     -0.52907076     17.21282934
H       4.90443689      1.04039702     17.56138371
H       2.18122153      9.28356585     14.92375543
H       5.26630067      4.58141302     16.10003760
H       9.78518279      6.85606158     15.71992124
O       4.73483714      0.18380967     17.95457547
H      11.52631455      7.83155709     14.81941909
H       7.98067077      3.93408647     15.45842800
H       9.72343336      1.82611467     18.29617358
O       9.06746782      6.76732514     16.48649460
O       9.53549696      1.54057697     17.36747231
O       2.18657522      9.35391333     17.91059474
H       8.42839583      6.05087285     16.20088829
O       7.46018703      4.41038818     16.18483453
H       2.98812516      0.09776556     18.22764124
H      10.21958296      1.99569746     16.88169526
H       1.54479272      9.58665673     18.60052343
H       8.23631255      9.97761539     16.98049740
H      -1.22712018      6.22142512     17.91253347
H       4.24265630     -0.05485979     19.80888664
O       7.91451671      9.01973012     16.99689717
H       7.55869315      3.86378234     17.03377929
O      -0.50582471      6.18833590     18.60756771
O       4.15738068      0.12645621     20.75201890
H       3.39558087      0.76124931     20.78712624
H       8.62128946      8.41947648     16.65424056
O      10.75181860      1.86014603     20.10689454
H      -0.49740817      7.14252535     18.98077465
H       1.40183421      1.93505127     20.01877443
H       2.80189636      7.41084466     18.15997468
O       7.38965585      3.53580147     18.92398553
H      -0.59868358      1.05808997     20.69618608
H       2.39568930      2.43599088     18.88485655
O       2.37501940      1.97558150     19.77736509
H       6.69561387      4.09149932     19.19219654
H       5.77331508      1.26742581     20.95712485
H       1.94632352      6.11092107     18.33400695
H       7.16565007      2.66348635     19.35195672
H      10.54758397      2.59463261     20.66921336
O       2.89536347      6.39703487     18.32729956
O      -0.50667251     -0.83727215     20.19215355
O       6.70413218      1.53320291     20.90284623
H       4.13500715     -1.16770144     22.13555982
H       8.86597038      4.20809038     19.78244804
H      -0.30802157     -1.35086941     21.00184344
O       7.54053031      8.89801006     20.03945018
H      -1.48103988     -0.94168889     20.15653909
H       7.51758897      9.05118479     19.06795337
O       4.10008023     -1.43650865     23.10371043
O       9.31724592      4.63911412     20.50283911
H       7.03690018      1.98889305     21.68459373
H       7.30634007      0.03549316     20.51903549
H       7.01306289      7.70648853     20.56474336
H       4.28381605      4.30683297     20.82314672
H       9.83480620      5.24825884     19.93233992
O       6.67271952      6.84105736     21.05012308
H       4.37540938      7.29124589     23.14080018
H       6.05972496      6.48655947     23.07184698
H       7.38888897      6.20056674     21.00480546
O       3.57909148      3.75291996     21.42075091
O      11.31657187      9.32997844     24.16537997
O       5.37140510      5.83393397     23.23371489
O       8.16385675      2.31913254     23.34003493
H      10.10179868      4.25990171     21.98845427
H       3.16645067      3.16997899     20.75434335
H       5.48503107      5.52211112     24.12350161
H      11.33178756      8.47429474     23.67941203
H       7.74759743      2.63932459     24.14264347
H       9.04629989      2.68919117     23.21228074
H       4.38659728      2.96579995     22.88733433
H      11.95185578     10.05223112     23.83612954
H       2.28777337      4.51794538     22.24227979
O      11.25257499      7.02940824     22.70331941
H       0.77476442      6.34535321     22.93319490
O       1.53242575      4.56786791     22.91842838
O       4.67528208      2.28309512     23.57330068
O      10.03509316      4.02921484     22.95773733
O       1.62806494      1.57142970     23.41337998
O       8.56537355      6.34605889     23.37693980
H       8.49252894     10.44924359     23.81326598
H       5.04778594      8.85648717     23.75911793
H       1.28991608      2.40571865     23.83843230
H       8.27430787      6.61346528     24.30393080
H      10.42354678      6.63277629     23.00389763
H      10.94412371      4.21416469     23.31498650
H       5.59677677      0.80329541     23.84640094
H       9.72971017      9.48680578     24.17716752
H       4.75454484      2.82705606     24.41857518
H       2.06955560      4.39810741     23.77118186
O       8.69512374      9.62445255     24.26872690
O       5.71350817      9.56033508     24.29489154
H       2.62485380      1.71521995     23.56944022
H       8.90631279      5.46261459     23.49889853
Pt      2.93108174      9.26638718     26.45936417
Pt      5.78063021      9.12003036     26.34164688
Pt      8.53463183      9.41930514     26.40959841
Pt      0.31005904      9.22344950     26.49589478
Pt      8.36830467      4.46665455     26.62440334
Pt      4.34085096      6.74762538     26.50922445
Pt      9.96576501      6.88629561     26.67976499
Pt      7.17635230      6.67072196     26.38467645
Pt      0.18552911      4.44750801     26.37631354
Pt      1.56709971      6.88809425     26.65850635
Pt      9.85197974      2.04887814     26.71008035
Pt      7.03563560      2.09054143     26.48356504
Pt      2.86810765      4.35945623     26.42250151
Pt      5.61244722      4.29696497     26.44847034
Pt      1.46771005      2.02912127     26.47617385
Pt      4.28732540      1.97029062     26.62667227
H       7.83342890      8.94310392      9.20271766
H       6.97629654      2.44619897      9.61786661
