   244
 Tv_1:  11.152900   0.000000   0.000000 Tv_2:   0.000000   9.658700   0.000000 Tv_3:   0.000000   0.000000  26.829700
Pt      5.63864583      7.82050232      1.99612697
Pt      6.91791804      0.48588747      1.96401421
Pt     -0.09500894      7.63908364      2.00501139
Pt      8.38593501      7.64677775      1.84012155
Pt      8.44705120      2.81705157      2.12696113
Pt      2.88934398      7.65023951      2.02340923
Pt      9.75388830      5.22404293      2.03391266
Pt      6.80900353      5.32391403      2.18110010
Pt      5.73176274      2.90983759      2.13955849
Pt      4.12059189      5.30129339      1.98096032
Pt      9.86871530      0.32283055      2.02943503
Pt      1.32103011      5.27466029      2.04174552
Pt      1.42800943      0.38538833      1.93805627
Pt      2.72987342      2.96510503      2.00809560
Pt      4.19102800      0.46744802      2.07805160
Pt     -0.14808533      2.72565963      2.03464581
Pt      5.26597481      6.33027582      4.30713232
Pt      8.02218081      6.37607136      4.22921467
Pt      6.51441622      8.78332988      4.33941881
Pt      6.67513914      3.91687496      4.39281182
Pt      7.98442360      1.39484816      4.45714069
Pt      5.15014289      1.50036700      4.52788650
Pt      9.40116379      3.93411019      4.49896847
Pt      9.32326420      8.80373052      4.35559597
Pt      1.00365876      8.74032761      4.26829190
Pt     10.65567352      6.33286050      4.31882408
Pt      2.48555461      1.54343986      4.27456233
Pt      2.35199874      6.31509724      4.24989906
Pt      3.84391695      8.71625278      4.32644628
Pt      3.91737815      3.93401150      4.34165115
Pt     -0.31625956      1.47594935      4.36051299
Pt      1.09109846      3.91916570      4.45803747
Pt      6.26137345      2.67159090      6.85965129
Pt      8.90101526      7.37690728      6.60100707
Pt      7.64478947      5.04271823      6.66838922
Pt      7.52836598      0.20287916      6.88046036
Pt      4.81074677      9.70539983      6.81339460
Pt      1.96765058      4.96227252      6.80286493
Pt      2.02416166      9.82375448      6.53790064
Pt      6.25476601      7.35649540      6.70441427
Pt      3.44857109      2.49202812      6.58029977
Pt      0.68292533      2.48171939      6.73396918
Pt     10.33884663      5.03831959      6.86971499
Pt      9.06418617      2.60706823      6.73353160
Pt      4.85255439      4.99287388      6.71843652
Pt     10.38254850      0.11084774      6.70639770
Pt      0.60829067      7.36065033      6.64282306
Pt      3.24364101      7.34074675      6.71470817
O       4.65203264      4.90039289      8.84464368
O       0.42860046      7.56280760      8.96310965
O      10.55817612      5.23215583      8.99134220
H       2.43742303      2.22307217      8.74520061
H       4.12960016      6.88805147      9.27238716
O      10.25144517     -0.13424353      8.95868280
H      -0.11684742      8.50923531      9.15919592
H       2.97844417      2.39533298     10.21026255
O       7.75855243      9.77552335      9.00795239
H       8.73681996      0.10627066      9.21734537
H       9.62412190      5.46438571      9.32553380
H      -0.47407364      0.66945389      9.37203122
H      -0.15002959      6.09795523      9.22684720
H       5.66296015      3.62445904      9.31393518
H       0.63378307      2.10007994     10.02929580
C       4.82079940      6.14821687      9.56758504
H       1.35115644      7.69870992      9.44724212
O       6.11672127      2.71322430      9.18442866
H       4.09973269      9.22633876      9.34851283
H       5.17070463     10.32290898      9.24800429
H       5.83019706      6.48462174      9.41133979
O       4.97411238      9.46574507      8.92712276
O       2.30730411      1.95397319      9.67612345
O      -0.31438038      2.16373803     10.37217845
H      -0.21689486      2.27649157     11.34544348
H       6.67027158      8.48347888     11.52520608
O       7.48500133      8.23507586     11.02429683
H       4.59045621      2.48390289     12.19317764
O       4.16784410      2.97475285     11.48593237
O       2.04229495      4.89614624      9.02742292
H       3.02053631      4.72005806      9.22137754
H       4.66290880      5.91263420     10.59916575
H       2.15063919      5.35335856     13.55886920
H       3.60242171      3.59809806     11.97803905
H       8.27689647      8.80131899     11.50731914
H       3.29202927      7.01310249     12.75207161
H       4.11401374     -1.21964095     12.65812203
O       3.23512269      7.98913104     12.63077519
O       3.06347576      5.25088310     13.09317902
H       1.42924249      4.27380059      9.52318426
H       9.08893236      2.86548584     10.07612798
H       3.76712586      5.26840023     13.77353226
H       8.87511552     10.28915376     12.71078943
H      10.20082769     11.89617032     13.22629811
H       8.16394761      2.72548276     11.46755934
O      -0.10316119     12.35652806     12.97080800
O       9.36734069     -0.13669264     12.32449210
O       8.25614412      3.14301901     10.58229502
Cl      5.63844245      0.24488205     13.08043603
H       2.23379025     -0.06662891     10.08492176
O       8.03951351      5.79814666      9.73409312
H       8.00586160      5.00861807     10.29576134
Cl     -1.08199676      5.48358227     12.70998704
O       8.19133439      2.34523277     13.27083523
H      -0.31523647     13.35808259     13.03450756
O       2.69544974     -0.92663806     10.05005758
H       7.86931301      6.59692666     10.32801189
H       8.12412560      3.15753119     13.75947026
H       7.36741640      1.80840814     13.54781396
H       9.85314715     -0.49135839     13.12152686
H       6.01968577     -3.81467468     19.12866054
O       5.18853888      5.39791440     14.96613752
H       5.10307707      4.46120608     15.26361832
H       6.67034313     -1.00978877     15.35483884
H       2.82260997     -1.19283665     11.05567587
H       8.56091074      5.11338141     13.82462456
H       5.09325095      1.70804703     14.53515648
H       5.27708811      5.94985413     15.77115975
H      12.58678063      2.36900097     13.74175516
H       7.07547015      5.11517121     14.39333131
O       6.48573146     -4.11956062     19.97601480
H       7.22851663     -3.42012805     20.11176132
O       4.59883460      2.27777566     15.13156898
O       6.94439512      8.82524446     16.25139259
O       7.97379455      4.74382144     14.54593871
H       3.69024331      2.16734230     14.83309852
H      10.28716177      7.28725151     14.06908114
O       1.98454328      2.26175507     14.53723973
O       1.96975109      8.21092860     15.31776795
O      10.54453968      8.14544519     14.56940906
H       2.64108892      8.27771326     16.06211797
H       2.80154318      3.70160854     16.53749379
O       2.86167093      4.40637138     17.19242036
H       7.93443169      9.18201059     16.24072658
H      12.39119383      2.04825208     15.16223071
H       5.63942717      0.34523745     17.20858370
H       4.54715844      1.17293451     16.57224417
H       2.48041294      8.09327904     14.47716535
H       2.11948024      5.02002221     17.13301414
H      11.77390670      6.66612847     16.25393675
O       4.77554454      0.72908363     17.44085103
H      11.51787104      8.06749376     14.82922515
H       8.66476282      4.02194534     16.15966916
H      11.55867276      2.05995273     17.74123666
O      11.66750984      5.87535534     16.89564444
O      11.27193347      2.09824119     16.81143153
O       3.07856028      8.41039021     17.56156290
H      10.72954968      5.62240103     16.83433112
O       9.20674837      3.89449540     16.94210875
H       3.50979855     -0.35932179     17.66577497
H      10.81461653      2.94815018     16.70608239
H       2.34423307      8.45227928     18.17626293
H       9.99747101     10.28550122     16.72306512
H       0.27726233      6.39167155     18.56164473
H       4.32233661      1.04327189     19.21229306
O       9.60172472      9.33694254     16.67727526
H       8.65903293      3.66479395     17.71386313
O       0.05941183      6.45738715     19.52779399
O       4.45054154      1.33427169     20.18123903
H       4.03135725      2.23300043     20.11716423
H       9.93146475      8.85489068     15.90715525
O      12.11255189      1.89146334     19.33230515
H      -0.94242441      6.66061762     19.64540783
H       2.14256971      3.01119167     19.89226633
H       4.61660182      7.37742405     17.67523846
O       8.12964880      3.58010396     19.44024042
H       0.91097291      0.88673915     19.33181639
H       2.95583944      3.96497512     18.94713158
O       3.00795970      3.52253430     19.83506202
H       7.46463743      4.31721129     19.69768309
H       6.16825482      1.40859257     20.40375055
H       6.06484149      7.67499978     17.02601994
H       7.73882713      2.73468046     19.85686498
H      11.24093116      2.18991890     19.81946204
O       5.51463314      7.07069197     17.58378112
O       1.33559910     -0.76639836     19.63005640
O       7.16979379      1.29944407     20.52167527
H       3.77108780      0.14463275     21.17677560
H       9.71567178      3.84268816     20.38221242
H       2.12689299     -0.85362517     20.21728985
O       8.93282060      9.21334481     19.40505438
H       0.88306027     -1.68686688     19.62245484
H       9.05073061      9.02409820     18.44430179
O       3.10438014     -0.46478544     21.53593578
O      10.59572173      3.92205380     20.86251906
H       7.40354706      1.37942486     21.55369635
H       8.17027234      0.23126015     19.56604613
H       8.52022534      8.04591980     20.12002263
H       5.46983131      5.05446247     21.12001825
H      10.94244217      4.74037731     20.38172476
O       8.51322548      7.01247848     20.41214449
H       3.58046354      8.50171499     22.02544994
H       4.16812907      6.29860135     22.68315855
H       8.53718827      6.86254840     21.37618386
O       4.73753495      4.81363954     21.75956318
O      11.16296823      9.44510660     24.18017982
O       3.88907750      7.02652316     23.27026663
O       7.33057399      1.79612324     23.10488653
H      10.00856914      3.61851075     22.70073683
H       4.03644238      4.35498749     21.20296602
H       3.60264189      6.57919448     24.09937186
H      11.35870277      8.62435667     23.55469733
H       6.42742694      2.12199339     23.26730047
H       7.93411741      2.55857895     23.32093635
H       4.76785478      3.47878962     22.77746270
H      11.77477220     10.22276368     23.84884224
H       1.36984104      4.33360279     24.54011342
O      11.66633199      7.46607189     22.77683738
H       0.80910159      7.67910139     21.84798744
O       1.74611960      4.35507801     23.57436256
O       4.76986429      2.54594812     23.24620090
O       9.24024926      3.62672428     23.43071071
O       1.44757618      1.59765777     22.95791105
O       8.86666629      6.54611527     23.10618165
H       7.99458587     10.30178742     23.81959897
H       5.30381869      8.20382825     23.90076390
H       2.11598121      1.18616453     22.38592666
H       8.56625342      7.01910624     23.92046744
H      10.94058998      6.83518138     22.67577350
H       9.64747980      3.29103288     24.26632419
H       4.89339158      0.05083180     23.83910945
H       9.43800354      9.50458015     23.89695957
H       4.27156513      2.75612463     24.08178702
H       1.29640579      4.95925651     22.98667201
O       8.45032554      9.37321625     24.15606551
O       5.63374066      9.11403136     24.16477999
H       1.69667929      2.48338622     23.23473949
H       9.04601336      5.62923645     23.50829985
Pt      3.21654029      9.08184581     26.58077705
Pt      5.91923568      9.14107456     26.37683752
Pt      8.57779791      9.06570046     26.34196437
Pt      0.20377831      9.11302931     26.38516307
Pt      8.53938656      4.24056757     26.56343960
Pt      4.28990992      6.70140180     26.48550603
Pt      9.87322848      6.53244317     26.39947927
Pt      7.06341329      6.63231670     26.54082794
Pt      0.06161236      4.26409457     26.58269476
Pt      1.47637859      6.63902411     26.48197638
Pt      9.87309679      1.78036437     26.58120041
Pt      7.07933054      1.89801463     26.54995264
Pt      2.83654465      4.27797178     26.57613670
Pt      5.73163644      4.30265926     26.47236517
Pt      1.64783373      1.83497650     26.41151016
Pt      4.30317529      1.95202686     26.64985752
H       7.33181926      9.02007422      9.44772839
H       7.01790906      2.74230341      9.67017401
