   244
 Tv_1:  11.152900   0.000000   0.000000 Tv_2:   0.000000   9.658700   0.000000 Tv_3:   0.000000   0.000000  26.829700
Pt      5.83094375      7.80905845      1.98766477
Pt      7.08328096      0.53625670      2.07339506
Pt      0.34126598      7.66474466      2.02349224
Pt      8.67614864      7.80068046      1.90168663
Pt      8.52786233      3.00849331      2.06953046
Pt      3.09183908      7.82370535      2.07029842
Pt      9.91252837      5.40507563      2.05466827
Pt      7.01307793      5.29322456      2.01576722
Pt      5.71990273      2.85855100      2.11615467
Pt      4.34206468      5.34992171      2.06743847
Pt     10.05182215      0.57746358      2.01914911
Pt      1.71186523      5.26534313      2.01128247
Pt      1.67198592      0.61469490      1.85683933
Pt      2.95368866      3.01953378      2.01775046
Pt      4.30568137      0.54777057      2.12412462
Pt      0.08688210      2.97554231      2.09932386
Pt      5.37716006      6.40972249      4.34291716
Pt      8.19017146      6.38881670      4.21042698
Pt      6.95439736      8.81980013      4.40402304
Pt      6.76995669      4.07821563      4.41232443
Pt      8.08271287      1.58446704      4.33441412
Pt      5.37841931      1.55838136      4.44868138
Pt      9.55982904      4.04362713      4.30092287
Pt      9.66855567      8.87484514      4.22307676
Pt      1.25739446      8.81915443      4.22550522
Pt     10.98985290      6.51898138      4.41535974
Pt      2.50364045      1.58133190      4.23049980
Pt      2.63978089      6.44593810      4.38154328
Pt      4.08829746      8.88034029      4.47610779
Pt      3.87153726      3.94863357      4.34313571
Pt     -0.11377650      1.55918740      4.36682887
Pt      1.19469949      4.06567378      4.42225359
Pt      6.30625752      2.87702959      6.76809302
Pt      8.97113340      7.60162292      6.53785731
Pt      7.67391223      5.09631935      6.83317659
Pt      7.51160584      0.27101143      6.77186797
Pt      4.78655427      9.96101414      6.88078745
Pt      2.06348906      5.09831243      6.78599230
Pt      2.10539696      9.90865311      6.55782382
Pt      6.31576025      7.45383772      6.90411241
Pt      3.62136450      2.67820816      6.69807992
Pt      0.64840781      2.72512686      6.63207464
Pt     10.42604944      5.08611233      6.75545046
Pt      8.92765368      2.73161544      6.66121177
Pt      4.86512367      5.02850149      6.75777684
Pt     10.48904684      0.37289766      6.78518952
Pt      0.73813340      7.59074814      6.71491763
Pt      3.60626966      7.43207366      6.66679608
O       4.80772750      5.32413573      9.24192877
O       0.77255478      7.81907190      8.86358267
O      10.49710814      5.18325825      9.05361508
H       2.53652076      2.24384562      9.28719666
H       4.82910823      7.30165136      9.96977068
O      10.42146910      0.09737260      8.80763333
H       0.09676561      8.65405575      9.03688303
H       2.51670702      2.95756905     10.68793592
O       7.81173537     10.00480618      9.03798977
H       8.77536599      0.15047813      9.15774258
H       9.77217799      5.73998611      9.46530072
H      -0.57558044      1.03543744      9.27660863
H       0.18619465      5.59982294      9.39698010
H       5.64206290      3.69879622      9.42605495
H       0.08678601      2.51300209     10.28692960
C       5.34219602      6.33667218      9.76077828
H       1.60986582      8.26592490      9.17285055
O       6.02232771      2.79177120      9.60435185
H       3.93154325     10.03197376      9.39852398
H       5.13794831     11.09708594      9.44485873
H       6.00720969      7.12221791      8.48194687
O       4.80977762     10.25371600      9.01435974
O       1.91906379      2.74661177      9.91340388
O      -0.79337281      2.15424086     10.49017097
H      -0.59094080      1.72899697     11.37392940
H       7.72072830      9.16255541     11.85662370
O       7.14962451      8.60789473     11.13867478
H       3.91348267      2.76172597     12.52360378
O       3.25327629      3.34442546     12.05962846
O       2.22657141      5.03749278      8.84933332
H       3.20626819      5.14822885      9.00422212
H       6.20043718      6.13401627     10.48463563
H       1.40272759      5.57981632     13.24408047
H       2.94812497      3.95209591     12.79095882
H       7.70130638      7.82781649     10.91837788
H       2.32616242      7.55982002     12.24105064
H       3.91377977     -1.98191867     12.33162370
O       3.16318858      7.61669435     11.68841792
O       2.04944393      5.12346736     13.81807837
H       2.01793387      4.17908541      9.21933948
H       9.05393792      3.30603725     10.58408378
H       2.15481491      5.47462295     14.74944351
H       7.63017293     10.20286543     13.35389382
H      11.10572579     10.05646352     12.91793635
H       7.82924898      3.84598290     11.49786325
O      -0.53018057     10.90238021     13.01466003
O       8.31109566     -0.11909096     13.14843936
O       8.20144991      3.80728972     10.53649568
Cl      5.46559607      1.22253688     13.94758869
H       2.10780799      0.52586473     10.33897645
O       8.86467342      6.58305115     10.81117570
H       8.62374182      5.60474936     11.08231599
Cl      0.10766370      7.71264841     12.44178419
O       7.15292181      4.13330678     12.94211136
H      -0.07375381     11.41291063     13.76884465
O       2.62272594     -0.21642483     10.02261694
H       9.58989411      7.00435210     11.36115316
H       7.39135077      4.97885769     13.41278853
H       6.47690970      3.60118422     13.46833450
H       9.14332584      0.47791361     13.18577199
H       5.88231192     -4.75411361     18.35529426
O       5.50475893      7.81118431     13.14572014
H       6.09838973      7.92034243     12.32265217
H       6.62192848      1.75182429     15.85125209
H       2.72759814     -0.86510346     10.80787255
H       8.53805167      7.15696488     13.76985247
H       4.04254205      1.42709795     15.14517010
H       5.45327728      8.73541910     13.39339670
H      12.40743527      3.57642005     14.74366624
H       7.04208505      7.16557136     14.01572184
O       6.75742994     -5.04364783     18.62288276
H       7.09382598     -4.46960234     19.32979762
O       3.19625013      1.23855074     15.78547272
O       7.12401895     11.41825687     16.67194711
O       7.86172901      6.66070940     14.16951661
H       2.59538868      1.97914666     15.45319487
H      11.19359234      7.84605694     14.37453503
O       0.98166316      2.66210346     14.82361419
O       2.41533703      8.36626910     16.87341731
O      11.05437995      8.11299548     15.33673377
H       2.63558382      8.28499042     17.77104657
H       1.40071031      5.77385458     16.70837523
O       2.33001701      5.90425477     16.36272684
H       7.75181124     10.63368401     16.56358085
H      11.68172463      2.55520315     15.68683699
H       5.42788837      2.09545119     17.87993783
H       4.08926265      1.95252536     17.14629191
H       2.88495841      9.17821170     16.48572008
H       2.54448713      6.87320150     16.36454106
H      10.63396234      6.65446762     16.31583552
O       4.51796196      2.33454591     17.93625046
H      11.88570643      8.34877754     15.78006011
H       8.30016082      3.10823567     16.74878513
H      11.14684870      2.25326152     17.90058839
O      10.73839026      5.90003173     16.96862318
O      10.78605506      2.23628267     16.95781052
O       2.71819637      7.87193642     19.63659284
H      10.01773149      5.23907687     16.80999252
O       8.55403147      4.05493670     16.68526339
H       2.59845681     -2.79391902     19.86098449
H      10.14886821      2.94622179     16.83688231
H       1.85915764      8.29808324     20.03671993
H       9.45417347      8.59141068     16.12245633
H      -0.95029852      6.19558768     18.59158907
H       3.69839641     -0.59835743     20.16713639
O       8.78931917      8.83504832     16.81804993
H       7.93429737      4.47140687     17.32970503
O      -1.22525963      6.20085883     19.54833187
O       4.27990392      0.10506339     20.37562046
H       4.04974636      0.73560635     19.66049285
H       8.08296010      8.18026543     16.72811995
O      12.03048040      2.54506738     19.49764470
H      -1.67765247      7.03952560     19.66287827
H       2.08291457      4.49664871     20.15396007
H       4.27894661      3.86117175     17.93062259
O       7.28351713      2.52766511     20.46027859
H       0.98066337      1.58746048     19.73730538
H       3.32638757      5.05784973     19.43484729
O       2.76256465      5.16708948     20.25627972
H       6.75744003      3.15760010     19.90831396
H       5.86182345     -0.39276325     21.00837159
H       3.66469700      5.16987357     17.36190107
H       6.96072238      2.65489631     21.35604328
H      11.33872214      2.70364635     20.21597155
O       4.24372743      4.89054240     18.12279454
O       0.61649287     -0.01243445     20.52528385
O       6.51811186     -0.82512199     21.60741153
H       3.58019104      0.53937699     21.96382608
H       9.01826301      3.21772013     20.39881028
H       0.73289941     -0.14338251     21.44367521
O       9.01579582      8.92446816     19.79401369
H      -0.32113719     -0.26108781     20.28124689
H       9.04009294      9.17718302     18.86693656
O       2.84868319      0.46353874     22.63817569
O       9.92808418      3.55204713     20.60440837
H       6.14796857     -0.60140995     22.48907638
H       8.13071853     -0.62385402     20.20518079
H       6.70934594      6.83257924     21.47861066
H       5.22486116      5.52373151     22.10597129
H       9.91651799      4.51848305     20.29131787
O       6.94480591      5.85050628     21.42355194
H       2.94022529      9.18279670     22.78423741
H       3.75545441      6.67473551     23.29957183
H       7.65422639      5.78613993     22.10903517
O       4.43304042      5.27715459     22.56231334
O      11.01901139      9.04150333     23.11200560
O       3.54309676      7.58806408     23.56918336
O       7.64898268      1.86926497     23.30465248
H      10.38955992      3.04283047     22.38872098
H       3.74790300      5.23692587     21.90250633
H       2.82807928      7.48444271     24.27101862
H      11.17861969      7.98610225     22.79399820
H       6.88635756      2.30427670     23.67826928
H       8.47396392      2.35175293     23.52729038
H       4.98258467      3.84320826     23.14888378
H      11.52995958      9.19187445     23.94901728
H       1.19754491      4.83693211     24.29591712
O      11.31027165      6.45476604     21.85823264
H       0.04917244      6.39480995     20.88395086
O       1.84301616      4.73320968     23.45793070
O       5.31560712      2.99867351     23.58986237
O      10.15285326      2.87852456     23.32844684
O       1.58366527      2.16339907     24.05478276
O       9.15296328      5.44902354     23.17937282
H       8.07052879     10.09008748     23.99645610
H       4.68389871      8.65361018     23.97377133
H       2.23095175      1.65675369     23.44917271
H       8.88862753      5.75114109     24.08812463
H      10.49178851      6.10813714     22.22191810
H      10.88973767      2.27146651     23.66191789
H       4.86910406      0.58902488     23.98267465
H       9.45409230      9.23395248     23.70450794
H       4.97538309      3.08032432     24.50923661
H       1.24163782      5.11688746     22.76251650
O       8.59170920      9.24149679     24.19432695
O       5.36906743      9.41559129     24.16823712
H       1.71818563      3.14612803     23.87943962
H       9.32446172      4.47082063     23.28830574
Pt      3.17285493      9.34998070     26.49451361
Pt      5.91701997      9.27481213     26.39981639
Pt      8.93329049      9.21309615     26.43741252
Pt      0.41289036      9.30912938     26.46966273
Pt      8.73474936      4.31818880     26.45537740
Pt      4.66434604      6.89525200     26.45649610
Pt     10.10386841      6.76000586     26.48826153
Pt      7.34265692      6.81120364     26.52997401
Pt      0.36077521      4.39126134     26.46585937
Pt      1.90090956      6.95240584     26.59020471
Pt     10.18183670      1.92608936     26.55711705
Pt      7.40483667      1.91915341     26.65726156
Pt      3.18011277      4.42424233     26.46120870
Pt      6.00874752      4.40405094     26.51288619
Pt      1.81062709      2.01827502     26.23437994
Pt      4.69492040      2.03258393     26.47940760
H       7.25814343      9.37935785      9.59534245
H       6.97460243      2.93197710      9.91761267
