   244
 Tv_1:  11.152900   0.000000   0.000000 Tv_2:   0.000000   9.658700   0.000000 Tv_3:   0.000000   0.000000  26.829700
Pt      5.47378475      7.97802578      2.02975955
Pt      6.83419139      0.79971820      2.13505568
Pt      0.00624295      7.99074516      2.12979182
Pt      8.20184811      7.97785942      2.09163974
Pt      8.27940328      3.17256358      2.08099666
Pt      2.87213327      8.01507012      2.16475032
Pt      9.73884489      5.60694862      2.22559536
Pt      7.01799102      5.61828220      2.09420418
Pt      5.54659235      3.15143941      2.01162019
Pt      4.29040234      5.54006077      2.07711029
Pt      9.57783945      0.62415835      2.21410342
Pt      1.33931326      5.63775592      2.11871191
Pt      1.17815148      0.79260687      2.02973336
Pt      2.79253040      3.15124174      2.11000860
Pt      4.09736409      0.73891455      2.23081058
Pt     -0.04297718      3.19014479      2.17244755
Pt      5.38229098      6.54153338      4.32828617
Pt      8.18926710      6.53075193      4.45403141
Pt      6.61977975      9.00467562      4.48921341
Pt      6.81488226      4.17868077      4.33666914
Pt      8.14139751      1.74479534      4.43450293
Pt      5.33066193      1.73065046      4.47064322
Pt      9.59729883      4.23270044      4.58127133
Pt      9.41028071      8.99382296      4.52813350
Pt      1.08961099      8.92114839      4.45712507
Pt     11.04148836      6.57906174      4.58377267
Pt      2.36357637      1.60350442      4.37681178
Pt      2.56910379      6.53955630      4.44210257
Pt      4.00136884      9.00220451      4.53451329
Pt      4.03423633      4.11894518      4.32769981
Pt     -0.36412675      1.71230542      4.40827045
Pt      1.21754074      4.14216378      4.39041935
Pt      6.39341481      2.65923247      6.72810133
Pt      9.23482402      7.41694052      6.87642255
Pt      7.89262810      5.02342092      6.87169626
Pt      7.73657226      0.11709377      6.77586933
Pt      5.01022054      9.92220639      6.94453888
Pt      2.28385271      5.14069541      6.87553756
Pt      2.16598122      9.95230980      6.78956532
Pt      6.50683084      7.36725979      6.82967933
Pt      3.59343357      2.70659858      6.57937410
Pt      0.85517269      2.69927177      6.76836252
Pt     10.56017813      5.00838490      6.91431343
Pt      9.05397496      2.56560645      6.81752857
Pt      5.12876141      5.13217555      6.71182477
Pt     10.44942797      0.26318143      6.80660969
Pt      0.83528479      7.56536929      6.91978907
Pt      3.71871891      7.46743622      6.66579165
O       5.35374444      5.62312215      8.97980145
O       0.81692637      7.91504981      9.20638781
O      10.97702071      5.36394565      9.10503998
H       2.74006783      1.94142135      9.88805320
H       5.81353862      7.59874474      9.32475107
O      10.34185777      0.43378895      8.95722910
H       0.21058674      8.74676415      9.26788246
H       3.34221074      3.01759497     10.75308700
O       7.95016373     10.19949523      8.92219954
H       9.06324249      0.57477842      9.09167340
H      10.26623767      5.67299290      9.81669703
H      -0.48875839      1.26865373      9.35848015
H       0.59860137      6.01600648      9.04292974
H       6.30472829      3.99342492      9.11833745
H      -0.04205414      3.82823502      9.65171577
C       6.15620519      6.67954977      8.85522627
H       1.67393833      8.32837872      9.43323605
O       6.50370457      3.05374808      8.99600247
H       4.30291547      9.68747626      9.70434270
H       4.76590102     11.04937351      9.27612651
H       2.31718895     11.30385265      7.71709417
O       5.03710263     10.12477744      9.06855891
O       3.33273248      2.72027091      9.80400185
O       0.07198193      2.86677027      9.81215962
H       0.86710405      2.90058725     10.33392226
H       8.98950522      8.55780763     11.35874060
O       8.33283927      8.21382960     10.77861621
H       4.05494818      2.42017428     13.01564636
O       3.26851279      2.89566295     12.60942490
O       2.76796414      5.28841271      9.15309706
H       3.67822287      5.68447090      9.19243133
H       7.24883799      6.51881716      9.04915212
H       1.91702048      5.78952762     13.16451175
H       3.26994001      3.85135501     12.87231284
H       8.71143132      7.30442196     10.64049071
H       3.98589614      6.88641658     12.58630198
H       4.63912592     -1.54801147     12.79444166
O       4.63144523      7.41232149     12.08139683
O       2.83174587      5.69479238     13.52273338
H       2.83484233      4.32954406      9.38756497
H       9.56802446      2.97876576     10.54842967
H       2.69413944      5.78019076     14.52499999
H       9.26035691     10.13697645     12.93287712
H      11.91857659     10.21319843     12.47849535
H       8.34169884      2.43070717     11.33249139
O       1.48790122     10.57384494     11.89655375
O      10.08867549     -0.13729833     12.71488393
O       8.57921877      3.11628251     10.68618827
Cl      5.06973239      0.63850719     13.40827246
H       2.53021478     -0.04973995     11.21334644
O       9.28877279      5.67198070     10.83838201
H       8.73937446      4.81218425     10.79894690
Cl     -0.22639030      5.65843823     13.25321649
O       7.98231858      1.56116650     12.77600862
H       2.02142108     11.23343556     12.39837847
O       3.11781963     -0.65923483     10.57800770
H       9.75811613      5.63575995     11.76826318
H       7.77829503      2.33970755     13.46006762
H       7.18130029      1.01508241     12.85717080
H      10.30064344     -0.51122874     13.62717335
H       4.85992393     -4.56539641     19.51765661
O       7.16895765      6.36964738     12.97025559
H       7.92828008      6.74111303     12.46702564
H       6.11430360      0.87457772     15.29144314
H       3.67062068     -1.26967478     11.24018918
H       7.48635839      4.68269701     13.74063809
H       3.53191321      0.63175111     14.99141866
H       6.31164599      6.70730901     12.58317715
H      12.00272031      3.17068451     14.28990637
H       8.97826864      4.36352458     13.99555922
O       5.26929716     -4.79249213     20.44503475
H       5.32451608     -3.97028651     20.91184902
O       2.87750374      0.81179683     15.74086108
O       6.58968224     10.85255410     16.12937884
O       8.05502135      4.05363468     14.24351550
H       2.20558018      1.49323555     15.42406282
H      10.64057362      7.31078556     14.42521666
O       0.99132637      2.54381810     15.05244892
O       1.59163884      8.29150450     16.62414524
O      10.51302100      8.08958647     15.00687575
H       1.51529448      8.33947868     17.64110352
H       1.36665653      5.30090273     16.37195111
O       2.29459074      5.59670071     16.19306044
H       7.29023552     10.16806379     16.26096786
H      11.40033055      2.63663221     15.71595620
H       5.43873370      1.53559027     17.27396430
H       3.86344519      1.43835550     16.93705882
H       2.13988752      9.05074663     16.35952236
H       2.27083716      6.60943833     16.28756645
H      10.50478894      6.57778340     16.55443829
O       4.52433656      1.83600411     17.53905751
H      11.36816327      8.28930074     15.49419092
H       8.02464536      3.93981139     15.95283630
H      10.78693338      2.31397815     17.93446719
O      10.55565333      5.70425420     16.94889848
O      10.41027641      2.15282262     17.04258552
O       1.89564776      8.20631498     19.32856331
H       9.71007747      5.23102130     16.80280901
O       8.45776218      4.06257557     16.81323911
H       1.68617116     -2.40533857     19.58539787
H       9.61435566      2.73914530     16.99681311
H       1.26786772      8.83110771     19.75699051
H       9.52517976     10.35532350     16.78899488
H      -0.82896776      6.08348511     18.77179822
H       3.39526923     -0.07481747     19.68804199
O       9.05403787      9.44873237     16.83690260
H       7.76862408      3.85956579     17.48408491
O      -1.13684109      6.25081957     19.70641764
O       3.93426465      0.73022499     19.93367021
H       4.11394710      1.08046260     18.95012000
H       9.53141982      8.88083994     16.16380768
O      11.53598713      3.18194799     19.69071297
H      -1.72693613      7.06783235     19.69883953
H       1.43042929      4.80840608     19.96705812
H       4.02046795      3.72688141     17.93601456
O       6.85368642      2.86396023     19.17666763
H       0.53480101      2.26476734     20.04894605
H       2.42343887      5.47331432     19.05687642
O       1.99006014      5.61170652     19.95063545
H       6.31977720      3.52568580     19.65058452
H       5.27398497      0.14797421     20.36952862
H       3.62823157      5.05652710     17.17172591
H       6.40379293      2.02673395     19.38018407
H      10.59412329      3.38310258     20.02438742
O       4.05679396      4.70664168     18.00996977
O       0.30460096      0.19131219     20.80477446
O       6.29693122     -0.09409608     20.64305570
H       2.80344594      1.19190683     22.04142500
H       8.26835819      3.45772616     20.27955265
H       0.63081298      0.18112020     21.76125456
O       8.70785776      8.76019617     19.54743282
H      -0.63608698      0.03312460     20.72538913
H       8.86141454      9.08110315     18.60647744
O       2.35115033      0.73626234     22.78064367
O       9.11967955      3.86063864     20.63327574
H       6.65721328      0.44634966     21.36494466
H       7.75281950     -0.53490489     19.71121538
H       6.23387040      8.03920302     21.31681516
H       4.04620796      4.13706368     21.47744647
H       9.14586737      4.79196952     20.24988313
O       5.98286286      7.14870476     21.67869745
H       2.77951889      9.44851460     22.85446581
H       4.52882197      7.68413976     22.62970274
H       6.76145996      6.97189694     22.28302160
O       3.41115170      3.57161811     22.04460210
O      10.83632523      8.89570178     23.54553375
O       3.86081837      8.11529373     23.16562054
O       7.61769720      1.72190396     22.68648525
H       9.61738643      3.84379249     22.27644613
H       2.97417374      4.09048053     22.74346769
H       3.67938327      7.45692475     23.82498662
H      10.96387348      8.09250781     22.95961862
H       6.67811487      2.10232576     22.79974950
H       8.11176206      2.57337293     22.99010817
H       4.47600797      2.49410935     22.81185700
H      11.11158529      8.48875843     24.44610373
H       1.25692467      5.37494046     24.25139066
O      10.87852077      6.62711020     22.17460213
H      -0.34341322      6.63293882     21.17033234
O       1.28855476      4.87359859     23.42818664
O       5.03438062      2.39655349     23.68118887
O       9.32328454      3.78715038     23.28563610
O       1.02628536      2.28323565     24.42077980
O       8.43082832      6.31815538     23.17559353
H       8.09380864     10.09597169     23.93619488
H       4.70496077      9.17256078     24.21966483
H       1.43989260      1.54404080     23.87770579
H       8.24856335      6.95513500     23.92714951
H       9.95688354      6.48908253     22.40043474
H      10.08758716      3.77593818     23.93886101
H       5.36329096      0.94631939     24.25190018
H       9.48026638      9.24628285     23.99136771
H       5.14327349      3.30369562     24.07809926
H       0.74551303      5.47565102     22.78435109
O       8.47045070      9.32890599     24.39829211
O       5.53931211      9.66131616     24.46922305
H       0.99824361      3.08025045     23.85842785
H       8.60233809      5.38965432     23.53287507
Pt      2.84984128      9.37413920     26.65402049
Pt      5.65351448      9.44370768     26.63701528
Pt      8.42422692      9.36708561     26.50122130
Pt      0.07324063      9.38701563     26.62612860
Pt      8.38658160      4.62727743     26.35865145
Pt      4.36570361      6.93630461     26.46831154
Pt      9.80309400      6.96743199     26.64367457
Pt      7.07582388      6.90752368     26.43376763
Pt     -0.01668908      4.69607058     26.58864769
Pt      1.42606724      7.19117405     26.47624438
Pt      9.76834160      2.18627311     26.76915696
Pt      6.91117332      2.18778393     26.56380222
Pt      2.84244489      4.70392558     26.59230313
Pt      5.57020974      4.60794216     26.53320789
Pt      1.52794459      2.25421065     26.56071323
Pt      4.23113275      2.14672460     26.45574505
H       7.75978930      9.42663894      9.50242059
H       7.32022180      2.80961145      9.53519340
