   244
 Tv_1:  11.152900   0.000000   0.000000 Tv_2:   0.000000   9.658700   0.000000 Tv_3:   0.000000   0.000000  26.829700
Pt      5.87036748      7.99056253      2.11055190
Pt      7.15225946      0.77492729      1.88551594
Pt      0.18371738      7.98634780      2.08992572
Pt      8.68847749      8.11316685      2.01631267
Pt      8.57108282      3.42539523      2.05651061
Pt      2.94501624      7.94828793      2.01719278
Pt      9.93376518      5.72575402      2.11458971
Pt      7.11457872      5.65808084      2.04923335
Pt      5.67402958      3.18190021      2.02870354
Pt      4.40228263      5.52579568      2.08404061
Pt      9.82287380      0.83677008      1.93251766
Pt      1.64662519      5.65920016      2.05681126
Pt      1.36261680      0.76708269      2.09076366
Pt      2.84341757      3.08005556      1.94623439
Pt      4.49958799      0.80822304      1.97539334
Pt      0.17069481      3.24675350      1.93822326
Pt      5.41561357      6.69227627      4.41255134
Pt      8.22260733      6.70020283      4.33889371
Pt      6.80812838      9.11692132      4.39783361
Pt      6.75923086      4.28181719      4.30914268
Pt      8.18942688      1.85819777      4.31693074
Pt      5.42968628      1.71816816      4.41329630
Pt      9.63178224      4.24008052      4.46814769
Pt      9.58925469      9.17708484      4.36502239
Pt      1.18180158      9.03436398      4.43388163
Pt     10.98375656      6.60283931      4.44105836
Pt      2.49811621      1.75623425      4.31505650
Pt      2.66192272      6.66536165      4.55571838
Pt      3.89775720      9.07345857      4.41832429
Pt      4.09511556      4.12871458      4.28086245
Pt     -0.24872636      1.85794921      4.42494710
Pt      1.43467230      4.24433141      4.29250914
Pt      6.22431191      2.97444783      6.71829720
Pt      9.15220259      7.79193308      6.71833387
Pt      7.65987115      5.44826789      6.68623391
Pt      7.73942604      0.48713627      6.92538031
Pt      4.91918796     10.27387549      6.82549983
Pt      1.87249319      5.24195308      6.73843345
Pt      2.16804895     10.15631184      6.71575649
Pt      6.25905498      7.74628283      6.92437016
Pt      3.52812025      3.01013285      6.74095423
Pt      0.83010391      2.80229400      6.73208362
Pt     10.34329543      5.37884691      6.82226786
Pt      8.96978832      2.93249531      6.75941270
Pt      4.86387791      5.38043720      6.69250294
Pt     10.61456831      0.46672901      6.78563666
Pt      0.82585800      7.75835758      6.87121776
Pt      3.62266973      7.83145403      6.88484646
O       4.78751341      5.92213428      9.89569821
O       0.71616707      7.70333159      9.09327014
O      10.46040388      5.40729768      9.08449916
H       2.89627095      2.44544078     10.23446369
H       5.28054962      7.90720464     10.22581927
O      10.52344226      0.25081208      8.99334314
H       0.26472185      8.61713374      9.15188098
H       2.82809423      3.30193293     11.67677964
O       7.94837396     10.04381159      8.96149822
H       9.44010676      0.31896221      9.16635659
H       9.65313167      5.64250401      9.66457278
H      -0.20105075      1.09733793      9.35865712
H       0.01728904      6.06970783      9.41205439
H       5.85893927      4.18083409      9.22396750
H      -0.21765667      3.67200504      9.53133599
C       5.62450834      6.86616923     10.03437021
H       1.63554426      7.89322312      9.72485681
O       6.11882688      3.21953998      9.13932362
H       3.49727487      9.98683345      9.79689246
H       4.79125370     10.82711106      9.96744896
H       6.45368570      7.92452356      8.40983996
O       3.93152495     10.87649089      9.51897488
O       2.49016641      3.22213214     10.70846186
O       0.00255292      2.82551045      9.95868764
H       0.95096159      2.91226346     10.45482326
H       5.60511550     10.03132200     11.88440606
O       6.12144081     10.17790646     11.06156939
H       3.84511227      2.02950228     13.03123231
O       3.87909297      3.07397411     13.11577410
O       2.22406591      5.37193537      9.01845363
H       3.06579015      5.85417588      8.81527477
H       6.69955734      6.55053217     10.07903442
H       0.74491757      4.48511451     13.37317591
H       2.99979069      3.31078446     13.51976788
H       6.87492844     10.67254585     11.41728845
H       2.56381549      6.46938137     13.16280974
H       3.56604293     -1.94769717     12.88496431
O       3.39799429      6.72132123     12.74674486
O       1.47900497      4.01125218     13.87064969
H       2.31632781      4.43902341      9.39402385
H       9.49828860      2.93224371     10.59489719
H       1.47473309      4.40655710     14.78487932
H       7.26165752      7.77738421     13.29328992
H      11.46819470      8.32982743     12.53911058
H       8.17400582      2.80627762     11.47364444
O       1.06357438      9.01741850     12.43981232
O       8.00529673     -1.18669588     13.39784543
O       8.55585082      3.29625398     10.73550790
Cl      4.34616328     -0.00107386     13.37243878
H       1.93118473     -1.02290833     11.35018632
O       8.49644455      5.85618860     11.00103425
H       8.52318211      4.84804462     10.92885958
Cl     -0.47940372      6.34740234     12.94594428
O       7.76704171      1.76737111     12.90074421
H       0.85436654      9.81988727     12.97252397
O       2.59075380     -1.34890755     10.54684001
H       9.02427907      6.13031411     11.79015871
H       7.78781008      0.83526369     13.27640494
H       7.19216353      2.18884952     13.53800720
H       8.88931706     -1.59921832     13.21313550
H       4.85810893     -4.75561568     20.56447906
O       6.35594132      6.40873461     12.76578941
H       6.69953166      6.11072061     11.89367968
H       5.48969894      0.46835257     15.24141690
H       2.98726885     -2.16836472     10.89552152
H       6.40523933      4.69483140     13.56960543
H       2.94072866     -0.40872042     14.86033938
H       5.32646809      6.42560631     12.90419941
H      11.79014156      2.05844501     14.18631489
H       5.33667344      3.70005888     13.90849852
O       5.81812138     -4.81098877     20.58763145
H       6.14867741     -4.00122037     21.08103970
O       2.49812139     -0.19425805     15.70118308
O       5.82871152     10.65391052     16.03884843
O       6.25605203      3.92490725     14.15893112
H       1.68244250      0.22967755     15.50747591
H      10.79081521      7.10204144     15.05716807
O       0.49238179      1.07133592     14.19472374
O       2.03416884      7.37931915     17.08325687
O      10.63959240      7.39016578     15.96953382
H       2.26198226      7.50278758     18.00556014
H       0.63885907      4.66825865     16.60862051
O       1.62391066      4.67274427     16.42512759
H       6.57999776     10.03807992     16.34324967
H      10.93487938      0.97996520     14.86845377
H       4.81036261      1.11466277     17.19982371
H       3.56870989      0.24428899     17.50506209
H       2.29785269      8.17249899     16.55948740
H       1.76660081      5.66035094     16.45905953
H      10.12740125      6.13589709     16.67674529
O       4.10086369      0.90995464     17.90495884
H      11.55651939      7.60416171     16.26806671
H       7.45366144      3.86397486     15.59727710
H      10.34571133      1.73064962     17.38283261
O      10.11015185      5.19318696     17.09959608
O       9.83264985      1.67335240     16.55399511
O       2.59134727      7.48392082     19.93572239
H       9.29187050      4.76250352     16.73838076
O       8.07395389      3.73668161     16.37387103
H       2.52027422     -3.19408201     19.97469694
H       9.18605424      2.44984586     16.53124411
H       1.75185441      7.80051019     20.18707375
H       9.05854975      9.66833481     16.89124948
H      -0.86909334      5.53414271     18.72469819
H       3.77048774     -0.90742854     20.20584880
O       8.57502912      8.89728899     17.19902189
H       7.56663791      3.62861154     17.24517490
O      -0.85317482      6.03706039     19.64000297
O       4.29448051     -0.11025952     20.47427939
H       4.29603975      0.39922851     19.59479013
H       8.84514392      8.12084057     16.61680962
O      11.33284272      1.94105812     18.92560947
H      -1.43976653      6.78919530     19.44845294
H       2.69162015      4.09287441     19.67217357
H       3.24820130      2.38557379     18.13977955
O       6.75827253      3.01397139     18.68502046
H       0.43201534      1.13449149     19.41816166
H       2.54304046      4.47800815     21.16051078
O       2.95266024      4.80220202     20.32199361
H       6.48230266      3.79058348     19.27366374
H       6.05939213     -0.07898791     20.91012237
H       2.29684189      3.46411863     17.46611188
H       7.41098602      2.52757297     19.21596757
H      12.22787805      2.47748900     18.83690648
O       2.48206175      2.96452687     18.30422534
O       0.59552005     -0.21921414     20.59685832
O       7.02061688     -0.08575249     21.08744644
H       3.45545050      0.85362804     21.83589081
H       9.91581561      4.03044168     20.38409122
H       0.42114811     -0.14642114     21.58729885
O       9.45228672      8.84862047     19.69770517
H      -0.23426186     -0.54579429     20.26948780
H       9.21478894      8.88513887     18.72581611
O       3.06418715      0.93838189     22.74953166
O       9.70229219      3.11874949     20.59824891
H       7.14300228      0.65961900     21.75446889
H       8.59015638     -0.61487033     20.14631042
H       7.46595293      6.94025287     22.79028775
H       5.31770842      5.91695970     23.07330681
H      10.25660907      2.70329667     19.87058756
O       6.63681445      7.22460136     22.48132455
H       3.28626693      9.73187563     23.18528412
H       2.22510437      7.79783455     22.63324179
H       6.84941574      7.99292567     21.91944364
O       4.58316114      5.57439105     23.62825713
O      10.94090933      9.06559504     23.27244371
O       3.01683276      7.79363965     23.21910191
O       7.42630362      1.76769800     23.23348814
H       9.86471656      3.19708806     22.09910397
H       4.73573975      5.91374440     24.54134654
H       2.70592692      7.38248483     24.05141240
H      11.04607720      8.12494895     22.93777451
H       6.56613538      2.10584050     23.58427402
H       8.16141188      2.48705898     23.38597609
H       4.79776177      3.67767802     24.02056795
H      11.43078776      9.11719593     24.09698796
H       2.85383175      5.11149433     23.48242544
O      11.15163031      6.60491816     22.36063793
H      -0.19307852      6.34399927     21.43046137
O       2.00354801      4.77009814     23.19366647
O       4.91801710      2.71060535     24.12433745
O       9.63848696      3.21902524     23.14741372
O       1.44665223      2.52489864     24.15815768
O       9.01506651      5.74467057     23.42362368
H       7.99045985      9.97667262     23.72569965
H       6.07584910      8.26784032     23.89525767
H       1.90323560      1.84518516     23.61489023
H       9.07115690      6.14437599     24.34016378
H      10.21114175      6.29642110     22.76879456
H      10.43934065      2.98048565     23.70418054
H       4.64488682     -0.84007728     24.28152502
H       9.47942593      9.25058098     23.75188752
H       4.32649859      2.24897219     23.51024324
H       1.34667873      5.50606513     23.01491258
O       8.49839644      9.16174499     24.09410071
O       5.54662916      9.06413789     24.14784102
H       1.68423975      3.50937209     23.81921530
H       9.29479490      4.77979036     23.47792499
Pt      3.05793594      9.50231746     26.71723005
Pt      6.07676120      9.54755397     26.36758878
Pt      8.81411747      9.35874837     26.28095392
Pt      0.33755456      9.44120912     26.49477413
Pt      8.63832116      4.70782174     26.45580450
Pt      4.55812623      6.96602719     26.53937808
Pt     10.19525607      7.03380926     26.53108020
Pt      7.29432909      6.99001011     26.61507126
Pt      0.25940841      4.75232738     26.53597439
Pt      1.77282784      7.06718489     26.45981838
Pt     10.16156743      2.25264125     26.48428429
Pt      7.29214430      2.32077084     26.63454457
Pt      3.16111218      4.62632709     26.58290040
Pt      5.96438658      4.66884153     26.55350653
Pt      1.86209258      2.33437711     26.40021615
Pt      4.59181544      2.31254518     26.45965107
H       7.10273737     10.04219030      9.46606745
H       7.07593332      3.18978359      9.35596592
