   244
 Tv_1:  11.152900   0.000000   0.000000 Tv_2:   0.000000   9.658700   0.000000 Tv_3:   0.000000   0.000000  26.829700
Pt      5.81556257      8.03506661      2.06070539
Pt      7.08540300      0.79698483      2.14219483
Pt      0.19946632      8.15106306      2.13563576
Pt      8.63499609      8.21066140      1.93049008
Pt      8.47076107      3.15834624      2.15569662
Pt      2.97291088      8.09659174      2.14733474
Pt      9.83449359      5.64398367      2.21652793
Pt      7.02364820      5.60831707      2.18931205
Pt      5.70514201      3.13781284      2.29729534
Pt      4.24721400      5.70957107      2.28435866
Pt      9.90296377      0.81427584      2.10209127
Pt      1.45805155      5.57596014      2.10420287
Pt      1.59722503      0.72555755      2.10521267
Pt      2.94956559      3.02952897      2.18762769
Pt      4.42254531      0.76314703      2.16202757
Pt      0.13357837      3.08972394      2.03431840
Pt      5.34474124      6.84409791      4.40390456
Pt      8.04286642      6.81390400      4.33422959
Pt      6.67284773      9.15033083      4.60778338
Pt      6.43802799      4.24987379      4.61134618
Pt      7.76552535      1.85489533      4.40823771
Pt      5.08765905      1.88998502      4.63468709
Pt      9.28124180      4.36094500      4.48213199
Pt      9.38638954      9.18545963      4.35378382
Pt      0.95353406      9.19469106      4.54050203
Pt     10.77188510      6.82813689      4.47809976
Pt      2.26428570      1.71375183      4.46855603
Pt      2.41923239      6.73823991      4.40094238
Pt      3.81226531      9.11870736      4.55711300
Pt      3.57039309      4.24769175      4.44976638
Pt     -0.67444827      1.94742988      4.51543760
Pt      0.88387068      4.26680266      4.38569863
Pt      6.08793100      2.91321546      6.98192516
Pt      8.83776348      7.72082889      6.75433034
Pt      7.53618604      5.26318031      6.87411681
Pt      7.38423458      0.42529188      6.91497593
Pt      4.53763216     10.15567295      6.96218995
Pt      1.90905247      5.33496230      6.86096038
Pt      1.81564133     10.08025753      6.98577359
Pt      6.12218597      7.63972749      6.95257030
Pt      3.30788181      2.93640768      6.91952006
Pt      0.59379598      2.97399367      6.78828160
Pt     10.29449450      5.30426328      6.79703559
Pt      8.89898489      2.80508070      6.69558896
Pt      4.61509314      5.47135070      6.56365956
Pt     10.32594520      0.59795487      6.86813254
Pt      0.40229670      7.76458356      6.77636766
Pt      3.25294000      7.70059079      6.92651004
O       4.69341675      4.83128652     10.11095177
O       0.20183451      7.81319898      9.08255830
O      10.15697369      5.28773747      9.13853239
H       2.14302036      2.29901006      9.35583431
H       5.20157803      6.66576111     10.55289016
O      10.03787459      0.37891286      8.91987567
H      -0.24646275      8.78710308      9.12854035
H       2.82119325      2.08837848     10.72989599
O       7.58417976     10.36012159      9.00559970
H       8.66044351      0.54030499      9.10538550
H       9.92251974      6.26070506      9.20667492
H      -0.81734328      1.22537410      9.37613104
H      -0.00596241      5.25283649      9.42637812
H       5.36669711      3.51085295      9.61970854
H       0.30144271      2.41311055     10.65082169
C       5.54280581      5.71762018     10.14056610
H       1.21249955      7.96755071      9.32594825
O       5.99636676      2.78588595      9.24442000
H       4.10494184      9.55671427      9.56690063
H       5.03755746     10.82502478      9.56250741
H       5.95241853      7.50874236      8.50059518
O       4.96423546      9.91011913      9.21049545
O       2.01319898      2.52692493     10.27394546
O      -0.65141096      2.14977274     10.72989638
H      -0.64682196      1.75286868     11.65005122
H       7.38299748      8.96890567     11.79021384
O       7.54076772      8.46644905     10.94179634
H       4.76697867      1.35109592     11.84639174
O       3.99750960      1.89676223     11.63340307
O       1.65513112      5.12477143      9.17778506
H       2.07691225      5.70502844      9.84350198
H       6.61306695      5.55878019      9.91503796
H       2.41489757      4.73800893     12.74228885
H       4.01188059      2.69213147     12.24277906
H       7.99950100      7.62278680     11.14962528
H       1.61214320      6.68793940     12.02125376
H       3.19342183     -2.96721821     12.09231938
O       2.44637939      6.32975160     11.56100168
O       2.74513630      3.88020975     13.20652779
H       1.80713579      4.25602767      9.59725745
H       8.76423697      4.07624444      9.63130863
H       3.10211371      4.42258777     13.96336649
H       9.47049548     11.37867037     13.54360440
H      12.14076664      9.03787104     12.37861491
H       9.13131247      3.08096974     10.60733128
O       1.62286107      9.69757417     11.92948324
O      10.31144263      1.29750626     13.19821875
O       8.35927363      3.66633559     10.44207394
Cl      6.19909819      0.09283111     13.30696791
H       2.37599048     -0.60565990     10.82199893
O       8.40045290      6.14169032     11.91157528
H       8.46836732      5.21071633     11.43509194
Cl     -0.19243089      7.35733639     12.76189564
O       7.90670977      2.52238589     14.19989946
H       2.19809342     10.03271453     12.65986698
O       2.60696368     -1.08418508      9.95042684
H       9.38099095      6.34973004     12.08985416
H       7.48436058      3.44387319     13.95630098
H       7.27927885      1.82605256     13.78254007
H       9.89479898      0.40237145     12.91417531
H       6.46015410     -4.01349059     17.73783423
O       6.73455149      5.09550046     13.57079926
H       7.55666460      5.54199187     13.11339530
H       7.82525607      1.80868143     15.81818178
H       2.93303070     -2.03353982     10.15876625
H       5.04928838      7.68674580     13.07133336
H       4.39261372      0.25037340     14.74193357
H       6.73838932      5.39857202     14.51031520
H      13.12277886      2.52654761     13.85482158
H       5.29920492      6.14028039     13.17781607
O       6.71022003     -3.55777352     18.65073330
H       7.13609396     -2.70774173     18.36373392
O       3.75481807      0.55922715     15.40271529
O       7.67902074     11.00751818     16.67573783
O       4.56346726      6.78926667     13.15504431
H       2.96168403      0.99008988     14.95410232
H      11.21117271      7.46798678     14.80681345
O       1.76744077      1.56112836     14.12950102
O       2.58515836      7.88190650     16.63424173
O      11.31122279      7.37383956     15.79929588
H       2.56870755      7.75374333     17.62131715
H       3.09670361      4.79656930     16.53656010
O       3.52479273      5.27253515     15.79951092
H       8.45931702     10.33834618     16.70233267
H      11.91772011      1.53078831     14.09536843
H       6.09582116      1.76980734     17.01039259
H       4.52201059      1.91695143     16.64440781
H       3.03554210      8.80006089     16.36159067
H       3.22522580      6.21957645     15.94601194
H      10.81388204      5.96028526     16.34959591
O       5.25726106      2.31823221     17.22539831
H      12.22267580      7.63703869     15.99943088
H       8.44510685      2.51151060     18.00064547
H      12.28408405      1.69223013     15.96148290
O      10.62431630      5.25868386     17.08070091
O      11.75929435      1.88093468     16.76243191
O       2.53409579     10.21484758     20.39880045
H       9.97888814      4.58504125     16.94337789
O       9.07215438      2.94442536     18.64791084
H       2.46229376     -0.34951166     19.99433705
H      12.23954659      2.62367783     17.29286598
H       1.59628749     10.54012693     20.52753249
H      10.69481124     10.24844573     17.26777144
H      -0.55836536      5.92713739     18.72347654
H       3.60779496      1.94054447     19.95952416
O      10.13831547      9.44700675     17.28565569
H       8.70264530      3.56760852     19.28757218
O      -0.11263443      6.24479011     19.55772823
O       4.09246967      2.84314847     19.76720318
H       4.40141733      2.74423270     18.82806386
H      10.52866134      8.80985865     16.62789592
O      13.05350859      3.97072530     17.95875791
H      -0.64242483      6.97056881     19.98766112
H       1.55722511      6.97179726     19.48953132
H       6.08504584      4.08231218     16.46043546
O       8.03324530      4.67137624     20.64003146
H       1.82349739      4.00987564     18.95309635
H       3.10966490      6.63865857     19.60092237
O       2.45447623      7.43160390     19.38106444
H       7.54912192      5.28906511     19.98676687
H       5.53436231      2.52727290     20.42712013
H       5.17404235      5.23266544     16.17189375
H       7.43133424      3.93255941     20.87001760
H      12.22502398      4.42996498     17.69130839
O       6.13383453      5.05486272     16.51432013
O      -0.35547393      1.97326808     20.69652442
O       6.30733243      2.45530746     21.11647814
H       3.37269409      0.41725501     21.97818009
H      11.44618806      3.52424069     20.66881166
H      -0.77264426      1.42049790     21.41489849
O       9.63563388      8.55217963     19.89444314
H      -0.96801043      1.93850385     19.95934614
H       9.83599969      8.98902965     19.04430299
O       3.53257704      0.61974935     22.93265103
O      12.05727501      4.29608143     20.67452953
H       5.81033178      2.68427749     21.93545889
H       8.64205788     -0.99353663     20.05381907
H       6.70313714     10.02891335     21.11501053
H       5.11467321      5.81323710     19.89849510
H      11.58466466      5.10956237     20.33868967
O       7.22784913      9.18574636     21.05796551
H       3.50289788      9.36227852     23.32632275
H       4.50631641      5.57390489     22.31826924
H       6.80421762      8.59959507     21.72123110
O       4.33839666      5.40146012     20.42594883
O      10.86427346      9.99358477     23.12618744
O       4.22286052      5.61706183     23.22206970
O       7.26043785      2.58881592     24.52568184
H       9.47006988      4.54267113     23.36888014
H       4.27842483      4.47685070     20.15426411
H       3.20097217      5.53439183     23.23451362
H      11.15820909      9.03519549     23.12299238
H       6.40032040      2.89335977     24.03354897
H       8.07316141      2.98619853     24.01360633
H       4.66551473      4.05800783     23.50065517
H      11.48022139     10.48978164     23.74513160
H       1.09960416      5.60211573     23.45717467
O      11.32228556      7.20282837     23.54932011
H       0.10170902      7.12393918     24.55355961
O       1.72784986      4.86513638     23.32449803
O       5.09796844      3.07818053     23.51293632
O       9.51419933      3.48137093     23.53784120
O       1.83593345      2.21051075     24.21477918
O       8.83998472      5.91313425     22.78831796
H       7.95006477     10.45773572     24.05603724
H       6.62147448      8.09641662     23.88994437
H       2.61448747      1.69304996     23.94110248
H       7.97734068      6.22972268     23.21044528
H      10.44080592      6.99511949     23.16970945
H      10.35032917      3.32095540     23.95135346
H       5.66647370     -2.79886235     23.65958954
H       9.44070660      9.87362084     23.89602533
H       4.73125316      2.62773855     24.37865371
H       1.41221051      4.62064953     22.36442745
O       8.50211068      9.64565474     24.29681095
O       6.46747823      7.31106959     23.31287513
H       1.91418999      3.15777614     23.82372028
H       8.56832233      5.54778869     21.93415884
Pt      3.09930559      9.42091097     26.55871364
Pt      5.79445591      9.40343417     26.55375256
Pt      8.65667301      9.44227498     26.40957472
Pt      0.18525074      9.41029256     26.54399183
Pt      8.88019715      4.57780394     26.60099219
Pt      4.54685355      7.01398640     26.68759134
Pt     10.08178027      6.96836329     26.65951526
Pt      7.40434882      6.90286066     26.60685025
Pt      0.44880592      4.72429958     26.49863919
Pt      1.64957762      7.12133997     26.67410813
Pt      9.96128217      2.15551383     26.51246200
Pt      7.32586994      2.24088528     26.59657355
Pt      3.11738557      4.68970307     26.66439550
Pt      5.81201896      4.59719403     26.77165361
Pt      1.77403844      2.15480874     26.54248309
Pt      4.58655439      2.23430735     26.69930287
H       7.37998335      9.55019688      9.53987825
H       6.83120204      2.93338481      9.76975564
