   244
 Tv_1:  11.152900   0.000000   0.000000 Tv_2:   0.000000   9.658700   0.000000 Tv_3:   0.000000   0.000000  26.829700
Pt      5.55261219      8.14339253      2.10382601
Pt      6.98483464      0.84854836      2.11445113
Pt     -0.02996775      8.01163897      1.94664111
Pt      8.39688731      8.13161363      1.77738677
Pt      8.25398715      3.24022108      2.07477848
Pt      2.74740490      8.06010571      2.04440207
Pt      9.82486040      5.60601548      2.05810932
Pt      6.96489714      5.75497139      2.09107475
Pt      5.53361983      3.32242978      2.11328270
Pt      4.24361017      5.70179986      2.05746781
Pt      9.70591236      0.71260100      2.16599968
Pt      1.45327972      5.51057405      2.09673755
Pt      1.30916931      0.85845868      2.05272309
Pt      2.69075030      3.11951448      1.97086872
Pt      4.13415251      0.88382445      2.02795677
Pt     -0.06479023      3.12060150      2.09326501
Pt      5.21719093      6.68475951      4.39436888
Pt      8.12444377      6.76804717      4.35872769
Pt      6.77110440      9.14657051      4.41060297
Pt      6.80983556      4.36231717      4.46595895
Pt      8.01942189      1.90209485      4.53161663
Pt      5.17882962      1.87467073      4.49351613
Pt      9.48581788      4.19876604      4.34971640
Pt      9.50347745      9.01017935      4.39079071
Pt      1.03355517      8.97309788      4.25169433
Pt     10.86667051      6.56286720      4.41899865
Pt      2.52146494      1.74642821      4.32555506
Pt      2.52600889      6.62612351      4.52035215
Pt      4.02694810      9.15315082      4.40196399
Pt      3.95430301      4.22626837      4.47002592
Pt     -0.18907624      1.76850734      4.39970401
Pt      1.12814576      4.06895984      4.46309907
Pt      6.40964458      3.08081363      6.85885291
Pt      9.33094277      7.80850640      6.84329162
Pt      7.70602386      5.32543763      6.86644249
Pt      7.69608829      0.65205208      6.81912882
Pt      4.95479173     10.16595196      6.83256529
Pt      2.21811821      5.33755323      6.81551758
Pt      2.22142607     10.06862086      6.71229459
Pt      6.41086325      7.66625143      6.71745834
Pt      3.38368662      2.98358380      6.81480551
Pt      0.69026801      2.83932542      6.88071137
Pt     10.56000745      5.32784278      6.76610537
Pt      9.27230149      2.95946651      6.76391090
Pt      4.99137383      5.37992527      6.93255203
Pt     10.63971827      0.44305289      6.73896757
Pt      0.89669850      7.69093174      6.72257051
Pt      3.69345781      7.73369591      6.70601364
O       5.13441065      5.50418223     10.35367586
O       0.77470262      7.54604784      8.89560085
O      10.70327691      5.29197055      8.98474703
H       3.42139835      2.04601341      9.74976984
H       5.67789602      7.17093310      9.26571341
O      10.66735863      0.52972893      8.81156999
H       0.16901912      9.57952116      9.38378427
H       3.30678243      3.02412727     11.09172876
O       7.69099209     10.28362799      9.06311563
H       8.45440983      1.21967285      9.36527087
H       9.97484811      5.18618290      9.60762299
H      -0.00646505      1.44790667      9.06607144
H       0.26143058      6.67890001      9.12278637
H       5.81709040      3.74459884      9.81184032
H       0.02226997      4.32698469      9.01034047
C       5.84941755      6.11225638      9.51228072
H       1.70241009      7.28422586      9.21941402
O       6.26953302      3.00988806      9.27164780
H       4.58026755      9.81241806      9.51315613
H       5.89776208     10.90278056      9.19113533
H       7.60690030      7.46704121      7.78230376
O       5.05259302     10.50310399      8.91119366
O       2.80987986      2.67371334     10.23414563
O       0.46634567      2.72672959      8.95736317
H       1.32106034      2.76358517      9.47640056
H       7.53265899      8.28979713     11.12297643
O       7.74455620      8.03512622     10.17853069
H       3.78684205      2.94906020     13.46006216
O       3.87363456      3.48379329     12.61664856
O       2.48596718      5.57498548      9.28320789
H       3.42557080      5.77176625      9.47271792
H       6.86855384      5.69836733      9.38684128
H       1.68067116      6.16771301     13.32335403
H       3.51181543      4.36971586     12.87821326
H       8.07400218      7.10709912     10.31825491
H       3.61249684      7.08419176     13.00739865
H       4.72169371     -1.55810557     13.06802238
O       3.77977270      8.01059601     12.80440388
O       2.58485489      5.80889093     13.63417020
H       2.40292431      4.59737466      9.50603627
H       9.75586977      3.00332074      9.86196859
H       2.57982236      5.93837539     14.61397306
H       9.26536553      9.54374689     13.46212858
H      12.40622185      8.84983063     11.49497775
H       8.91872672      2.66235401     11.16532386
O       1.53188703      9.56352694     10.83761420
O      10.10204102     -0.27593226     13.89631438
O       8.87257700      2.66671753     10.14525502
Cl      7.31020108     -0.25836754     12.74918590
H       2.90285331     -0.63799752     10.17920460
O       8.85586708      5.58010585     10.95094616
H       8.17244631      5.05522416     11.43260495
Cl      0.17109165      7.02798056     12.25100852
O       8.85692684      2.71038688     12.81646066
H       1.45822054     10.36285298     11.37497094
O       3.78991533     -1.03598137     10.13485068
H       9.43681903      6.10631261     11.54806800
H       8.27933002      3.47297135     12.90264339
H       8.32174388      1.93160911     13.08590431
H      10.44287712     -1.13972596     13.33797560
H       6.13810540     -3.60046903     18.13775727
O       6.01930980      6.67218134     14.04279398
H       6.66377741      7.40387834     13.86896104
H       6.85917549      0.48825890     14.69340140
H       4.05587896     -1.26289496     11.04794769
H       6.59020212      5.37427785     13.15820242
H       2.65488683     -0.78478083     13.76153126
H       6.03680505      6.56670937     14.98657384
H      11.98420157      2.28601182     13.60696280
H       6.03605354      3.92286472     12.41683623
O       6.31969065     -3.78486242     19.12276318
H       7.12942913     -3.25646718     19.35043488
O       2.08250201     -0.10273451     14.29172555
O       6.53654975     10.62398535     15.53510737
O       6.80230144      4.53035908     12.73666618
H       1.60212763      0.48968712     13.66973679
H       9.88999580      8.41647939     15.33226456
O       0.70685327      1.85565635     12.76227976
O       1.50753084      8.37770207     16.77145179
O       9.99806854      8.08449825     16.24128042
H       1.71184429      8.88388842     17.61914579
H       2.57432175      5.17629529     16.63610206
O       2.87383125      6.03619598     16.29953812
H       7.08712191     10.27113809     16.25134937
H      10.98365012      1.52758308     12.74859779
H       4.74012461      1.57422891     15.16912589
H       3.23229896      1.12210986     15.13437137
H       1.69361616      8.92152635     15.98765767
H       2.35945386      6.76432128     16.74497956
H       9.46063446      6.21594601     16.43534291
O       3.82782772      1.93013587     15.10592809
H      10.98458927      8.21272938     16.51054169
H       7.37838650      2.92163139     15.49325140
H      10.38023155      0.92862351     15.33460180
O       9.41829439      5.34149220     16.92827025
O      10.18082371      1.74299209     15.86526455
O       2.21680495      9.25089909     19.42338095
H       8.63929099      4.83651056     16.51206507
O       7.41413092      3.68641695     16.07603777
H       2.23681172     -1.39389993     19.69704319
H       9.72553121      2.36946914     15.29276514
H       1.31255068      9.55124838     19.82575857
H       9.00835559     10.54018143     17.22852826
H      -1.05358356      5.23941389     18.23323242
H       3.38668417      0.54309481     19.98911876
O       8.43556892      9.80224249     17.34109624
H       7.31657468      3.32557122     16.99319898
O      -0.68509881      5.24250299     19.25498987
O       3.92747760      1.32234852     20.28651855
H       3.87701984      1.99128497     19.53321667
H       9.01646977      9.09696891     16.92774845
O      15.00451356      3.02624247     18.02702810
H      -1.34799826      5.91511384     19.54027370
H       1.01853201      5.96790220     19.75971755
H       6.00632458      4.99197980     16.15898458
O       6.55616815      3.22164111     18.58983616
H       3.60157476      2.57548565     17.21792742
H       2.57717356      6.02747112     20.26591983
O       1.77938653      6.58714904     19.98593584
H       6.60514771      4.11780074     19.09503309
H       5.71200874      1.43362926     20.66209126
H       4.73462877      5.91542289     16.73373411
H       6.78864249      2.52336533     19.26290366
H      15.99609349      3.18637472     17.96832706
O       5.69369108      5.89010819     16.42490011
O      -0.06368999      1.15107693     20.76321157
O       6.69935898      1.57422002     20.76796759
H       3.57686341      1.61069986     21.84221819
H      11.35901252      2.53243483     21.18163298
H      -0.34851375      0.75181935     21.62887155
O       8.81645901      9.68850578     19.97210615
H      -0.82211404      0.78859711     20.22386933
H       8.70218122      9.61903847     18.98422364
O       3.61338551      1.38897334     22.86595568
O      11.52904570      3.53605798     21.37915616
H       6.90714307      1.93124606     21.70380928
H       7.99165873      0.46005720     20.27100583
H       8.53998485      8.02571371     20.33825869
H       5.02690494      5.76460277     20.47517016
H      11.12017746      3.95488161     20.55961453
O       8.70979486      7.01331986     20.23093928
H       4.42341211     10.58087643     23.09440592
H       3.82703807      6.79901221     22.36425707
H       8.90468325      6.71374025     21.19677696
O       4.22610736      5.51588861     21.08844779
O      10.88267563      9.80364323     23.24406816
O       3.76978514      7.52924985     23.02846982
O       7.50209341      2.34013412     23.34255012
H      10.47471569      3.75119028     22.52785742
H       4.65773516      4.97252549     21.76911127
H       3.17919574      7.22245227     23.77579060
H      11.29173544      8.89540427     23.28657206
H       6.68269862      2.89691724     23.68729741
H       8.26356577      3.03739373     23.40925992
H       4.81162849      4.57468507     23.72156365
H      11.45593618     10.36164443     23.84244376
H       1.62700745      5.20198527     23.86274653
O      11.83486486      7.16790787     23.13101231
H       1.03123159      7.18301550     22.22010494
O       1.96923286      4.43490325     23.37207482
O       5.12602768      3.79814910     23.20127133
O       9.73887105      3.88073840     23.26488555
O       1.51251313      1.96519647     24.21129260
O       9.38216662      6.48707525     22.83206577
H       7.96936050     10.64587629     23.91426002
H       6.55780223      9.01091319     23.86758983
H       2.33340993      1.56655030     23.75428965
H       8.77979871      6.81828086     23.52305450
H      10.91889423      6.74962329     23.09590523
H      10.09604817      3.70766441     24.15425452
H       5.01814735     -0.98925209     23.63632689
H       9.36267546      9.92412168     23.88763420
H       4.41497341      3.13080768     23.32941494
H       1.41823536      4.28009947     22.54962158
O       8.41752074      9.81061577     24.23173270
O       5.61682112      9.35888399     24.04076311
H       1.57721920      2.88830994     23.84554504
H       9.52900034      5.48722391     23.11236658
Pt      2.96816098      9.41225042     26.42054460
Pt      5.61482466      9.46120353     26.42448642
Pt      8.36013281      9.50621248     26.33235271
Pt      0.16100659      9.45526884     26.51795829
Pt      8.40617897      4.63096332     26.51872448
Pt      4.20593635      7.06779536     26.57470353
Pt      9.97935766      7.13564996     26.41073127
Pt      7.11511904      6.90269328     26.60634122
Pt      0.03353632      4.63467018     26.48430478
Pt      1.46558977      7.09283117     26.38337057
Pt     10.06994974      2.19760629     26.67424359
Pt      7.07044914      2.24954930     26.66553659
Pt      2.93752835      4.64547225     26.56029879
Pt      5.64670437      4.60394240     26.63953849
Pt      1.60126154      2.15064279     26.40276682
Pt      4.27660330      2.21590680     26.49519502
H       7.83726241      9.39283762      9.54672845
H       7.22646790      2.89467536      9.48223101
