   243
 Tv_1:  11.152900   0.000000   0.000000 Tv_2:   0.000000   9.658700   0.000000 Tv_3:   0.000000   0.000000  26.829700
Pt      5.45671045      7.84383846      2.37742929
Pt      6.86692808      0.49235135      2.18045704
Pt      0.05162456      7.86133619      2.40427015
Pt      8.49382559      7.85985561      2.23369150
Pt      8.34937169      3.06015980      2.25073596
Pt      2.69590384      7.82324565      2.29479105
Pt      9.73441589      5.52261120      2.37879223
Pt      7.01293401      5.40610623      2.19887836
Pt      5.47409777      3.01986780      2.32755559
Pt      4.20982768      5.51052647      2.34478376
Pt      9.68411593      0.62524780      2.25210568
Pt      1.38487885      5.45442885      2.28246356
Pt      1.29992278      0.66257420      2.18755269
Pt      2.69131442      3.06093568      2.24647161
Pt      4.05047089      0.68055529      2.33641973
Pt     -0.05040836      3.07795751      2.24682592
Pt      5.88383739      6.48269046      4.66140604
Pt      8.54965263      6.38100594      4.71969894
Pt      7.26423660      8.90037496      4.47121369
Pt      7.11095117      3.98212282      4.53187200
Pt      8.52419423      1.67636297      4.52946575
Pt      5.71883367      1.53432711      4.51919179
Pt      9.99514691      4.00650973      4.63654060
Pt      9.91275695      9.01472673      4.57232987
Pt      1.59314809      8.85592436      4.59105215
Pt      0.14985980      6.37703667      4.80781497
Pt      3.04899574      1.69173893      4.59090988
Pt      3.07624386      6.50982442      4.61392124
Pt      4.30326965      8.79677089      4.60018967
Pt      4.39889190      3.96669223      4.59678304
Pt      0.32368928      1.62960771      4.51520255
Pt      1.62071296      4.10352781      4.61187293
Pt      7.40286263      2.65640929      6.83562373
Pt     10.17037221      7.45281005      6.82913592
Pt      8.93562747      4.99400048      7.05832131
Pt      8.77370029      0.24998425      6.95833757
Pt      5.96480755      0.24601193      6.79543064
Pt      3.25959164      4.99480814      6.91489178
Pt      3.22774703      0.03993791      6.95823607
Pt      7.51711280      7.42627768      6.83761583
Pt      4.57785967      2.64486501      6.95297407
Pt      1.83602868      2.50042340      6.90829589
Pt      0.47983908      5.02119352      7.02678482
Pt     10.24513425      2.57559560      6.81374244
Pt      6.03185177      5.03972801      6.98546918
Pt      0.33125924      0.15024168      6.88770538
Pt      1.75995106      7.32959427      6.93041236
Pt      4.50374941      7.25110196      7.22986594
O       5.55753627      4.85246050      9.26990015
O       1.90542769      7.64591467      9.21856641
O       0.35750066      4.79082468      9.27830915
H       5.16681221      3.72291597      9.29469362
H       6.32430574      4.79919183     11.26428236
O       0.31348368      0.49093876      9.02304615
H       1.14981275      7.78020193      9.91457867
H       4.93375635      1.90094122      9.41221678
O       8.85580053      0.30896389      9.06777150
H      10.49861406      0.52352169      9.22203582
H       0.70440928      1.40041897      9.14836919
H       0.47406067      5.56350913      9.89151452
H       8.14633659      1.67175446      9.16463773
H       1.22959982      4.25108037      9.26580259
H       8.27166196      9.29497223      9.51289626
C       6.50297770      5.32389809     10.29138487
H       2.47664924      6.86672253      9.54526400
O       7.61877946      2.53425288      9.03014473
H       2.65768768     10.53801708      9.48906458
H       6.11643696      6.35494041     10.54646596
O       5.94975301      8.40624890      8.02780003
O       4.58507337      2.72390895      9.01890630
O       1.77992146      2.67369195      9.02328228
H       2.74023044      2.76740671      9.29839431
O       8.85473141      4.86119394      9.14056940
O       7.01148591     -0.83152563     10.43081466
O       3.33981842      5.61302748     10.11240098
H       4.19204036      5.32639744      9.66981842
H       7.66019171      5.28944730      9.95225661
H       4.09188032      5.71442183     13.68541086
H       6.71664626      0.02410848     10.78641935
H       8.90957009      6.71894731     13.15517063
H       8.18590240      7.75777619     12.04794109
O       9.00383076      7.58487641     12.61539636
O       4.06532877      4.91136065     14.30536083
H       3.63737818      5.87921723     10.99985723
H       8.08128183      2.12715798     11.93734415
H       5.02217035      4.64323256     14.34226440
H       9.84137326      0.96016341     13.06486483
H      12.12710595      6.91413394     11.96387557
H       9.12846369      2.97502124     12.84937028
O      11.49437024      6.90616217     11.15576534
O      10.46672639      0.25220291     13.51622353
O       8.97925591      2.15146873     12.32169208
Cl      3.39821418      7.21552219     12.51427983
H       3.68018870      3.11184239     12.93796593
O       6.64132586      3.45891914     14.83670025
H       6.57871957      2.84218426     14.08582338
Cl     -1.86014933      4.88279372     13.97443592
O       6.37780070      1.41269831     12.03160178
H      -0.59993226      7.08952679     11.46431596
O       3.91239636      2.55831186     12.13780085
H       7.54525842      3.94689072     14.56337953
H       5.49959804      1.88544727     11.98831307
H       6.25432712      0.67670622     12.67975088
H       9.89944070     -0.50414623     13.61812045
H       4.84198173      8.55423158     13.75844607
O       0.60409314      1.27799558     15.47529009
H       1.53559523      0.95091748     15.66318825
H       6.43810914     -1.07633365      9.63630275
H       3.34660748      1.77367830     12.26129709
H       2.88816045      7.77933312     18.56313466
H       3.59245423     -0.22371704     15.28900942
H       0.21424048      0.64875899     14.78840251
H      10.52708594      3.91970859     15.44775309
H       2.83776307      6.42388171     19.18816058
O       5.21992943     -0.33827555     14.17442798
H       5.78154909      8.95810934     14.89432788
O       2.91601257     -0.10253522     15.98781381
O       3.35442348      9.92390823      9.32270234
O       3.33170286      7.28597511     19.30230218
H       1.84281500     -1.60379836     16.31229652
H       5.49588147      8.90270209     17.22472058
O      11.17762822      3.58120332     16.19374839
O       2.13312264      0.38000872     11.92639498
O       5.96165320      8.22885025     16.70538594
H       2.65019222     -0.47599577     12.15356515
H      -1.36778077      0.59016802     17.70149243
O      -0.34879646      0.50028486     17.98513643
H       2.85434292      8.99922722      9.56757156
H      11.39612142      2.60858944     15.83641122
H       4.70039836      1.35761834     17.96598222
H       3.39180920      0.20658484     16.80994189
H       1.20691784      0.15805039     12.20314662
H       0.06682269      0.92737475     17.16557147
H       8.62183595      7.95723974     17.47682879
O       4.26605291      0.42710399     18.14331444
H       5.60043613      7.33311840     16.88955873
H       4.67236319      6.32284342     18.45008137
H       6.21223344      3.00407500     16.70799187
O       9.07843483      7.22265107     17.06611220
O       6.30313438      2.54390333     17.61563855
O       1.26539941     -2.22490907     16.76789067
H       8.39376608      6.84222329     16.42778783
O       5.27263588      5.81879713     17.87962970
H       2.07042911     -3.78262302     16.40286561
H       6.62790707      3.16371078     18.33119149
H       0.35593856      7.74702685     16.75955144
H       7.42076542      0.99487799     17.58737760
H      -1.13640130      6.05163218     18.34529097
H       4.04238328      0.39762390     19.09265310
O       8.12731269      9.97296913     17.66680292
H       5.86655298      5.36536728     18.59930522
O      -0.56579432      5.87835266     19.10365998
O       4.12997360      1.15509062     20.87229816
H       3.50903394      1.95914121     20.83157145
H       8.07956391      9.85181536     18.63148107
O      -0.21675722      1.72322679     20.55101661
H      -0.42494769      6.86795981     19.42789694
H       1.34614973      2.74534378     20.86992615
H       0.97027717      5.24902046     19.08544504
O       6.85616191      4.52716837     20.22508739
H      10.88454772      1.45807272     19.58184507
H       2.32085819      3.83792662     20.13985900
O       2.24228401      3.24896378     20.89831621
H       7.05686423      5.32177082     20.74975374
H       5.33524340      2.08492361     21.44018225
H       1.99411992      4.71500704     17.98276373
H       6.53340659      3.93762983     20.98820615
H      10.25731666      2.41514740     20.74212511
O       1.89380753      4.83380286     18.91439795
O      -0.14578833     -1.37559698     19.97260477
O       5.94651867      2.79187740     21.95952353
H       3.70458562      0.69792410     21.66112504
H       8.53360886      4.15598920     20.63581376
H       0.67284883     -1.41841258     20.61848316
O       8.33803508     -0.59941338     20.20870160
H      11.14573073     -0.65736526     19.29612634
H       9.28282630     -0.66699953     20.34201298
O       1.90373517     -1.44304325     21.47881731
O       9.48333069      4.14034893     20.79880998
H       5.40874091      3.30675939     22.65280335
H       8.28299958      0.19808812     20.85516402
H       7.39332361      7.45088698     20.86337054
H       2.22326410      3.83859513     22.31176990
H       9.86061131      4.92548335     20.30918614
O       7.29473039      6.80995385     21.55456997
H       2.61183457     -1.76247610     20.79789705
H       5.65632594      7.29049405     22.49667732
H       8.09287043      6.92253313     22.10347796
O       2.32353470      4.16056127     23.33909855
O       9.20828194      7.02690624     23.49002101
O       4.74551887      7.38729823     22.92418460
O       8.20048400      1.49705543     22.50077686
H       9.79258324      3.83555213     22.34792319
H       1.74020615      4.91444425     23.47164584
H       4.78583777      6.53395585     23.47048477
H      10.20615323      6.93000151     23.36820148
H       7.27785419      1.96382675     22.48619164
H       8.86976587      2.18267729     22.84527399
H       2.30427124     -0.76324682     22.04584605
H      -2.63896541     -1.20360929     24.04711288
H       3.82347338      4.40398649     23.49952854
O       0.73680630      6.56209374     23.35873949
H       1.26285638      7.20725520     22.73644665
O       4.83864598      4.44388716     23.58705140
O       2.72439903      0.64903215     23.22803109
O       9.79485805      3.40059034     23.27553518
O       0.92173401      2.34059333     24.42028102
O       8.04764753      4.63359783     24.54909598
H       6.23560567     -0.35301820     24.38765061
H       4.90938722      8.46069127     23.96955888
H      11.17386504      2.69404059     24.17915960
H       8.87438944      6.19397517     23.91427842
H      11.96847324      6.97745028     24.25007748
H       9.06560986      3.80014015     23.84661368
H       3.58173858      0.51043720     23.71692005
H       8.29934754      9.96469155     23.60111890
H       2.01829038      0.79806284     23.90271510
H       4.99293777      3.99100112     24.48460234
O       8.01271403      9.26430532     24.31865437
O       5.22504338      9.31020655     24.44315213
H       1.41093873      3.12606726     24.23154075
H       7.10699819      4.42524831     24.26265110
Pt      2.58284467      9.27482985     26.84080062
Pt      5.23051043      9.27559664     26.71928101
Pt      8.06436194      9.30682386     26.58370892
Pt     -0.09331105      9.17225149     26.77777612
Pt      8.05390191      4.55887341     26.59784660
Pt      3.89622390      6.88984928     26.72584332
Pt      9.62965876      6.91724077     26.91125147
Pt      6.57832898      6.92277430     26.86929840
Pt     11.00163350      4.40139903     26.69133827
Pt      1.19611915      6.82597578     26.74336322
Pt      9.38939026      2.09296920     26.78741496
Pt      6.64334807      2.13486361     26.83368505
Pt      2.50093394      4.43513371     26.80868080
Pt      5.30047216      4.55132108     26.66611771
Pt      0.95576332      1.96239839     26.56920078
Pt      3.99763046      2.13325455     26.75527391
H       8.14970904      3.41797683      9.22405209
O       2.27665283      4.96107114     16.23890904
H       3.10764775      4.97479232     15.62045541
H       0.93423920      4.15979414     15.97157997
H       9.79456385      4.66789149      9.44228070
