   243
 Tv_1:  11.152900   0.000000   0.000000 Tv_2:   0.000000   9.658700   0.000000 Tv_3:   0.000000   0.000000  26.829700
Pt      5.43777894      7.76923874      2.20550054
Pt      6.92579362      0.46317713      2.29811387
Pt     -0.01272069      7.84857253      2.28319308
Pt      8.26027846      7.75057453      2.13445529
Pt      8.16918120      2.95956352      2.36191039
Pt      2.66193646      7.86507514      2.36002575
Pt      9.57273486      5.44108582      2.38728160
Pt      6.91925167      5.44205786      2.33390156
Pt      5.46571291      2.97706633      2.24478260
Pt      4.00658433      5.40401722      2.27034940
Pt      9.56558227      0.43498672      2.28100487
Pt      1.18805170      5.47039563      2.18327637
Pt      1.30910283      0.51701106      2.21352515
Pt      2.55465208      3.02316374      2.28119079
Pt      4.14739077      0.56792681      2.11434310
Pt     -0.10294873      2.79951669      2.13323391
Pt      5.65736180      6.25220708      4.61030196
Pt      8.58996274      6.37550545      4.73132606
Pt      7.16473135      8.72550164      4.56072316
Pt      7.06554886      4.06388287      4.54705722
Pt      8.42963601      1.43745175      4.63404733
Pt      5.57132842      1.56315812      4.42941085
Pt      9.67972609      3.89744290      4.58680172
Pt      9.87560064      8.75576104      4.71303370
Pt      1.60630945      8.83971734      4.63647870
Pt      0.22080339      6.33051165      4.58043524
Pt      2.87301491      1.66268878      4.48364351
Pt      2.95145105      6.29640441      4.47830440
Pt      4.38530847      8.79766238      4.56605937
Pt      4.31674464      3.95110844      4.61055963
Pt      0.07807687      1.44160028      4.47640883
Pt      1.31034466      3.83168895      4.51816729
Pt      7.35506957      2.67653801      6.90947323
Pt     10.07223095      7.34811829      6.94315579
Pt      8.87352742      4.89552892      7.00841406
Pt      8.59799830      0.04852608      6.98140279
Pt      5.91495697      0.26915648      6.83966171
Pt      3.01705795      4.86660618      6.83316343
Pt      3.08680755      0.14272158      6.81784057
Pt      7.18595427      7.21994953      6.90800784
Pt      4.49856318      2.69126431      6.96399092
Pt      1.72567289      2.44315249      6.93519686
Pt      0.40956096      4.93418003      6.93012465
Pt     10.14472234      2.50406492      6.87120933
Pt      5.97038314      4.92333334      7.12308851
Pt      0.34936793      0.12511681      6.87861664
Pt      1.69008034      7.33834996      6.94879582
Pt      4.35516111      7.26191149      6.83583573
O       5.44174037      4.97093576      9.15354004
O       1.78219344      7.51788949      9.19103082
O       0.67354870      4.65415707      9.03053561
H       5.07175756      3.55038400      9.40330495
H       6.06862730      5.36615672     11.12352148
O      -0.09113090      0.32485873      9.00517745
H       0.75888291      7.41437648      9.39662803
H       5.03939249      1.87412691      9.30196141
O       8.49497505      0.18068926      9.08814061
H      10.11406680      0.59647421      9.29971712
H       0.47226004      1.04266117      9.48496769
H       1.57365157      4.76571564      9.31025989
H       7.79800816      1.51307312      9.22318590
H       0.94895644      2.99310437      9.66573800
H       7.64735878      9.57717038      9.56673082
C       6.27520035      5.67468890     10.09470167
H       2.15753806      6.72873909      9.59600983
O       7.31381858      2.40346738      9.24419504
H       2.62776651     10.66049603      9.31133509
H       6.05680069      6.74452114     10.13463435
O       5.83683850      8.32455729      8.10020623
O       4.49472065      2.70170562      9.17389659
O       1.40364349      2.21809935     10.01633613
H       1.99938027      2.53450146     10.81290903
O       8.82859839      5.12713817      9.12825738
O       6.03906044     -0.26876933     10.48724553
O       3.12579467      5.58381599     10.18288625
H       4.00087329      5.34329492      9.69067148
H       7.34964849      5.51744904      9.88406913
H       4.09899406      4.51892302     14.65176977
H       5.65246743      0.16549556     11.26483663
H       8.70061510      7.20463602     12.09633631
H       7.79797020      8.04267044     11.12076081
O       8.68833577      8.09736209     11.59575582
O       4.44257574      3.86800541     15.28158527
H       3.15813107      5.58427396     11.17887613
H       8.91702865      3.83376907     11.86376716
H       5.20217441      3.43387964     14.90832737
H       9.34390576      0.01303011     11.97782158
H       9.54343956      7.90767977      9.27417827
H       9.26662127      2.23660929     11.39415280
O      10.17211548      7.21806824      8.97426074
O       9.91274491      0.84038831     11.87974554
O       8.93062341      3.12434050     11.10871051
Cl      3.01627589      5.77645158     13.39740475
H       2.73919745      3.54252668     12.64371076
O       6.78401252      2.76430256     14.20733287
H       6.34281575      2.12077164     13.58737763
Cl     -2.73356588      5.56465515     13.13813937
O       4.97689204      1.07007181     12.93450863
H      -1.70742215      5.97100833      9.21024981
O       2.72515428      2.59716647     12.21673547
H       6.97570252      3.47683691     13.55122802
H       4.07419606      1.48214204     12.73185393
H       4.81920110      0.25444696     13.49922344
H      10.71984211      0.81232616     12.50864023
H       4.20371855      7.68120388     13.98318994
O       1.85042342      6.14070021     17.56481866
H       1.87744651      6.49162107     16.69161430
H       5.23555550     -0.42899166      9.95578721
H       2.04470525      2.17162187     12.80679780
H       5.28879662      5.71265389     17.84642611
H       4.27415051     -1.00047414     15.88902668
H       0.95253980      6.46497259     17.90949721
H      11.08980844      4.11997430     15.14077285
H       5.10284946      5.01935602     16.43935704
O       4.75321691     -1.24175496     14.35156937
H       5.60272109      7.90366543     14.64168238
O       4.10699367     -1.05210651     16.92618626
O       3.20938747      9.82404914      9.20922537
O       5.73551500      5.56728777     16.93322330
H       3.14116310     -0.67481786     17.17831739
H       6.63171870      6.76367043     16.09770479
O      11.29645972      3.17787874     15.17460854
O       0.82988372      1.17215757     13.68732915
O       7.11771053      7.28759866     15.38720230
H       0.58523328      2.01289006     14.20936327
H       1.38587548      2.88984956     16.21785302
O       2.15310742      2.46917291     16.64226371
H       2.64389855      9.00967403      9.29863668
H      10.35719371      2.85443669     15.47737975
H       6.69754197      0.35925476     17.50784685
H       4.85368868     -0.42059875     17.22615268
H       0.87121828      0.44192545     14.34648708
H       2.92649315      2.98433601     16.37587841
H       9.61086468      5.51701498     16.32658199
O       5.76941251      0.67273857     17.74270139
H       7.30693092      6.62950883     14.66496439
H       7.39577992      4.78443743     17.19496192
H       8.23760318      2.47509257     15.34836227
O      10.22423606      5.68967553     15.58876673
O       8.90999295      2.31549215     16.06086898
O       1.84537929     -0.31356436     17.29051224
H       9.58790089      5.84420539     14.84690761
O       8.32137875      4.57688236     17.48516256
H       1.48463829     -0.75123109     16.50130332
H       8.78236487      3.04435262     16.78864863
H       1.75257749     10.32990836     17.11233294
H       7.99019765     -1.06765388     16.20485598
H      -1.14141336      6.94515956     18.49703256
H       5.75093187      0.89447419     18.71774956
O       8.10875558      9.30731378     16.92118263
H       8.36181022      4.60685196     18.47328624
O      -0.25924289      6.77949976     18.97931145
O       5.26219876      1.53966012     20.23912820
H       4.48117812      2.17827576     20.26409044
H       8.43891530     10.21551857     16.67371454
O       1.54788565      2.44831843     19.34146274
H      -0.05279651      7.60767354     19.44107926
H       2.73349984      2.77103553     20.38675418
H       4.04475863      6.04647172     19.93121592
O       8.29820187      4.81364673     20.18307926
H      12.88019466      2.66359813     18.38170335
H       3.83531718      3.88344535     20.22803455
O       3.58626414      3.15383177     20.84535560
H       8.32596772      5.63398655     20.63145515
H       6.62786169      2.01603774     20.95868404
H       3.17273409      5.55348607     18.67960895
H       7.93896228      4.15908724     20.84575435
H      11.93201818      3.07519644     19.53455910
O       4.00758275      5.39395553     19.22186526
O       0.36442594     -0.62916797     20.03304806
O       7.25686105      2.37567924     21.64332676
H       4.91786868      0.81111160     20.81982741
H      10.21269920      4.37341592     20.61534964
H       0.40831300     -0.26510286     21.00409442
O       8.68581649     -0.48330017     20.19279725
H      12.17483138     -0.06742864     19.56317424
H       9.57395198     -0.20593175     19.92949732
O       4.14609078     -3.12642689     21.82687576
O      11.14199143      4.76098796     20.65854498
H       6.79486488      2.77506613     22.32875316
H       8.12027531     -0.44086730     19.44929661
H       8.72964419      7.86122876     21.41648272
H       3.11686883      3.42638861     22.43972112
H      11.10990665      5.47786016     20.01345747
O       8.70490630      6.91523513     21.80370681
H       4.88722046     -3.39104533     22.52855992
H       6.80179468      5.96825080     22.96547085
H       9.24782659      6.95646677     22.59137604
O       3.12926544      3.39968950     23.48947357
O      12.11022181      9.66487125     22.74046380
O       5.99230250      5.82481237     23.50627541
O       9.36390643      1.13447925     22.64349837
H      10.79350170      4.49320681     22.83462714
H       2.79848749      4.29041714     23.81301000
H       5.98762028      4.90289935     23.66260663
H      12.00565767     10.47144487     23.29585468
H       8.62395520      1.49070609     22.11150785
H       9.75234938      2.00425084     22.94548984
H       4.05092136     -2.14431919     21.96336508
H       0.41916749     -0.73569957     23.20462372
H       5.17986436      3.01004780     24.18744289
O       2.24314019      6.23498353     23.74855671
H       2.87097671      6.38521228     22.96351414
O       6.07808797      3.08078330     23.80273456
O       3.60531699     -0.39210589     22.30404354
O      10.29767978      4.06137750     23.60578704
O       0.92700331      2.26607106     24.31202088
O      10.95470830      7.27805383     23.64128844
H       7.12463758     -0.02584197     24.36169375
H       5.77585632      8.10936884     24.31560831
H      11.46402150      3.03146546     24.16993807
H      11.88997136      6.93591253     23.81297875
H      13.89210423      6.65967587     24.51346004
H      10.18552668      4.80768320     24.19268122
H       4.05145620     -0.28614118     23.19588810
H       8.75009439     10.02985382     23.83557852
H       2.63252759     -0.45585462     22.38967428
H       6.56864332      3.26824911     24.66787925
O       8.09305003      9.52114883     24.51268027
O       5.48242218      9.05424201     24.49808964
H       1.87001336      2.61391196     24.04155865
H      10.66213522      7.43980953     24.58185354
Pt      2.51128810      9.24911950     26.81633751
Pt      5.26251491      9.16370533     26.62412594
Pt      8.03155795      9.18857363     26.72162296
Pt     -0.28456874      9.29738013     26.77257588
Pt      8.16917030      4.41369433     26.79272157
Pt      3.91981596      6.73106191     26.63384872
Pt      9.58840617      6.84126691     26.71428316
Pt      6.57798748      6.70249772     26.72432876
Pt     10.81802467      4.50537978     26.82495358
Pt      1.08079088      6.84064969     26.74726291
Pt      9.39646012      2.00943986     26.74690852
Pt      6.74423545      2.02027786     26.86995987
Pt      2.46755133      4.48474996     26.80804926
Pt      5.24008111      4.38880565     26.61117530
Pt      0.91657231      2.14910736     26.40120184
Pt      3.80584668      2.12839377     26.85108390
H       7.85215932      2.98470929      9.79748220
O       1.20243285      7.77944146     15.29370030
H       1.84935788      7.17110785     14.77736531
H       0.31359048      7.45263257     15.08092518
H       9.34611189      4.42995468      9.63583966
