   243
 Tv_1:  11.152900   0.000000   0.000000 Tv_2:   0.000000   9.658700   0.000000 Tv_3:   0.000000   0.000000  26.829700
Pt      5.50803863      7.86265437      2.26264120
Pt      6.96424772      0.59260553      2.40059998
Pt     -0.10695897      8.00394452      2.26510733
Pt      8.35425060      7.82435532      2.12231809
Pt      8.37996652      3.04916148      2.40210328
Pt      2.58026699      7.99931493      2.41582461
Pt      9.67275793      5.53827472      2.28623008
Pt      6.81992032      5.49717765      2.28439618
Pt      5.55668693      3.10507666      2.35194457
Pt      4.07669350      5.44586350      2.33586485
Pt      9.66197876      0.73684186      2.26119467
Pt      1.28158329      5.64940060      2.41941675
Pt      1.30846843      0.75293007      2.32652883
Pt      2.70413661      3.15219466      2.37765968
Pt      4.30057438      0.57199158      2.37024274
Pt      0.02081852      3.13138838      2.35578403
Pt      5.63789021      6.36518117      4.54175328
Pt      8.43687414      6.47244364      4.71580837
Pt      7.08981928      8.80699081      4.54823740
Pt      6.99712928      4.02798517      4.72329227
Pt      8.53242971      1.57691993      4.74231043
Pt      5.71933864      1.57258663      4.67543207
Pt      9.74933626      4.19089969      4.57122376
Pt      9.79811511      8.84524399      4.57783509
Pt      1.49543788      8.90916716      4.72980807
Pt      0.14307377      6.51867543      4.70211126
Pt      2.82492730      1.56062200      4.60640896
Pt      2.90978048      6.60742372      4.74578682
Pt      4.28449550      8.86868029      4.62438310
Pt      4.14490103      3.95087748      4.58192151
Pt      0.13646040      1.58037228      4.61609199
Pt      1.39757089      4.20475310      4.60138333
Pt      7.29252151      2.67467058      6.99855757
Pt     10.09351817      7.50862311      6.99864785
Pt      8.76643851      5.03923775      7.06011211
Pt      8.83275119      0.20020386      7.08886976
Pt      6.03945185      0.32530085      6.87535675
Pt      3.07142846      5.05505099      6.87365799
Pt      3.12213320      0.42811460      7.03754358
Pt      7.25281029      7.43917101      6.87087696
Pt      4.63087333      2.70639197      6.95415132
Pt      1.77563258      2.76987611      6.88855243
Pt      0.31522028      5.13857163      7.05434267
Pt     10.15310775      2.64380056      6.85722544
Pt      5.82672232      5.14878523      7.10533771
Pt      0.40210856      0.20880803      7.05969085
Pt      1.82053649      7.51615292      7.18279997
Pt      4.53830444      7.43004515      6.99312856
O       5.66526055      4.97148332      9.19701694
O       2.01600197      7.33896628      9.28958342
O       0.03216395      4.73814996      9.11451024
H       4.11206109      3.26683879      9.35789111
H       6.47804144      5.39177521     11.05118459
O       0.34794474      0.42679799      9.32244341
H       1.17063381      7.37678090      9.84605610
H       6.54643945      2.25750890      9.51253965
O       8.87646456      0.36284865      9.16982279
H      10.46573530      0.50176069      9.43002771
H       0.89148681      1.27519273      9.49669754
H       0.29220385      5.51651254      9.69612264
H       8.02772914      1.58658383      9.39628559
H       1.16756390      3.62541307      9.93444940
H       8.52023527      9.27788607      9.72789946
C       6.31550123      5.91847137     10.06499788
H       2.56777919      6.52224627      9.69898853
O       7.43849114      2.48740559      9.30322483
H       3.64842190     11.19176742      9.29756866
H       5.70014990      6.81529484     10.13124755
O       6.12049032      8.42968456      8.18463702
O       4.45693795      2.37502843      9.18833686
O       1.64383126      2.82172222     10.22418596
H       1.90452792      2.92726123     11.16392834
O       8.67906341      4.76627287      9.14140273
O       5.62445437     -0.46708732     10.85570897
O       3.31810529      5.51205127     10.20746156
H       4.23531500      5.21389219      9.80450414
H       7.33889021      6.11110814      9.74029776
H       3.71408907      5.14745043     14.67346482
H       5.46344059      0.49442687     11.11911016
H       8.76582176      8.59419843     11.74924576
H       7.41961259      8.40486614     11.00557443
O       8.32851342      8.03966319     11.06993837
O       4.15900578      4.46823280     15.31802174
H       3.50642387      5.75650793     11.16807925
H       9.85422738      2.70596585     12.19431451
H       4.98990169      4.16880078     14.88420330
H      10.28199834      0.79317596     12.35991529
H      12.30747471      7.06372953     12.06829895
H       8.13797451      3.88398257      9.26874641
O      11.60229794      7.15829855     11.37075487
O      10.64324130     -0.08069251     12.76935742
O       9.97199078      2.18740687     11.32694013
Cl      2.83001944      6.20639329     13.18168600
H       2.45917417      3.96589888     13.03409965
O       6.44342582      3.26097183     14.17092294
H       6.08582491      2.60935104     13.50725359
Cl     -1.71534838      3.09031801     14.18838630
O       4.83465165      1.67196841     12.66482374
H       0.08323109      8.05774933     11.46567441
O       2.61326131      3.03091867     12.66027435
H       7.49024819      3.33253108     14.01623093
H       4.06389966      2.27447822     12.72575259
H       4.69007273      0.84663266     13.19022737
H      10.21457859     -0.03505050     13.74423503
H       5.17755395      6.86238503     13.27780618
O       2.03378125      3.20354223     16.77737142
H       2.84568825      3.49077358     16.33779628
H       5.05075496     -0.46045195     10.07086147
H       2.17968699      2.38965966     13.27606417
H       4.49154809      5.43470128     16.72781393
H       5.28661198     -1.09673814     14.59674349
H       1.23952845      3.78371522     16.52476237
H       9.26743577      0.97987758     15.18130557
H       4.23491236      6.63620648     17.63229014
O       5.70719298     -1.95783774     13.30308896
H       5.49758131      8.09952906     12.43129638
O       4.94218135     -0.91938887     15.56649966
O       3.36788471      9.95880338      9.12202348
O       4.99959212      6.19987633     17.23797651
H       4.48326103     -1.83477046     15.72975254
H       8.66051106      5.32321007     13.40074101
O       9.60661593      0.10156323     15.23364479
O       1.74284229      0.81084469     13.63515938
O       8.92504373      6.30901066     13.42921745
H       2.14381712      0.01696139     14.11779823
H       0.39007488      0.72551452     16.51551728
O       0.94117403      0.65639499     17.34207905
H       2.62410496      9.40844105      9.41565945
H       8.87875024     -0.54530942     15.25312100
H       6.36035681      1.21487248     16.99821348
H       5.47447618     -0.21984113     16.95036209
H       0.89896215      0.42905114     13.30765106
H       1.38244408      1.53639531     17.25880467
H       8.74338894      6.46586560     16.73886120
O       5.96548387      0.28379273     17.63668393
H       9.19823159      6.56989731     12.51554880
H       5.93418766      4.77219620     17.99968260
H       6.57814556      2.62363592     15.54986843
O       8.97702926      5.86260448     17.47234641
O       7.00446348      2.08846180     16.42650270
O       2.63374952     -1.78773210     17.87322165
H       8.23031233      5.25540351     17.64970867
O       6.70327579      4.17555885     18.05347154
H       1.92431727     -2.43188924     17.97381073
H       7.00424841      2.81534681     17.07424359
H       2.25581558      8.71213728     17.60848101
H       8.36125942     -2.67526785     14.68693569
H      -1.11180957      6.22507753     18.70366135
H       5.33546239      0.55408987     18.37666167
O       7.99447969      7.53884979     15.49852279
H       6.77968492      3.86373970     18.95528233
O      -0.32466001      6.09629115     19.33267982
O       4.64236565      0.93846924     19.66716033
H       4.11275024      1.74400102     19.92591222
H       7.01954717      7.52212058     15.32008247
O       0.39739531      1.00704273     19.95820564
H      -0.27094008      6.85273840     20.06635926
H       2.07720718      2.01625411     20.40585376
H       1.21245529      5.05439119     19.18244334
O       7.46759116      3.63402624     20.57849952
H      11.62238698      0.89634013     18.97722194
H       2.61977576      3.39344413     19.84387216
O       2.82320202      2.63219025     20.51289218
H       7.19521566      4.15451366     21.35740662
H       7.62718807      0.41561453     20.91577105
H       2.10840105      4.15031449     18.25212947
H       7.26767581      2.69998240     20.89344925
H      11.02255288      1.81071288     20.02116811
O       2.10059341      4.66659130     19.11566533
O      -0.48620146     -1.54897732     21.19215321
O       6.91284551      1.09422941     21.16623857
H       4.23707114      0.13790038     20.08953814
H       9.25996654      3.67483974     20.47624290
H      -0.04352956     -1.89179705     22.02739258
O       8.12506522     -1.09491923     20.01715694
H      11.17357039     -0.78602078     20.92208473
H       8.96502712     -1.49686466     20.29935045
O       3.38715781     -0.89458288     20.99734236
O      10.22113322      3.60400414     20.71408083
H       6.13924597      0.97074627     20.58769015
H       7.61568672     -1.72276484     19.50078688
H       7.69215398      7.43930479     21.81353098
H       3.07228714      2.94463350     22.29533685
H      10.56967120      4.39275786     20.24100808
O       7.66362127      6.63392662     22.34402084
H       2.65581326     -0.51535672     21.62787756
H       6.20635418      6.74455714     22.91281701
H       8.33761304      6.68665481     23.10923764
O       3.42237903      3.34920166     23.16454024
O      11.96052119      7.48068308     23.69680711
O       5.39158778      6.83566505     23.58208559
O       8.49137738      1.76296671     23.19449712
H      10.49875877      3.81489012     22.57328172
H       3.10165595      4.31196052     23.14700059
H       5.81002662      6.52371856     24.41255080
H      12.60990518      6.74898502     23.65671597
H       9.10559147      2.42205076     23.65603353
H       7.54405043      1.96602802     23.24300000
H       3.04533370     -1.60752516     20.45823189
H       1.34806170     -1.29621064     23.80795261
H       5.03774332      2.95057822     23.41811259
O       2.90580357      5.82392548     23.93469707
H       3.74604050      6.21595902     23.68198502
O       5.91329460      2.54021592     23.90542120
O       2.23303098     -0.07370668     23.60500378
O      10.63784963      3.80997753     23.58954962
O       1.16272057      2.25060032     24.47476373
O       9.44488613      7.05311389     24.52269984
H       5.32769768      1.20933595     24.17501169
H       5.29855735      9.19116847     24.05377110
H      11.54822124      2.89294010     24.17421822
H      10.38145355      7.06835648     24.25191890
H      14.11848611      5.54494790     24.88827655
H      10.31973259      4.65867077     23.92954921
H       3.08975490     -0.02046389     24.08842099
H       8.28488136     10.01406038     24.16196969
H       1.72683371      0.68089421     23.98298854
H       5.83346845      3.07107176     24.82360733
O       7.99909632      9.12947723     24.56186597
O       4.82596297      9.94576166     24.48638849
H       2.02456451      2.68584352     24.41266189
H       8.75605297      8.40630103     24.42025685
Pt      2.40287091      9.48621745     26.81911708
Pt      5.08546325      9.48237710     26.78638134
Pt      8.00454613      9.49790212     26.68521936
Pt     -0.36898504      9.47339464     26.79300008
Pt      8.08545565      4.52828558     26.73857082
Pt      3.89593001      7.05486087     26.90740228
Pt      9.38966306      6.95792695     26.57931844
Pt      6.57391737      6.84247027     26.69299036
Pt     10.79396832      4.60655372     26.92270444
Pt      1.18516799      7.03908911     26.76192575
Pt      9.37330929      2.20772540     26.74855407
Pt      6.51882055      2.21534922     26.86930884
Pt      2.39752917      4.64965610     26.90930025
Pt      5.14302125      4.56815464     26.69944982
Pt      0.99089300      2.28963976     26.78400590
Pt      3.72258244      2.18130935     26.89577556
H      10.78768898      2.47234848     10.91042863
O      -0.03039791      4.65910160     16.15427648
H      -0.48059952      4.11321184     15.43798149
H      -0.82445395      4.96711813     16.71552032
H       9.68502572      4.67437969      9.30422204
