   243
 Tv_1:  11.152900   0.000000   0.000000 Tv_2:   0.000000   9.658700   0.000000 Tv_3:   0.000000   0.000000  26.829700
Pt      5.55281404      7.82695434      2.20569117
Pt      6.92419040      0.64832960      2.41133096
Pt      0.03121480      7.92043793      2.42413586
Pt      8.32386307      7.84098155      2.17363645
Pt      8.40567047      3.03608135      2.19148399
Pt      2.70672679      7.84660816      2.30779902
Pt      9.58934346      5.44117862      2.24401114
Pt      6.89899836      5.40477075      2.26844219
Pt      5.55419676      2.95555027      2.27136314
Pt      4.09048699      5.53912321      2.31821926
Pt      9.77102706      0.66389031      2.41669322
Pt      1.35447270      5.58887501      2.20067319
Pt      1.41280842      0.59770251      2.21720753
Pt      2.76056399      3.00918596      2.19658284
Pt      4.21997145      0.42736827      2.23733008
Pt      0.07126016      2.98953904      2.17677886
Pt      5.74809366      6.40703112      4.59318560
Pt      8.66262276      6.43005391      4.54384408
Pt      7.17935351      8.79763943      4.48605494
Pt      7.31627216      4.05825727      4.54506082
Pt      8.50544472      1.72582739      4.54978413
Pt      5.73085045      1.64283359      4.69484060
Pt     10.03758582      4.11378367      4.57912001
Pt      9.95361205      8.85349612      4.65011543
Pt      1.60938632      8.90668286      4.65620872
Pt      0.22840631      6.46991298      4.73948939
Pt      3.01566541      1.56025177      4.48267307
Pt      3.03760713      6.47924909      4.59377263
Pt      4.36020354      8.83200128      4.62131220
Pt      4.41782069      3.98723996      4.45934590
Pt      0.27002513      1.67111804      4.51681462
Pt      1.62220284      4.12595028      4.41754074
Pt      7.47904701      2.69548026      7.04253932
Pt      9.89300891      7.50859935      6.92231481
Pt      8.86279083      4.93146953      7.10330315
Pt      8.73613275      0.28009459      6.95260902
Pt      5.97187551      0.32288558      6.86070446
Pt      3.21583992      4.95542784      6.82791752
Pt      3.16097127      0.12585615      6.93671957
Pt      7.31292676      7.29142947      6.63208424
Pt      4.68197290      2.66158546      6.86887325
Pt      1.90039875      2.59725010      6.76471829
Pt      0.55341381      4.94484384      6.92576764
Pt     10.19257181      2.56447176      6.86290608
Pt      5.95233258      4.98354808      6.96060075
Pt      0.48168276      0.23190132      7.00019576
Pt      1.62635142      7.38602381      7.05192374
Pt      4.42874747      7.32149770      6.91691314
O       5.81028170      5.00439350      9.14484171
O       2.03769892      7.34891742      9.16653311
O       0.63749559      4.74697533      8.92450171
H       5.48827502      2.31469736      9.41554762
H       6.07315098      5.86196229     11.03419050
O       0.24433384      0.32799505      9.26415693
H       1.22405556      7.04354261      9.81384647
H       4.13122402      1.55494826      9.20322804
O       8.80594284      0.11750403      9.12600352
H      10.41295023      0.04042741      9.29261763
H       0.39212347      1.35527647      9.57047742
H       1.59718867      4.83419224      9.20132702
H       7.83784021      1.57636690      9.41461728
H       0.42329050      3.34547567      9.54444885
H       8.38613303      8.91489151      9.30037896
C       6.55566261      5.95590542     10.01633091
H       2.91445251      6.03636235      9.73024249
O       7.56694751      2.49194408      9.22608681
H       2.28841845     10.22099499      9.34949753
H       6.35088429      7.00055812      9.63283041
O       5.97048276      8.22072875      8.13553113
O       4.56240949      2.44012779      9.14753668
O       0.21633990      2.55974957     10.17790539
H       0.86125152      2.49112439     10.89486424
O       9.30821306      6.25524852      8.64498837
O       6.17091105     -0.02042941     10.60869367
O       3.45569358      5.25133577      9.87833960
H       4.81901093      5.21532781      9.46819528
H       7.61136111      5.69749577     10.07563518
H       2.33500709      4.05322640     14.68013122
H       5.27938282      0.13338777     10.92190204
H       7.09648935      8.46731794     13.36238793
H       6.85643363      9.24623336     12.03099050
O       7.45243583      9.22297436     12.84258939
O       2.52549263      3.68853241     15.60554763
H       3.42736153      5.06259020     10.86530645
H       8.46168057      4.09914119     11.82352668
H       3.20831741      3.00241808     15.46724961
H       9.22228471     -1.10959111     12.63293761
H      10.96994217      7.54548054     11.55095793
H       9.52808229      3.14623849     11.22169691
O      11.40296054      6.85136039     10.95800155
O      10.20399157     -1.19322847     12.60775252
O       9.00900687      3.89264329     10.95794787
Cl      2.41362245      4.91956998     12.84415160
H       2.46493151      2.76431682     12.53816790
O       5.05426167      2.13232469     14.29772243
H       4.97978645      1.56955253     13.48055396
Cl     -3.96094437      4.12548316     13.39161548
O       4.06263464      0.21875021     12.48666984
H       0.68006533      6.19659970     11.48901584
O       2.06961680      1.94837968     12.04329036
H       5.72993711      2.76607687     14.14311286
H       3.25703175      0.56395384     12.20362545
H       3.87867927     -0.63284226     12.92407969
H      10.57096685     -0.27489631     12.76087781
H       3.20422755      6.38696893     13.90869575
O       0.13178715      5.27719047     16.76741300
H       0.92116189      4.75766774     16.52171615
H       6.08771224     -0.43141021      9.72727072
H       1.37603573      1.61414083     12.68204643
H       3.97116712      4.94963082     16.41834508
H       3.19422882     -1.92665601     15.34020417
H      -0.13532282      5.87315418     16.00301385
H       8.18800135      2.62749238     13.97852939
H       4.12842617      6.17045353     17.41576086
O       3.61635059     -2.41651835     14.27002257
H       4.65223136      7.02543826     14.49505212
O       2.96750942     -1.37706850     16.39902015
O       3.17865564      9.86130270      9.19798716
O       4.63660175      5.58576467     16.83841715
H       2.01317424     -1.14799783     16.36221509
H       6.83100418      6.96424157     15.01835767
O       8.65881960      1.69255139     14.32744879
O      -0.06033828      1.02248604     13.57349486
O       6.36848137      6.92660916     14.15468848
H      -0.90706101      1.43809770     14.00695754
H      -1.25655296      2.31267579     17.72669543
O      -0.32831981      2.06120903     17.79550517
H       2.29640213      8.29671721      9.42071804
H       8.16470393      1.08043110     13.74509151
H       5.00277333      1.01505195     15.70485689
H       3.65554314     -0.58131623     16.50039582
H       0.15863482      0.43721506     14.33035531
H       0.09228621      2.87042253     17.41919093
H       8.22211295      7.73327617     17.36729086
O       4.76272022      0.43500349     16.56072164
H       6.47446690      5.97012667     13.80589333
H       6.13292352      4.78320190     17.20884413
H       8.50281474      1.90952915     16.24391217
O       7.90490756      7.17783031     16.62586286
O       8.17887156      1.98403284     17.19661374
O       0.56130523     -0.46706659     16.00384240
H       7.82634946      6.21661276     16.95873360
O       7.11519591      4.69314401     17.42868006
H      -0.09233064     -1.19118726     15.65055395
H       7.68873818      2.90037946     17.24789240
H       0.09643346      9.85134932     16.57639974
H       8.11047332      0.20083672     18.19775170
H       0.24622634      6.54882166     18.03393106
H       4.81007061      1.18371624     17.22366061
O       8.65469792      9.04696981     18.43337032
H       7.12132396      4.68069315     18.44921721
O       0.13374851      7.03212021     18.84699050
O       4.78802029      1.57715157     19.17467079
H       4.48803491      2.44390016     19.50561302
H       8.75796530      9.03912673     19.40876948
O       0.78507359      2.56550680     20.30211754
H      -0.31460470      7.83588241     18.57792385
H       2.32575759      3.33634990     20.21649347
H       3.53956448      7.31541590     19.46636043
O       7.66915184      4.48001191     20.27115420
H      11.43583675      2.37664103     19.40647686
H       3.09900531      4.68972506     19.95111010
O       3.23059024      3.74433545     20.32775629
H       7.45148403      5.25133399     20.83961614
H       6.31752436      1.49420588     20.35544104
H       2.22341213      6.59395852     18.97758644
H       7.25548244      3.64915106     20.58273469
H      11.45575436      3.38219150     20.69891626
O       3.16007229      6.45970154     19.27647101
O       0.02538185      0.50010102     21.79064452
O       7.02002863      1.84264630     20.95965995
H       4.06588848      1.01037024     19.51130749
H       9.57522997      4.71087769     20.75413731
H       0.02251084      0.86463802     22.70122353
O       8.80857221     -0.50220636     21.10842582
H      11.54752574      1.32190540     21.27961854
H       9.74905170     -0.20817495     21.40421561
O       3.41162696     -0.40486968     20.64242540
O      10.52658717      4.97925148     20.87094453
H       6.58922078      1.81282199     21.90282898
H       8.18464374      0.26533621     21.27202443
H       8.09084407      7.71795914     21.66029658
H       3.25580003      3.09533764     21.86830543
H      10.72200208      5.82838364     20.43684336
O       7.83525064      6.86883328     22.19496877
H       2.45226688     -0.46762957     20.57183371
H       6.42502254      6.53464050     22.72210366
H       8.43303406      6.87026728     23.00207021
O       3.27356293      2.84983405     22.83712887
O      12.31929324      7.73385750     24.11114243
O       5.58096677      6.21065799     23.12522877
O       8.45060386      2.07615178     23.41589088
H      10.31341961      4.76763499     22.80134424
H       3.02643991      3.70598519     23.22363351
H       5.87704195      5.38370826     23.54133165
H      12.82115004      6.92081458     23.76016605
H       7.50191306      2.28056283     23.56686997
H       8.85010839      2.99767384     23.57634185
H       3.51662052     -0.42540586     21.61068975
H       1.83021240     -1.17758703     24.13748786
H       5.05497657      3.16028392     23.26150617
O       3.04061751      5.50562333     23.56307345
H       3.87658774      5.93558559     23.22669166
O       5.93809987      3.28450898     23.63112169
O       3.19150151      0.00841428     23.63007327
O      10.17311814      4.31532328     23.65753271
O       0.90054449      2.28356646     24.31072162
O       9.56728446      7.24013073     24.35770657
H       6.63000746     -0.59488424     24.41749064
H       5.57009010      7.85831923     24.30719377
H      11.34913722      3.00594152     24.17160363
H      10.50229378      7.54834377     24.39932077
H      14.41822495      5.29861185     24.52958420
H       9.73613845      5.03664782     24.20294606
H       4.12633466     -0.18765235     23.70198668
H       8.31709328     10.35114901     24.37628275
H       3.04632257      0.98177994     23.43557985
H       5.88683892      3.07714436     24.59612733
O       8.10308326      9.42202553     24.71624468
O       5.62564806      8.81271852     24.33993890
H       1.77476994      2.53545308     23.95341111
H       8.97535639      8.15634179     24.39018911
Pt      2.44088323      9.30166066     26.74100754
Pt      5.01284472      9.28132358     26.66132776
Pt      8.01024882      9.18671520     26.80056050
Pt     -0.32832195      9.22918843     26.90489564
Pt      8.08367467      4.31959757     26.55944571
Pt      3.88608431      6.90133888     26.77519993
Pt      9.38435521      6.76626140     26.79193778
Pt      6.66726984      6.73317778     26.72459687
Pt     10.81630390      4.46346340     26.78432700
Pt      1.07567339      6.87649750     26.65448077
Pt      9.32245536      1.94164447     26.80289049
Pt      6.63672168      2.04818346     26.73228725
Pt      2.46562910      4.50145239     26.78867662
Pt      5.23879129      4.38295954     26.67165826
Pt      0.86430523      1.97581223     26.52691397
Pt      3.82090329      2.07583928     26.75051410
H       8.12870225      3.17145352      9.76758524
O      -0.94091148      7.34766424     15.01392596
H      -1.06372446      7.47213923     14.01864380
H      -1.82434351      7.33048419     15.50747086
H      10.10583952      5.91913872      9.13042378
