   243
 Tv_1:  11.152900   0.000000   0.000000 Tv_2:   0.000000   9.658700   0.000000 Tv_3:   0.000000   0.000000  26.829700
Pt      5.30731436      7.78260421      2.33066561
Pt      6.83050199      0.52288471      2.21872172
Pt     -0.17387873      7.93221663      2.29010964
Pt      8.23465469      7.84327233      2.17523556
Pt      8.30792695      3.02903387      2.22010847
Pt      2.51055077      7.93044036      2.47366695
Pt      9.52506363      5.43737070      2.24422754
Pt      6.82634380      5.29322559      2.30192911
Pt      5.49606329      2.89864392      2.46232769
Pt      4.02351168      5.30020957      2.46707193
Pt      9.50511272      0.59551943      2.26872305
Pt      1.28298629      5.47704347      2.25672722
Pt      1.13627900      0.67391983      2.45732587
Pt      2.77656923      2.93789146      2.35528106
Pt      4.13705469      0.54715210      2.26559978
Pt     -0.07305639      2.95151987      2.20674550
Pt      5.80331026      6.34272620      4.62632132
Pt      8.57857181      6.49244676      4.60483514
Pt      6.97840980      8.77580489      4.38502211
Pt      7.31813141      3.91139988      4.67723668
Pt      8.58190226      1.61020617      4.68988914
Pt      5.92901112      1.58345568      4.86459297
Pt     10.08933519      3.97596672      4.46923521
Pt     10.03356385      8.91454967      4.57945090
Pt      1.57411679      9.00376339      4.72967821
Pt      0.07868918      6.41004383      4.61792111
Pt      3.12951091      1.61053512      4.67491755
Pt      3.01758446      6.50294478      4.63993361
Pt      4.26230124      8.90644303      4.58860288
Pt      4.57124384      3.87824807      4.77086619
Pt      0.17070576      1.70010034      4.74758544
Pt      1.82728921      4.10247444      4.59666682
Pt      7.55392692      2.52842627      7.12128541
Pt     10.19508434      7.42183440      6.89134825
Pt      8.88437836      4.89004728      6.77510614
Pt      8.95393127      0.23585573      6.93507860
Pt      6.07686517      0.14077993      6.94563922
Pt      3.34036343      5.04876225      6.89975184
Pt      3.19808667      0.27141894      7.02496134
Pt      7.45642648      7.38047577      6.72530436
Pt      4.83072356      2.57171305      7.05377261
Pt      2.07066121      2.72897753      7.05466193
Pt      0.70315692      4.93612828      6.98864152
Pt     10.42115904      2.76165803      7.01695222
Pt      6.14098012      5.06252199      7.07736284
Pt      0.59883724      0.33031433      7.07154433
Pt      1.85888603      7.47801612      6.98989776
Pt      4.69803394      7.41492178      7.07091643
O       5.97505360      5.05894172      9.11441488
O       1.83528435      7.43634943      9.12164324
O       1.57582646      4.28718195      9.71925438
H       5.44010106      3.40931815      9.49502210
H       7.52328892      4.66271968     10.57688218
O       0.42212792      0.03301894      9.42829820
H       1.00648270      7.25340674      9.65678937
H       5.63017555      1.86002282      9.56138608
O       8.93539901      0.04424272      9.03270654
H      10.62967929      0.10371591      9.63235963
H       0.92881422      0.79626209      9.88563798
H       2.11684627      5.04375351      9.99424045
H       8.21967791      1.20974124      9.26280864
H       1.86932570      2.81240401     10.23018214
H       8.48520810      8.85424919      9.26378183
C       7.00285432      5.51298212     10.02702853
H       2.55293879      6.84823341      9.49625838
O       7.82549029      2.13714766      9.30054126
H       3.01632057     10.52582246      9.70911987
H       6.47501265      6.22609706     10.63564460
O       6.27312652      8.28231937      8.25436004
O       4.93764659      2.50992613      9.28912041
O       2.02176707      1.85781208     10.57429599
H       1.95876075      1.87137123     11.54237281
O      10.12538726      5.80855782      8.16139245
O       6.30198046      0.18252116     10.79738934
O       3.52216311      5.96131804     10.28287712
H       4.36528723      5.70488841      9.82476099
H       7.86130222      6.04180338      9.49708593
H       3.66010997      4.77987150     14.93332933
H       5.93272474      0.57129425     11.64979716
H       8.48195408      7.68293178     12.20140673
H       7.92234184      8.93501272     11.30152046
O       8.71909220      8.51514346     11.71279583
O       3.08814586      4.33475137     15.59326042
H       3.78569621      6.02216961     11.24934260
H       9.79606851      3.64020005     11.51064368
H       3.55187322      3.47746852     15.85749537
H       9.56844357      0.11119854     12.17012138
H      10.29406057      6.50988943     10.14568133
H      10.25544395      2.35424428     10.68060499
O      10.93787274      7.03686255     10.54398424
O      10.10837303      0.95499572     12.54815948
O       9.93295474      3.29845001     10.53039755
Cl      4.84636275      6.06203173     13.42032116
H       2.99483293      3.37807102     13.61537255
O       7.24015516      2.49601066     14.84824944
H       6.48856632      2.26202845     14.13356912
Cl     -1.44581349      3.94450408     13.78660002
O       5.42606984      1.35723464     13.32495399
H      -0.72646808      7.69715225     11.02400085
O       2.98901546      2.44591890     13.37654753
H       7.79824469      3.15802320     14.39930737
H       4.53779935      1.83885856     13.42722731
H       5.48008208      0.57235684     13.90330103
H       9.55174008      1.46670990     13.24019883
H       5.51621942      7.67894582     14.28733159
O       1.26501173      2.00098544     16.70560003
H       0.91712944      1.49639642     15.99938106
H       5.62929960     -0.44559632     10.40752406
H       2.22716027      1.94139387     13.81428075
H       4.03639978      5.58223884     17.42106876
H       4.84730569     -0.82637435     16.10671837
H       1.42516195      2.82448105     16.24467136
H       8.22265949      1.15909696     15.11208460
H       4.36111436      7.24682659     17.56523843
O       5.78703947     -1.23108442     14.89305100
H       6.73947660      8.22248311     15.21326090
O       4.18439439     -0.70527848     16.92370047
O       3.30035088      9.63852694      9.35930034
O       4.53261291      6.32967223     17.93374516
H       3.27001035     -0.76352195     16.54732996
H       7.11759744      5.93109527     13.22848350
O       8.90060566      0.64094256     15.65223907
O       1.24734670      0.73953841     14.10690086
O       7.99965087      6.30933435     13.08872877
H       0.33791110      0.56493478     13.65645835
H      -1.51759362      3.48668821     17.02213451
O      -1.48690115      2.58858442     17.38115315
H       2.53497669      9.06623198      9.52311844
H       8.99308989      1.28302216     16.44662115
H       5.38384480      2.08817525     17.87921329
H       4.50567555      0.64387592     17.93982139
H       1.62287833     -0.19194177     13.94082050
H      -0.60902419      2.26413828     17.17963982
H       8.91739589      6.77876262     16.78662664
O       4.67631676      1.47823948     18.50381038
H       8.72678797      5.58862433     13.12066028
H       6.06697758      5.83600332     18.53236949
H       6.44948985      3.00338252     16.18702174
O       9.21528859      6.46533538     17.69053024
O       6.03973852      3.10518775     17.10442231
O       2.36593963     -2.03775564     15.02044998
H       8.40361423      6.13564880     18.07739851
O       6.79439617      5.36955217     18.95481692
H       3.15889298     -2.40208405     14.56074581
H       6.44684874      3.77872990     17.65369044
H       1.82186773      6.80713845     15.21100142
H       8.36299691     -2.43045930     14.60109037
H      -0.94624882      7.13190805     18.83485310
H       3.84035712      1.95072758     19.09238281
O       8.33710760      7.61242334     15.51705975
H       6.41859954      4.84372906     19.76626880
O      -0.24019304      7.45584866     19.50104643
O       2.93556310      2.34881176     19.93029485
H       2.81713193      3.25895593     20.31672018
H       8.70204135      8.57835145     15.49415589
O      -1.78246026      2.94371032     20.24525333
H      -0.61398987      8.34987042     19.68678028
H       1.09360658      4.77522718     21.04361793
H       1.65115244      7.19828958     19.54065657
O       7.09548684      3.86073332     21.35275854
H       9.46712323      2.79509279     19.18086652
H       2.48977162      5.52691401     20.74599779
O       2.06504146      4.67662620     21.10914526
H       7.36548923      4.77371016     21.58793536
H       5.89642825      1.04401274     19.84408719
H       3.09968727      7.08695325     19.11620924
H       6.36403897      3.69338415     22.00050166
H       8.40741207      3.15797852     20.46708481
O       2.57376059      7.11626360     19.92377305
O      -0.88323231      0.23612570     21.01679034
O       6.02704815      0.53469566     20.77064137
H       2.55639696      1.58639837     20.54275229
H      10.02625359      4.65405961     20.37848089
H      -0.35177859      0.15258396     21.82153479
O       8.03733336     -1.36211610     20.94242200
H      10.13200406      1.15830162     20.84027638
H       8.80133200     -0.80203828     21.23050809
O       2.15806963      0.22272539     21.18199812
O      10.54544229      5.17530357     21.05778878
H       5.32190431      0.77905957     21.43307525
H       7.21302504     -0.79529433     21.08489326
H       7.86066730      7.09372931     21.64808948
H       2.43509827      4.18320792     22.65814181
H      10.30514723      6.06783032     20.86084203
O       7.76275010      6.14775589     22.17098387
H       2.44406507     -0.64633999     20.83583560
H       6.06453543      6.35677850     22.97395878
H       8.21005925      6.29310884     23.03769409
O       2.47912110      3.88784306     23.65445219
O      11.45367490      8.92333616     23.54495768
O       5.14367604      6.40792276     23.37556229
O       7.73124010      1.64113895     23.23747068
H      10.20197936      4.02844062     22.60631295
H       2.24227425      4.68289025     24.11020344
H       5.10779359      5.51625866     23.87854771
H      12.29503454      8.55552843     23.27141695
H       8.47693062      2.26715686     23.04523473
H       7.46551359      1.48663192     22.32421761
H       2.83723230      0.38980326     21.88258417
H       0.55898864      0.11500276     24.00180057
H       4.51301051      3.64922734     23.90921616
O       2.32610967      7.05305834     23.97373810
H       3.23568908      7.03824990     23.63080403
O       5.43812315      3.60371435     23.58584767
O       4.06171625      1.09713200     23.00077584
O       9.88514652      3.53058955     23.43483386
O       0.71427173      2.15915897     24.41944834
O       9.42888801      7.05792004     24.37065475
H       6.43268028     -0.86434214     24.48743713
H       5.16854046      7.82856193     24.38272948
H      10.99609809      2.59136416     24.13010840
H      10.29570835      7.56473756     24.15220733
H      13.58325300      7.15763921     24.97042106
H       9.42799999      4.08273815     24.15385465
H       4.53333009      0.45758948     23.58645218
H       7.81288025      9.94973316     24.21731860
H       4.48865439      1.96352724     23.16245849
H       5.88086860      3.23413841     24.41023626
O       7.78747227      9.04967295     24.62688247
O       5.33121574      8.81260256     24.62521253
H       1.49403180      2.82165421     24.18590247
H       8.74865040      7.88086208     24.38953987
Pt      2.34863976      9.28623661     26.91357398
Pt      4.98259765      9.30249800     26.64475288
Pt      7.91395545      9.25490100     26.72848636
Pt     -0.42693751      9.28115394     26.82616897
Pt      7.90699763      4.31883944     26.62577552
Pt      3.66424138      6.76507572     26.89694541
Pt      9.28019100      6.79308746     26.66908548
Pt      6.49318781      6.81713150     26.89792614
Pt     10.60722959      4.34448645     26.85154115
Pt      0.92476571      6.85390417     26.84558210
Pt      9.16158796      1.86743986     26.62777121
Pt      6.40461834      2.05786292     26.74253579
Pt      2.26432037      4.38513685     26.84471995
Pt      4.97964936      4.40806946     26.85909906
Pt      0.73706550      1.95187706     26.59358751
Pt      3.66810586      2.11523345     26.71731562
H       8.46640976      2.80305765      9.57805276
O       0.18859031      5.67710264     15.48952092
H      -0.28231716      5.13434871     14.83055830
H      -0.42001219      5.77369564     16.24643627
H      11.74294192      4.28952855      9.94581552
