   243
 Tv_1:  11.152900   0.000000   0.000000 Tv_2:   0.000000   9.658700   0.000000 Tv_3:   0.000000   0.000000  26.829700
Pt      5.77530927      8.02857933      2.17037706
Pt      7.18687433      0.69380460      2.21207503
Pt      0.31673614      8.03330235      2.39348144
Pt      8.58118320      8.02337882      2.26589405
Pt      8.35716238      3.23542197      2.41480195
Pt      2.93311187      7.87874237      2.25352766
Pt      9.81999108      5.53277311      2.35686067
Pt      6.94755290      5.55067502      2.24900307
Pt      5.51753740      3.11359108      2.34171488
Pt      4.28380651      5.54454200      2.30058632
Pt      9.90942476      0.75178108      2.27569380
Pt      1.45352729      5.51242203      2.41469053
Pt      1.50934947      0.79101720      2.07333849
Pt      2.78685159      3.18870921      2.24287280
Pt      4.34175554      0.71967864      2.13651643
Pt     -0.05074707      3.10122044      2.26400948
Pt      5.79295301      6.51818944      4.57740345
Pt      8.57869338      6.39421762      4.60056087
Pt      7.29678476      8.84651395      4.54580250
Pt      6.99621723      4.08057876      4.61202200
Pt      8.62196667      1.62089566      4.56195740
Pt      5.86809444      1.63500086      4.56145534
Pt      9.98760595      4.08183209      4.65887722
Pt      9.94234045      8.92812601      4.61350981
Pt      1.47433826      8.90105923      4.67021034
Pt      0.16916069      6.47355750      4.61803040
Pt      3.02698332      1.63999446      4.33297452
Pt      2.90107185      6.50009955      4.71150465
Pt      4.40852568      8.95295858      4.41201731
Pt      4.32059209      4.02844313      4.65208572
Pt      0.32360848      1.61247870      4.54260274
Pt      1.49520614      4.03575154      4.62431066
Pt      7.29796653      2.61920434      6.83220666
Pt     10.00447710      7.39989215      6.87170320
Pt      8.72821156      4.96736913      7.09617499
Pt      8.70499904      0.09801705      6.87164994
Pt      5.92649361      0.17931351      6.76422605
Pt      2.88724602      4.93843207      6.90456733
Pt      3.12721365      0.30636839      6.72921126
Pt      7.34613709      7.38642515      6.98391467
Pt      4.52396204      2.57449605      7.00416808
Pt      1.68491590      2.56745230      6.88576177
Pt      0.24986695      4.92389069      7.02157824
Pt     10.08281320      2.57780353      6.79540304
Pt      5.70342760      5.08689090      6.96033081
Pt      0.25476629      0.26327039      6.90934071
Pt      1.57166556      7.55137341      7.05543761
Pt      4.36358121      7.41019917      6.84522285
O       5.56403616      4.87453310      9.11682266
O       2.02309116      7.40946895      9.17772821
O       0.30061259      4.78093295      9.20466991
H       5.68979938      2.26815351      9.25355067
H       6.44953372      5.06550675     10.99291088
O       0.08865162      0.30001653      9.10950119
H       1.17883118      7.63403723      9.60671305
H       4.47145588      1.26329072      9.30466226
O       8.63487355      0.28213333      8.95039033
H      10.30549243      0.26147160      9.45665110
H       0.54854853      1.08183917      9.47135349
H       0.16719295      5.74912552      9.59360093
H       7.92033240      1.75278767      9.20447827
H       0.36140861      2.70490993     10.71248358
H       7.96543495      9.23168764      9.20542063
C       6.40872149      5.50664580      9.97926979
H       2.28035108      6.47794615      9.43879435
O       7.35331845      2.56830045      9.01739025
H       3.32804068      9.73845806     10.92012839
H       6.25822035      6.56524519      9.74034887
O       5.70295024      8.17352791      8.14796856
O       4.74113846      2.19784674      9.17381559
O       1.15781484      2.36343723     10.23964713
H       1.52254856      3.19781224      9.90063188
O       8.62504566      4.70397941      9.02696182
O       6.38116702     -0.57011849     10.90567110
O       2.74805483      4.80136215     10.02831544
H       3.71632472      4.51513758     10.04726641
H       7.55607201      5.29815178      9.43178313
H       2.20517131      4.96632776     14.54705626
H       6.29053608     -0.06222695     11.73639051
H       8.39218304      7.00369662     12.16575855
H       7.84379816      8.19721867     11.36134670
O       8.66297088      7.85040287     11.69965641
O       2.49283642      4.36412842     15.25503294
H       2.42614125      4.88708871     10.93218423
H      11.26124713      4.19761866     12.58636373
H       3.44631530      4.15361529     15.07714954
H       9.80490078      1.33871005     12.67959556
H      11.37690764      6.78014176     11.12796331
H       9.73450525      4.11818185     12.62196204
O      10.89851348      7.14991919     10.39339625
O      10.19310388      0.57822762     12.27502657
O      10.54155828      3.65273708     12.20466366
Cl      1.69423499      6.06568523     12.50329498
H       2.22173854      1.76085446     11.68482812
O       7.94720893      1.88616525     13.94951571
H       7.23456815      1.22438311     13.85140407
Cl     -3.18045894      4.95461440     13.39672388
O       5.69129530      0.37951132     13.36360085
H      -1.22918799      7.20974379     10.66702775
O       2.92618328      1.31657952     12.31069212
H       7.56976211      2.74927216     13.62187296
H       5.03761235      1.03873492     13.05391931
H       5.09247201     -0.45292269     13.27394532
H       9.42182480      0.06449956     12.03952521
H       3.07511081      7.86071175     13.35186068
O       0.36623793      2.27643039     15.35069587
H       1.03933038      3.00270709     15.26927032
H       5.45231029     -0.88504636     10.66833823
H       2.36495406      0.59450599     12.78354401
H       5.84759577      8.14039651     17.37894135
H       3.85252931     -0.72149242     15.25519496
H      -0.50144059      2.75765251     15.29831908
H       9.22245786      4.88065323     15.02607507
H       5.07736575      6.95976667     17.82006701
O       4.02706573     -1.63060619     13.61561082
H       4.44698890      7.17576379     13.78098435
O       3.53097603     -0.07051073     15.91115186
O       3.80380072      9.42855360     10.12614560
O       5.92260175      7.20652641     17.49765722
H       2.47538838     -0.86007456     16.53860147
H       5.56371597      6.06420708     15.60356657
O      10.00784281      4.71529199     15.76586847
O       1.32036359     -0.22801963     13.66993306
O       5.29754338      5.83612087     14.68218468
H       0.55465199     -0.10209732     13.04475269
H      -0.73930348      0.94179827     17.79674801
O       0.27113271      0.87368978     17.61805754
H       3.20462581      8.66447601      9.80233618
H       9.43147932      4.72073249     16.54612489
H       6.13051978      0.95581000     17.29458147
H       4.27495704      0.10205452     16.56093945
H       1.12205076      0.58034913     14.20797057
H       0.41578994      1.44075340     16.80103071
H       9.22262122      8.04354558     18.18460470
O       5.41197371      0.40244964     17.61502669
H       6.21021499      5.78165898     14.26611487
H       7.33548296      5.53660178     17.84589112
H       7.68972407      2.06307015     15.88460609
O       9.76098125      7.22657261     17.98683562
O       7.40597280      2.18219281     16.86630740
O       1.55497613     -1.33169107     16.97984090
H       9.08164994      6.50738196     17.98219435
O       7.92027472      4.79713512     17.93304851
H       1.18925631     -2.05817543     16.27895715
H       7.55930429      3.07282736     17.12605343
H       0.94855869      9.13663873     17.07802249
H       7.98468372      0.89668124     17.92740169
H      -0.24160332      6.67871668     19.37490109
H       5.19663799      0.71421679     18.51762826
O       8.68708038      9.92354194     18.18622268
H       7.94387156      4.55279807     18.93041888
O       0.58863834      6.23983078     19.68228205
O       4.91661577      1.43374228     20.14909437
H       4.42298699      2.27904210     20.22842334
H       8.53832680      9.88999314     19.19984381
O       1.17951308      2.04610092     19.79960561
H       1.06037222      6.95073227     20.12821113
H       2.46662736      3.03071176     20.08579974
H       1.73765088      5.96621275     18.21851374
O       8.34725475      4.39124913     20.68029146
H      12.27820530      1.71321895     18.81723436
H       3.06371125      4.40418006     19.40064855
O       3.30349032      3.66140607     20.09282310
H       8.34169129      5.36988192     20.93788482
H       6.46731075      1.79288041     21.42317512
H       2.50543088      5.02123171     17.12675169
H       7.76688423      3.83093672     21.20209538
H      11.70498484      2.78596229     19.97050159
O       2.62433277      5.73846037     17.83908856
O       0.51973805     -0.72075128     20.95833726
O       7.13858417      2.16018714     22.03782668
H       4.67543044      0.85987485     20.95112460
H      10.04367721      4.31020296     20.89744058
H       0.74740651     -0.66566866     21.90290773
O       9.03562278     -0.32799484     20.70889400
H      12.11054079      0.03999649     20.55993132
H      10.01007600     -0.56298453     20.68664195
O       3.92885358     -2.72706516     20.95043657
O      11.02800530      4.00676222     21.00205893
H       6.58192872      2.70433457     22.66483017
H       8.95159069      0.16029419     21.54735004
H       8.67547883      7.70378348     21.14594613
H       3.19264185      4.20869511     21.82124158
H      11.44462196      4.83864478     20.60844402
O       8.39708354      6.78781556     21.61369228
H       3.66912585     -3.07902337     20.05709761
H       7.01866572      6.94711213     22.64856766
H       9.22970903      6.62196134     22.16075396
O       3.25330980      3.99793243     22.77740103
O      13.09722626      9.03409393     23.54456801
O       6.07193687      6.72648711     22.96383002
O       9.43126292      1.40396403     22.97962348
H      10.96142860      3.98796540     22.65438864
H       2.89728856      4.77457247     23.26040351
H       6.14567321      5.78065167     23.17738986
H      12.75762329      9.41124595     24.32839927
H       8.50786831      1.70859326     22.69283943
H       9.88932439      2.16141689     23.39356150
H       4.66118054     -3.31405241     21.22710810
H       2.63864760      0.01409358     23.21446714
H       4.86738495      3.98089023     23.32891288
O       2.03412905      6.43143594     23.52951073
H       2.40000439      7.39326020     23.47009767
O       5.89083047      3.87453140     23.55058025
O       4.16639579     -0.07237470     22.17291030
O      10.86144350      3.90421386     23.65061281
O       1.47948167      2.18152665     24.33561774
O      10.53057982      6.93409485     23.21127145
H       6.86999654     -0.55673835     24.28120975
H       5.74891197      7.90071466     24.06846521
H      11.93676623      2.98299577     24.04797245
H      11.48267744      6.70486297     23.49757554
H      13.29901941      6.28956872     24.48567079
H      10.45162419      4.69759807     24.09178496
H       4.81921664      0.00652614     22.94061264
H       8.98735109     10.12614295     24.15399263
H       4.21802334     -0.99554795     21.83684196
H       5.76023176      3.81297489     24.54742713
O       8.42508844      9.36435044     24.57762713
O       5.84597650      8.91476416     24.31984711
H       2.32361780      2.58871743     24.03640949
H      10.18776282      7.60310447     23.88255054
Pt      2.78789715      9.26784108     26.68393165
Pt      5.56278893      9.36023274     26.58201817
Pt      8.31464885      9.42828659     26.59020274
Pt     -0.02668461      9.33699975     26.80840861
Pt      8.40884363      4.54010910     26.77755692
Pt      4.08880972      6.91103459     26.73942429
Pt      9.74469953      6.95570098     26.97031024
Pt      6.96149347      6.95374911     26.72307100
Pt     11.01563716      4.53789855     26.81782429
Pt      1.39710474      6.97840353     26.81426048
Pt      9.79229300      2.08098109     26.71734541
Pt      6.97347178      2.23224295     26.87884740
Pt      2.84524372      4.49017301     26.64722073
Pt      5.59687017      4.53894006     26.69860793
Pt      1.30033126      2.10952042     26.55566612
Pt      4.19082546      2.07297902     26.74183466
H       7.99233034      3.50506958      9.11570963
O       0.49846337      6.93137630     15.36391591
H       0.85633459      7.00365445     14.48863617
H      -0.24136576      6.28040824     15.42744989
H      10.52843667      4.44150893      9.26592574
