   243
 Tv_1:  11.152900   0.000000   0.000000 Tv_2:   0.000000   9.658700   0.000000 Tv_3:   0.000000   0.000000  26.829700
Pt      5.51923614      8.03830333      2.15955789
Pt      6.97223685      0.70974723      2.33075909
Pt     -0.08132415      7.85744785      2.42293791
Pt      8.26451167      7.95936435      2.25809089
Pt      8.35887498      3.10035352      2.40587319
Pt      2.59236060      7.99645810      2.32308443
Pt      9.63336294      5.49329157      2.30109548
Pt      6.77817176      5.40905929      2.26355020
Pt      5.46202607      3.14174208      2.45222243
Pt      4.10037645      5.58785567      2.25123717
Pt      9.57628096      0.71269100      2.46828880
Pt      1.30673280      5.52024925      2.37202489
Pt      1.26427481      0.69395720      2.33386609
Pt      2.71506537      2.96856830      2.37789965
Pt      4.09342227      0.66673131      2.30234872
Pt     -0.00864308      3.11764507      2.53519736
Pt      5.67112631      6.49122399      4.41790937
Pt      8.48768483      6.49527867      4.65675625
Pt      7.14325897      8.91729845      4.58563529
Pt      7.14211541      4.01703882      4.61212554
Pt      8.51087024      1.61549251      4.74684199
Pt      5.68888626      1.60187989      4.67883472
Pt      9.79668257      4.21290510      4.66335418
Pt      9.91341113      8.82014113      4.68144703
Pt      1.62982546      8.90263917      4.74341723
Pt      0.23734855      6.52843496      4.83212231
Pt      2.90560038      1.55235347      4.72039611
Pt      2.93595113      6.49718554      4.61601022
Pt      4.35089554      8.89046148      4.52627970
Pt      4.34621514      4.01998051      4.61564392
Pt      0.22369672      1.53188421      4.77240616
Pt      1.45017914      4.15609785      4.64105072
Pt      7.27022290      2.69966476      7.02729242
Pt     10.08661960      7.37086725      7.05395146
Pt      8.80029460      4.92294226      6.98386081
Pt      8.77102156      0.24521883      6.99612341
Pt      5.88701571      0.32255164      6.84139686
Pt      3.03131588      5.09213802      6.85426612
Pt      3.20404735      0.31971038      7.05733653
Pt      7.32833155      7.35637136      6.99793836
Pt      4.55845820      2.75406085      7.06857403
Pt      1.74180174      2.77943396      7.00905875
Pt      0.40416754      5.09717234      7.22360948
Pt     10.12996622      2.49974536      6.94521665
Pt      5.86069990      5.07527892      6.89051493
Pt      0.41587094      0.24482511      7.18032936
Pt      1.74791152      7.46283960      7.15054293
Pt      4.59982587      7.41778964      6.80563320
O       6.27087754      5.04492110     10.77555759
O       2.21283181      7.46894184      9.41204807
O       0.08711879      4.73218120      9.48690174
H       4.40898079      3.48402743      9.59892464
H       8.10073598      5.78016066     11.06866477
O       0.21153560      0.07589333      9.27891952
H       1.37166737      7.52175696      9.97371699
H       5.64172338      2.72330388      9.46012547
O       8.96114240      0.22679687      9.08731309
H      10.33930128      0.13816174      9.39783378
H       0.57347243      0.97163409      9.56615169
H       0.10486710      5.62840717      9.94418015
H       7.95208247      1.67474535      9.35714377
H       1.89214997      3.12687422      9.83508331
H       8.27258635      9.38663784      9.54232746
C       7.23702207      5.73995885     10.48409853
H       2.71589331      6.64825926      9.75750511
O       7.35154708      2.55557074      9.30773443
H       3.25766376     10.53454550      9.51154522
H       7.08061325      6.53536520      9.70270900
O       5.97532709      8.34272422      8.14926972
O       4.66169926      2.59053927      9.32594413
O       1.97406745      2.19890216     10.18004060
H       2.32727078      2.43432657     11.06566438
O       8.70533253      4.54482461      9.01440929
O       6.66768457     -0.67466690     10.92033959
O       3.44900566      5.24204093     10.48228218
H       4.42243373      5.13723654     10.51398352
H       8.05919087      5.20310782      9.54044123
H       3.46532191      5.00600092     14.46288689
H       6.06597395     -0.20456293     11.57178094
H       8.85031105      7.66112099     12.69288219
H       8.30273008      8.69456125     11.59384954
O       9.09514530      8.37930577     12.05984663
O       3.95589329      4.16210637     14.74077539
H       3.23318408      5.38204195     11.47759502
H      12.17974940      4.52928735     13.57397843
H       4.82228860      4.34750855     15.11810766
H      11.05174341      2.26201912     12.98400309
H      11.92053997      6.88625670     11.72412431
H      10.70811536      4.13728852     13.39110298
O      11.29664485      6.95019652     10.92339905
O      10.83391262      1.27878785     12.76229890
O      11.63847284      3.71636375     13.50487462
Cl      2.13604610      6.37461604     13.20098237
H       3.37952728      2.92722577     13.32720203
O       7.86368649      2.20202173     14.13154443
H       7.19459910      1.73492671     13.66032451
Cl     -2.37232562      5.06607025     13.40453541
O       5.76058024      0.90362027     12.82457657
H      -0.62880118      7.50976054     11.14309009
O       3.22248909      2.23534690     12.65921625
H       8.15432623      3.03613097     13.60478029
H       4.93082671      1.37994997     12.63170621
H       5.44861270      0.29112577     13.52029779
H      10.05680926      0.88068724     13.20895306
H       3.72034976      8.12356122     14.00176330
O       1.77287432      3.73547793     16.50007791
H       2.51433083      3.84806595     15.84780391
H       6.12328132     -0.75923804     10.10583082
H       2.78502125      1.45155778     13.04475211
H       5.04600795      7.69319813     17.52064933
H       4.21916230     -0.77966693     15.94412181
H       1.06687390      4.32209701     16.10639562
H       9.90741677      5.10815106     14.99393143
H       4.71823031      6.16461944     17.82948855
O       4.62513553     -1.31558460     14.35581443
H       5.11967055      7.45550997     14.47137157
O       3.93826610     -0.60190196     16.87109884
O       3.70211514      9.67955599      9.29655496
O       5.45791438      6.77773687     17.57918552
H       2.31352765     -0.66167560     17.08115250
H       6.19958604      5.99985922     15.82653887
O      10.17744802      5.33341940     15.97404122
O       1.85231056     -0.08994066     13.49823891
O       5.93845783      5.89687931     14.89419161
H       1.04236886      0.43293127     13.33016057
H      -0.37707908      1.47043461     17.86896422
O       0.61214194      1.55749711     17.95155359
H       3.04751626      8.96568879      9.57103595
H       9.26319267      5.44127918     16.39015625
H       6.04564654      1.93294072     17.59267059
H       4.42096694      0.26380727     17.19189388
H       1.68781969     -0.90282365     12.93112328
H       0.83718748      2.28106731     17.30828429
H       9.12838180      7.26809700     17.71676038
O       5.20810823      1.49631958     17.88028504
H       6.66853295      5.63984862     14.30736093
H       6.95359879      6.12478615     17.64642005
H       7.45233520      2.39728622     15.85905049
O       9.74847975      7.95755005     18.06023375
O       7.47514005      2.62368671     16.86905641
O       1.37692354     -0.91278047     17.18569251
H       9.51453981      8.78293529     17.66810148
O       7.79809287      5.59847413     17.71283233
H       0.89645473     -1.73622843     16.38501466
H       7.87316362      3.52259351     16.89378400
H       0.88962591      9.58255781     17.31683025
H       8.57387159      1.55168520     17.65889153
H      -0.07576890      7.55909556     19.61106268
H       5.06305199      1.51092747     18.85517089
O       9.15104153     10.48308270     18.05476979
H       7.85315503      5.36206480     18.68711523
O       0.57318374      6.97069302     20.09108198
O       4.65425167      2.10837314     20.87973603
H       4.01086072      2.85753043     20.64947723
H       8.55313894     10.07059109     18.71314575
O       0.53790175      2.47287847     20.48864858
H       1.27197045      7.58420566     20.41312692
H       2.07901880      3.27157358     20.60123807
H       2.03665386      6.24812304     18.63061937
O       7.97187373      5.29309094     20.36929338
H      11.56455745      2.35690691     19.48807477
H       2.68848699      4.68544995     19.97695140
O       2.80269692      3.94881874     20.74306280
H       7.55567113      6.00903723     20.87172092
H       6.14422541      2.71934462     21.18138677
H       2.33834156      4.86066565     17.91246440
H       7.63821980      4.50181585     20.95754585
H      11.08629916      3.30378473     20.54045746
O       2.73774273      5.50751937     18.52285068
O      -1.02637017      0.96806743     22.03188179
O       7.06390468      2.98981818     21.37250588
H       4.03660157      1.63649271     21.61396797
H       9.41305161      4.88720203     20.82286180
H      -0.59480746      0.16779205     22.43740247
O       7.72786667      0.33308311     20.67406167
H      10.69173864      1.42530482     21.32839446
H       8.59336914      0.51950335     21.05326938
O       2.47977043     -0.75180066     20.80086634
O      10.43330844      4.75171897     21.01855495
H       7.26240868      2.73049490     22.28026044
H       7.29705570      1.20199484     20.75528582
H       7.29105101      8.45448198     21.25265351
H       2.88743630      4.48476092     22.47969540
H      10.84082850      5.64430939     20.69524699
O       7.25320890      7.49972662     21.61019699
H       3.04871027     -0.33641108     20.13877599
H       5.78711281      6.93597310     22.70085556
H       8.02323126      7.36846682     22.17124301
O       2.85671463      4.40870442     23.50247628
O      11.26666069      8.56090875     23.55294612
O       5.08026654      6.89691193     23.35422215
O       8.33804021      2.04326622     23.54178620
H      10.49367008      4.41310555     22.52486342
H       2.45930774      5.23613468     23.75035558
H       5.42986131      6.19366314     23.98215261
H      12.05488662      8.01814337     23.29528794
H       8.75428510      2.65565031     24.12497494
H       9.09966269      1.73425541     22.92283782
H       2.71750819     -0.42742032     21.72071313
H       0.17382601     -0.80894230     24.51279841
H       4.45228326      3.96016330     24.09200557
O       2.35808833      7.12472928     23.70570040
H       3.13392817      7.15465723     23.16230067
O       5.35319333      3.90379403     24.47083581
O       3.42835371      0.91784168     22.92346279
O      10.37076482      4.22199128     23.51247143
O       1.05423271      2.59922793     24.57309566
O       9.17418778      6.86295319     23.43095650
H       6.60302549     -0.25985028     24.39528802
H       5.05734891      8.41871423     24.18499493
H      11.44387077      3.22640144     24.35395058
H       9.92666975      7.49088875     23.43586862
H      13.82270942      7.25030759     24.61561780
H       9.87235127      5.01292160     23.90956295
H       4.03628318      0.58798315     23.67926968
H       7.96520906     10.32489805     24.22638548
H       2.61127963      1.23194799     23.39577399
H       5.51657568      2.98118116     24.63619031
O       7.67136193      9.41303358     24.57555679
O       5.18178368      9.38593751     24.40676839
H       1.79083697      3.22412991     24.49353897
H       8.47703860      7.24339936     24.08369329
Pt      2.19464357      9.26061040     26.86392192
Pt      5.00146253      9.38924385     26.58621676
Pt      7.84023686      9.24773096     26.66591962
Pt     -0.62189037      9.23833132     26.91098007
Pt      7.95130292      4.51238241     26.64335695
Pt      3.67007238      6.93399456     26.79827310
Pt      9.32838664      6.83014174     26.75549652
Pt      6.40814934      6.92866976     26.71290421
Pt     10.72041250      4.45732927     26.88047158
Pt      0.91992604      6.91038266     26.87854007
Pt      9.17635832      1.98945137     26.81320693
Pt      6.46760858      2.18624045     26.85977889
Pt      2.36561738      4.46921488     26.89801272
Pt      5.10995211      4.51794580     26.76928702
Pt      0.88038059      2.01409385     26.72878043
Pt      3.56798520      1.98359633     26.88263783
H       8.01395897      3.34848053      9.55431119
O       0.47700530      7.11914320     15.72816576
H       0.96113797      6.99594949     14.86066732
H      -0.17896522      6.25763119     15.93648589
H      10.26418902      4.55898306      9.46688593
