   243
 Tv_1:  11.152900   0.000000   0.000000 Tv_2:   0.000000   9.658700   0.000000 Tv_3:   0.000000   0.000000  26.829700
Pt      5.83012022      8.02420597      2.35409570
Pt      7.20970754      0.71135799      2.34193664
Pt      0.17565723      7.95766414      2.37489149
Pt      8.59849586      7.96883828      2.28229481
Pt      8.48620460      3.10569572      2.23860576
Pt      3.03380087      7.93766479      2.27904701
Pt      9.98243152      5.56562742      2.27619082
Pt      7.21355374      5.68248963      2.31807080
Pt      5.90583404      3.17514147      2.40223287
Pt      4.46227960      5.51167531      2.32862066
Pt     10.04096884      0.75609848      2.30560443
Pt      1.60711470      5.48640124      2.36762389
Pt      1.58653527      0.71604307      2.24496259
Pt      2.81799802      3.01541079      2.28485843
Pt      4.27908341      0.71121332      2.29505068
Pt      0.21212876      3.01320394      2.28031741
Pt      5.55214356      6.43766004      4.58988075
Pt      8.36428664      6.47870494      4.60145938
Pt      7.06798125      8.95827798      4.54238095
Pt      7.07409672      4.15741232      4.59026711
Pt      8.31841858      1.75616899      4.70212664
Pt      5.64250003      1.70476584      4.65454109
Pt      9.92729534      4.11199035      4.46957154
Pt      9.79669392      9.04110056      4.55511392
Pt      1.47824669      8.90529961      4.58678656
Pt      0.02998239      6.52839031      4.53686683
Pt      2.88223453      1.64685046      4.64948912
Pt      2.83748973      6.35452951      4.49096369
Pt      4.15552961      8.93376531      4.49631659
Pt      4.24861799      3.95593858      4.53461047
Pt      0.01709597      1.55064831      4.70937568
Pt      1.39359521      3.91320183      4.53389645
Pt      6.83350567      2.70784266      6.84372856
Pt      9.70813902      7.43423210      6.78633235
Pt      8.33792769      5.04132766      6.84442860
Pt      8.10128979      0.14728846      7.00781100
Pt      5.31406993      0.38530163      6.91120490
Pt      2.74121069      4.98689743      6.81391860
Pt      2.62202439      0.15685475      6.95385787
Pt      6.86181504      7.48896672      6.71066448
Pt      3.97898933      2.68562091      7.01618725
Pt      1.23979325      2.65592318      7.06067149
Pt     -0.08101610      5.05062277      6.86119070
Pt      9.67636295      2.69226088      6.81015122
Pt      5.46039806      5.07601980      6.99391793
Pt     -0.21873925      0.18050486      6.92851672
Pt      1.26586419      7.37001995      7.03457965
Pt      3.91761670      7.35614655      6.77083734
O       5.54749035      5.43701362      9.34859547
O       1.65155363      7.31265249      9.17079647
O      -0.11275150      4.25046467      9.97831536
H       4.11018679      3.48526008      9.66165141
H       6.77743994      5.27820192     11.02705141
O      -0.42736866     -0.26875151      9.04352966
H       0.76174114      7.29901664      9.81171775
H       5.27288153      2.52467810      9.47240182
O       8.29929915      0.49306477      9.03040045
H       9.61962901     -0.09726834      9.21711815
H       0.15583625      0.45272901      9.49345357
H      -0.76603648      4.50347051     10.73286834
H       7.55959923      1.93962673      9.23191915
H       0.86092681      2.64001115      9.83312997
H       7.49737180      9.62948538      9.47416181
C       6.40167848      5.81762049     10.18554605
H       2.23988869      6.54520517      9.46749235
O       6.95709129      2.77822403      9.08056130
H       2.33306129     10.60494345      9.49458748
H       6.70350592      6.91519361     10.18377645
O       5.40546601      8.32914898      7.89738775
O       4.29759609      2.57848555      9.41907936
O       1.24890475      1.82424241     10.22867206
H       1.62601647      2.04047515     11.13949117
O       8.41796366      4.83996536      8.89618803
O       6.07603051     -0.29077213     10.44654481
O       2.69522591      5.25840028     10.40554637
H       1.80819616      4.78728493     10.39487117
H       7.75383975      5.54698101      9.28711959
H       3.73897108      4.91009225     15.36825499
H       5.65974346      0.35822097     11.10086542
H       8.81016707     10.31008347     16.17441922
H       8.67302629      9.10596857     15.33125521
O       8.27571797     10.01143180     15.40935859
O       3.81996651      4.60890929     16.34663340
H       2.90635373      5.61218624     11.30994488
H       9.47979371      2.73744736     12.73732622
H       4.66680129      4.08777439     16.27424946
H      10.57047969      0.23992278     12.58002855
H      10.76374267      7.86084863     11.53440623
H       8.88708223      1.65083497     13.75048358
O      10.60577317      7.25070238     10.66224255
O      10.95343201     -0.69173072     12.63996243
O       9.66884270      1.92454353     13.22961438
Cl      3.40250627      5.94711322     13.37436598
H       2.64290699      3.58066274     12.59574495
O       6.67652391      2.99577361     13.71246417
H       6.10474943      2.23725712     13.37751158
Cl     -2.00354613      4.93519723     12.45866924
O       4.99421938      1.01072286     12.46313852
H      -0.83063287      6.30308732     10.94510633
O       2.56825659      2.59243237     12.46569734
H       7.12370492      3.55094268     13.03892485
H       4.14401452      1.52277968     12.32670432
H       4.97325295      0.19037744     13.08071205
H      11.48292667     -0.75954108     13.46486635
H       5.15764172      7.70740174     13.60686042
O       1.31539974      3.69838624     16.32803335
H       2.27611075      4.01594221     16.55441814
H       5.36451006     -0.53024074      9.81165685
H       2.06475716      2.27168337     13.27828133
H       5.40537841      6.54559578     20.70348515
H       6.04050209     -0.90986388     15.79865069
H       0.74406798      4.40784896     16.00582660
H      10.40394777      5.98087936     14.50332484
H       4.67080747      7.11664147     19.43832068
O       5.60537884     -1.16044480     13.87947358
H       6.57131250      8.38056986     13.66539992
O       5.66057384     -0.61543319     16.65488601
O       2.85990273      9.76193930      9.14015520
O       5.37333949      7.23742820     20.06810762
H       4.21471757     -0.50843290     16.64158469
H       8.24644498      6.92360179     13.04008828
O      10.82617001      6.00410737     15.38188639
O       1.02022586      1.85796993     14.42141755
O       8.22279031      7.87442966     13.27160533
H      -0.00453477      1.88553652     14.16194090
H       1.52514194      1.18791326     18.72180126
O       2.25189053      0.51335569     18.84185698
H       2.35112445      8.93788346      9.41360111
H      10.10938848      6.33297214     15.99929984
H       6.33051750      2.44370838     17.57065447
H       6.10462023      0.25824584     16.97678260
H       1.11688572      2.37065962     15.25996900
H       1.92807626     -0.06814047     19.56405422
H       9.09756108      8.24909117     17.53223256
O       6.46452923      1.57753581     18.10405536
H       9.15711637      8.20880255     13.25896903
H       6.58362574      6.46262873     18.95599691
H       6.65037376      3.53303338     15.38551315
O       9.11091490      7.23314075     17.36692642
O       6.33330768      3.67787045     16.39765307
O       3.15434444     -0.40967318     16.73240485
H       8.26644757      6.85082799     17.77090342
O       7.15449581      5.85872347     18.42988874
H       2.49723135     -0.85557879     16.08079217
H       6.87307485      4.48381454     16.64600793
H       2.62179147      9.48635461     17.65314399
H       9.57775181      1.18352497     18.38676238
H      -0.44920870      6.61515554     18.63610218
H       5.89971291      1.64588904     18.95061273
O       8.91647727     10.19934891     18.11963791
H       7.58533320      5.20519889     19.04558393
O       0.36542471      6.41719866     19.08626325
O       4.75659565      1.83749492     20.23768424
H       4.05762984      2.50365338     20.14564420
H       8.03475297     10.73246962     18.09382468
O       0.12526737      2.23513984     18.69834663
H       0.73540292      7.16685586     19.62782463
H       1.78889050      4.04357055     20.60328934
H       2.24241262      6.17035677     18.56090325
O       8.22583683      4.26942324     20.40643498
H      11.73656640      2.67673880     17.94949543
H       2.88158932      4.78440893     19.90224752
O       2.76106292      3.98057152     20.55557652
H       8.10185536      5.11446878     21.00436730
H       5.83197651      2.03907673     21.34625170
H       3.60766126      5.55916784     17.93208119
H       7.53618105      3.58292596     20.74544051
H      11.10885653      2.99755318     19.34229929
O       3.21304182      6.15819806     18.68793927
O       1.24618580     -1.15185372     20.79245477
O       6.65588397      2.50022246     21.76584841
H       4.27461957      0.95170622     20.42239769
H       9.82090914      4.14842015     20.50426029
H       0.44440800     -0.87446096     21.30435780
O       9.45460241     -0.92324346     20.84345330
H      13.25786078     -1.05788478     21.32242416
H       9.42697449     -0.49539822     19.97100787
O       3.55036116     -0.51421953     21.53165458
O      10.81494391      4.17509693     20.41081705
H       6.37097836      3.26828031     22.44946091
H       9.06972250     -0.17174380     21.41315805
H       8.62576392      7.26045705     21.25189029
H       3.06229712      3.77404067     22.33528559
H      11.02735633      5.10909517     20.06499343
O       8.08865452      6.59880111     21.79112806
H       4.30264299     -1.14781872     21.39776256
H       6.49859098      7.20022280     22.62426585
H       8.71338339      6.29050645     22.51475407
O       2.91701308      4.20575321     23.17235281
O      12.00319550      9.12937629     23.64005728
O       5.56522577      7.12859277     22.93345603
O       8.75431291      1.28186637     22.61987870
H      10.74454578      3.39410960     22.14836833
H       2.54043997      5.09900722     22.85524454
H       5.54437479      6.14705676     23.11120097
H      12.71878235      9.72065239     23.88562089
H       7.85104796      1.62918138     22.35767856
H       9.35096981      2.09560726     22.73523665
H       3.81746045     -0.08564039     22.36488482
H       0.43514661     -0.59914179     24.58928081
H       4.79965912      4.32220325     23.73402718
O       1.29214790      6.49476337     23.59054670
H       1.31996828      7.45192798     23.38136521
O       5.76855247      4.34779249     23.64498292
O       4.13122675      1.06407357     23.46053720
O      10.56961861      3.13455999     23.10305161
O       1.60888011      2.40943780     24.45240680
O       9.88360430      5.73527931     23.71388237
H       7.52614292     -0.26743211     24.51092410
H       5.32181432      8.66535314     24.34839685
H      11.82491513      2.48394596     24.06938015
H      10.79441901      6.18313676     23.75623700
H      12.75395674      6.48879951     24.53581704
H      10.33396494      4.02281797     23.56181260
H       4.87819613      0.68678224     24.02284023
H       8.70621358     10.22604137     23.91867929
H       3.38257885      1.39253080     24.05512887
H       6.05409956      4.03051697     24.55005595
O       8.47474532      9.45489150     24.59493244
O       5.85161067      9.48398120     24.71176087
H       2.06937005      3.30772013     24.15509043
H       9.42483350      5.79529142     24.60610902
Pt      3.21703734      9.40892668     26.84969435
Pt      5.98998762      9.47307772     26.82118891
Pt      8.78954986      9.50846274     26.66008948
Pt      0.30663379      9.39816451     26.84815823
Pt      8.59993491      4.71387406     26.83926966
Pt      4.54704518      7.03147793     26.86343189
Pt     10.02740673      6.97290936     26.81960681
Pt      7.33537867      7.07513181     26.86219823
Pt     11.63894658      4.74741787     26.80175716
Pt      1.77244186      7.06048648     26.89127516
Pt     10.06646740      2.49268535     26.79454596
Pt      7.35173498      2.36501628     26.85930218
Pt      3.23122463      4.62639659     26.97016400
Pt      5.90334459      4.74244905     26.73225245
Pt      1.75731476      2.41639062     26.53145807
Pt      4.53396753      2.21642416     26.87171772
H       7.60588147      3.61997920      9.04334776
O       1.51362486      8.22623609     14.89927351
H       2.18069005      7.58004716     14.51400817
H       0.79703904      7.68772841     15.28785026
H      10.61289705      4.55021460      9.14599657
