   243
 Tv_1:  11.152900   0.000000   0.000000 Tv_2:   0.000000   9.658700   0.000000 Tv_3:   0.000000   0.000000  26.829700
Pt      5.50471451      7.95685594      2.25926084
Pt      6.90400573      0.79998315      2.37940206
Pt     -0.06029985      7.97411544      2.39204575
Pt      8.26071275      8.00946611      2.28692195
Pt      8.32434056      3.26619624      2.48406401
Pt      2.73002120      7.92215036      2.39736043
Pt      9.56117884      5.46634078      2.24768538
Pt      6.87344047      5.60512597      2.29616947
Pt      5.47227115      3.16540140      2.45763642
Pt      4.10937490      5.55418204      2.45119267
Pt      9.67883782      0.75153729      2.36369042
Pt      1.22678583      5.59701879      2.28104288
Pt      1.41669450      0.85654079      2.45064160
Pt      2.72998751      3.20762659      2.25751428
Pt      4.09955289      0.80522746      2.25429670
Pt      0.03879001      3.18624201      2.40493922
Pt      5.54583507      6.69315836      4.67763757
Pt      8.54689248      6.53304692      4.56920749
Pt      7.07508073      8.98542190      4.58314037
Pt      7.04969804      4.17609707      4.73931112
Pt      8.36543032      1.73745423      4.66479532
Pt      5.67475149      1.75609639      4.73153492
Pt      9.88183414      4.29223985      4.74787322
Pt      9.90994759      9.03350981      4.64105005
Pt      1.46084324      9.01599385      4.73446532
Pt      0.12244417      6.58216170      4.66938578
Pt      2.91527153      1.74678191      4.58786665
Pt      2.73073851      6.68261542      4.77553954
Pt      4.22326540      9.10561968      4.50662899
Pt      4.27398261      4.18764773      4.72762047
Pt      0.14338883      1.78770832      4.73851929
Pt      1.49149913      4.18493930      4.69538898
Pt      7.47981871      2.71358765      6.99338169
Pt     10.00723012      7.54759609      6.89094903
Pt      8.64731360      5.14211628      7.14455298
Pt      8.53885047      0.38099433      7.09362234
Pt      5.80762422      0.29457119      6.96361368
Pt      2.91417150      5.14894426      7.08975309
Pt      3.04884677      0.32169733      6.94357865
Pt      7.29183721      7.48470865      6.84856562
Pt      4.46321280      2.76893636      6.99616314
Pt      1.74836904      2.80193215      6.95117196
Pt      0.25077028      5.08301930      7.04879260
Pt     10.15467357      2.77386235      6.99646353
Pt      5.89870752      5.16157522      7.07653838
Pt      0.21417383      0.40612554      7.03793266
Pt      1.51767562      7.48177547      7.25517007
Pt      4.17170034      7.48687740      7.08849614
O       6.05216405      5.45110302      9.73308430
O       1.37493891      7.42599628      9.31673403
O      -2.02674812      3.65236741     10.80296463
H       3.62550866      3.56040469      9.61665868
H       4.91972129      6.80734252     10.62675429
O      -0.07576073      0.39001470      9.09473808
H      -0.05509008      7.20636153      9.70487214
H       5.21899103      2.80972898      9.54762619
O       8.69723300      0.08564302      9.22021629
H       9.92550918      0.08360412      9.21506971
H      -0.07218355      1.37241993      9.44641640
H      -2.33823187      4.15128451     11.61426880
H       7.15181448      1.48931742      9.42280968
H      -0.56348179      3.09733750     10.67757306
H       8.52228806      8.79031050      9.30666375
C       5.92739258      6.56934160     10.24693498
H       1.64222829      6.50372788      9.61852591
O       6.86298645      2.36668166      9.75549832
H       3.29417931     10.75205754      9.60598625
H       6.81135877      7.24342030     10.37534078
O       5.88250645      8.23372563      8.13117765
O       4.23055542      2.78488947      9.27160811
O       0.33733995      2.73016746     10.37031674
H       0.58861314      2.09949734     11.08095565
O       8.57577653      5.53161991      9.17723821
O       3.30730862     -1.74411397     11.55123653
O       2.31391723      4.75858261     10.16111863
H       1.70701968      4.00297134     10.20290539
H       7.43471319      5.55962280      9.29741182
H       3.55802134      3.67476387     15.40470059
H       3.14235802     -1.26436453     10.66885753
H       8.40939471      7.12264776     12.51734647
H       8.94825886      8.63926920     12.41095545
O       8.75970783      7.78763371     11.87792857
O       3.09929222      2.88464761     15.80403161
H       2.68929688      4.95449353     11.06827774
H      10.14661993      0.71106406     13.26865046
H       3.67581878      2.03175310     15.78046693
H      11.13663988     -2.01303178     12.35036458
H       9.69410762      7.51399630     10.75541552
H       8.54146997      0.74267244     13.51701227
O      10.02417506      7.31940861      9.82719320
O      12.03190381     -2.02298562     12.57171534
O       9.38917266      0.17191887     13.46748472
Cl      3.67250381      4.52924517     13.23351603
H       3.75836539      2.63168612     12.54074017
O       7.71267220      2.13775387     13.88292464
H       6.44511273      1.52104384     13.07020117
Cl     -2.69455606      5.13823023     13.36017265
O       5.92679307      0.86900038     12.52383730
H      -1.88403608      6.42505604      9.44283271
O       3.63923227      1.74538369     12.09601650
H       7.88060008      3.02577836     13.50950326
H       4.98781510      1.30932973     12.30981225
H       5.58697772     -0.03728398     13.02775979
H      12.12203663     -2.43677100     13.53427753
H       4.12973615      8.46344591     12.90906511
O       0.81496012      1.93342395     15.15642189
H       1.75345806      2.31540834     15.32049970
H       2.38681767     -1.90209514     11.90865740
H       2.80634805      1.27434815     12.37805403
H       5.28049185      6.12052686     16.52926435
H       4.61512366     -0.08806747     15.25729458
H       0.35108902      2.81993571     15.03987739
H       9.99610368      4.81198350     14.69951962
H       4.12523665      5.50995741     17.49356802
O       4.84118132     -0.97816701     13.65684935
H       5.22335730      7.73780444     13.99558587
O       4.31476814      0.41517143     16.06790756
O       2.89458384      9.84203420      9.32681465
O       5.01231076      6.06432269     17.44681001
H       3.52899328     -0.09890152     16.33750021
H       6.59044742      6.02569823     14.58203218
O      10.77533524      4.81036419     15.33303046
O       1.18967625      0.70865525     12.61152094
O       5.64559361      6.36498745     14.55480044
H       1.09431602     -0.33527458     12.73781020
H      -0.69919475     -0.15814024     17.29398820
O       0.19091988      0.32050075     17.39558894
H       1.95882145      9.95404763      9.48279979
H      10.31874533      5.10137931     16.18645447
H       6.69935614      1.68340495     16.99691038
H       5.61658948      0.06552595     17.00678046
H       0.95117658      1.08596742     13.54773194
H       0.14231133      0.84446523     16.55080856
H       9.15013507      7.03849005     17.54985059
O       6.45871830      0.05277866     17.52593043
H       5.01366521      5.59617634     14.13870619
H       6.38824348      4.99271046     18.04363944
H       7.35995422      2.31928745     14.88094816
O       9.63429148      6.13702718     17.65445876
O       7.03814552      2.41394213     16.34369417
O       2.45755992     -1.16242643     16.86221064
H       8.97088131      5.42157358     17.76448147
O       7.15095547      4.35176640     18.09130767
H       2.23804099     -1.71540536     16.09235591
H       7.15895988      3.19435546     16.93964216
H       1.56723603      8.88894582     17.04025768
H       8.07668282     -0.76260108     17.62243292
H      -0.34566361      6.32086402     19.05019655
H       6.28020607      0.24223435     18.44948593
O       8.99331810      8.64653682     17.76271287
H       7.38520516      4.15454027     19.01306216
O       0.55096452      6.40508925     19.40916993
O       5.21443231      0.48484586     20.37049266
H       4.56169316      1.24987597     20.26112304
H       9.27965347      8.68016173     18.71247357
O       0.96448321      1.30004293     19.73490450
H       0.68883219      7.21552630     19.99030113
H       2.43391740      1.92751261     20.26351631
H       1.87559887      5.51996387     18.54421506
O       8.49779712      3.96067856     20.36611314
H      11.88211353      1.15954401     18.77162383
H       3.26663438      3.25252411     19.72156806
O       3.30970455      2.43950233     20.29319267
H       8.10176373      4.70510339     20.89838795
H       6.83322887      1.19067282     20.81059777
H       2.22115324      4.34287110     17.50614564
H       8.17283318      3.07958770     20.70499541
H      11.61758840      2.07777444     20.15210150
O       2.60439664      4.85545831     18.24439452
O       1.27380504     -1.04852155     21.00438093
O       7.77020623      1.40426024     20.91962120
H       4.71002689     -0.30772548     20.05552492
H      10.13318130      4.04001122     20.78212475
H       1.71291749     -1.17377182     21.88441745
O       9.49616812     -0.91800153     20.68177060
H      12.47517451     -0.07924867     20.81341135
H      10.48892149     -0.82561776     20.74535724
O       4.08165839     -1.93265225     19.47019860
O      11.13227077      3.86290269     21.02199875
H       7.93931047      1.61537004     21.90333073
H       9.09577489     -0.02564048     20.79752673
H       8.65565608      7.39480599     21.84730840
H       3.28601759      2.84593094     22.21601978
H      11.55063133      4.69716220     20.67263831
O       8.51918420      6.50897606     22.23510992
H       4.49486223     -2.36629354     18.61227877
H       7.23714813      6.59072059     23.18084041
H       9.11731966      6.46360631     22.99643035
O       3.45575841      3.24068236     23.12028776
O      12.21756151      8.94226896     23.97136400
O       6.38667428      6.74425164     23.66612290
O       8.37341765      2.29417519     23.52386757
H      10.79737883      3.87413181     22.55100490
H       3.38465485      4.21144754     22.99739828
H       6.00045468      5.82662761     23.47952467
H      12.82428664      8.65377246     24.72584359
H       7.57920880      2.89785284     23.66398589
H       9.13108871      2.86473440     23.71467006
H       3.28714588     -1.58041765     19.03191308
H       1.13749939      0.25666814     24.06012225
H       5.94694026      4.13642330     24.47996506
O       2.90819433      5.84549221     23.49605030
H       3.33765136      6.65513048     23.14630433
O       6.08742321      3.74293757     23.60242692
O       3.54567390     -1.39403200     22.44323933
O      10.89868641      3.82269336     23.56153463
O       1.48019590      2.07357656     24.45833717
O       9.84101568      7.65056422     24.24342728
H       6.53405934     -0.26673404     24.54701495
H       5.55636196      8.08636878     24.41586181
H      11.85991073      2.62601726     24.13310013
H      10.71189593      8.19662679     24.19719320
H      13.97498345      6.08297947     24.45927314
H      11.21978864      4.62342674     23.98638050
H       4.12342958     -1.37395195     21.65779446
H       8.32517134     10.45421687     24.48702606
H       3.97001771     -0.63636402     22.94612019
H       5.24738695      3.39903436     23.30525193
O       7.92359495      9.54467849     24.64010728
O       5.52331911      9.05720414     24.60958256
H       2.30924452      2.56323407     24.13551618
H       9.08283505      8.36063785     24.35402926
Pt      2.51327648      9.50591920     26.94547551
Pt      5.33623491      9.42711255     26.79473135
Pt      8.10354733      9.48079058     26.78739858
Pt     -0.21290933      9.54763220     27.07638794
Pt      8.17609153      4.57710668     26.55373767
Pt      4.00323481      6.89766374     26.85057096
Pt      9.51538500      7.03066545     26.76187786
Pt      6.83417118      6.91174862     26.76266183
Pt     10.95652211      4.60676989     26.75491027
Pt      1.27736014      7.09283259     26.77820669
Pt      9.54445158      2.25772248     26.96503717
Pt      6.69009697      2.21450271     27.04021928
Pt      2.46063281      4.58219672     26.78217408
Pt      5.39284169      4.62066947     26.67086424
Pt      1.25247210      2.19086272     26.72633350
Pt      3.99559574      2.16286084     26.82523317
H       7.74295321      2.57273599     10.22585584
O       1.56574148      6.57254272     14.87758091
H       2.19376283      5.97166961     14.41034293
H       0.92347910      5.86067655     15.23712090
H       9.27509146      4.35660021     10.15830387
