   243
 Tv_1:  11.152900   0.000000   0.000000 Tv_2:   0.000000   9.658700   0.000000 Tv_3:   0.000000   0.000000  26.829700
Pt      5.37012942      7.98976216      2.30965696
Pt      6.86412721      0.66940613      2.32506971
Pt     -0.13205360      7.95772845      2.37343987
Pt      8.15845070      8.04211101      2.25559018
Pt      8.37229215      3.14118644      2.35095181
Pt      2.56066677      7.94585289      2.27227041
Pt      9.65348365      5.62604108      2.49082375
Pt      6.97643227      5.50392776      2.25636219
Pt      5.64304258      3.06997444      2.44999458
Pt      4.03410165      5.55472325      2.32246792
Pt      9.72707497      0.71390121      2.37441235
Pt      1.20529248      5.52099154      2.49443779
Pt      1.34691620      0.75483559      2.39153919
Pt      2.78979635      3.13988757      2.38839475
Pt      4.09220222      0.71373267      2.31134274
Pt     -0.04447258      2.99249226      2.16548977
Pt      5.64553176      6.45477483      4.50827513
Pt      8.46851352      6.59724599      4.65405428
Pt      7.04547495      8.94268187      4.58269135
Pt      7.35026505      4.18412051      4.62561164
Pt      8.54804942      1.69751322      4.63221619
Pt      5.86083390      1.67267832      4.65413050
Pt     10.05208697      4.23610314      4.60169486
Pt      9.87548030      9.07572124      4.68705102
Pt      1.58420326      8.97960684      4.81949808
Pt      0.03743078      6.67291627      4.62652234
Pt      3.05231068      1.69896986      4.76251508
Pt      2.94426133      6.64783036      4.63001448
Pt      4.30969432      9.01413975      4.75034112
Pt      4.43111475      4.01203783      4.71966510
Pt      0.16963045      1.72176811      4.62703483
Pt      1.66781736      4.06712765      4.77877775
Pt      7.33090009      2.79904407      6.87183885
Pt     10.11598732      7.47562158      6.92680826
Pt      8.68811394      5.13431606      7.13727866
Pt      8.77777733      0.34513833      7.08641161
Pt      5.92289567      0.51052667      6.97387248
Pt      3.07053630      5.26110672      6.87047794
Pt      3.31330912      0.39121700      7.14814895
Pt      7.37830430      7.56521583      6.97237404
Pt      4.50078011      2.86388178      7.16269804
Pt      1.75730132      2.82739338      7.22306349
Pt      0.30398253      5.07657938      6.94234384
Pt     10.16511168      2.74168149      6.94866735
Pt      5.89821115      5.32618163      6.94212142
Pt      0.33524360      0.43738469      7.09269893
Pt      1.70478034      7.64370512      7.14531089
Pt      4.46172159      7.46582229      6.97182575
O       5.90018083      4.95213422     10.10584852
O       1.39332133      7.17886480      9.23990556
O      -2.12295842      3.51006715     10.90839351
H       4.02515641      3.32061141      9.79574104
H       5.11679231      5.71015428     11.91243915
O       0.15356952      0.46805724      9.18677386
H       0.40650071      7.09682106      9.41975857
H       5.32440558      2.44937987      9.83838895
O       8.89556089      0.34066233      9.27210246
H      10.07142704      0.25380371      9.28781667
H       0.18146785      1.46611201      9.40022612
H      -2.50048456      3.97293879     11.71613212
H       7.34069638      1.49248477      9.56658806
H      -0.41816301      3.41764756     10.65545390
H       8.49497159      9.06833142      9.44578521
C       5.85130305      5.81818187     11.01659365
H       1.82349491      6.37973877      9.57134685
O       6.91867629      1.84321596     10.33380719
H       3.17965167     10.53079365      9.88776443
H       6.39430604      6.79234266     10.98995326
O       5.78972695      8.55373822      8.21447897
O       4.40214942      2.45677724      9.50399752
O       0.41263372      3.03882920     10.23042562
H       0.84092621      2.42976670     10.89799891
O       8.36027258      5.41406949      9.23134990
O       3.77708120     -1.55204218     11.41204490
O       2.48758980      4.72964098     10.34115238
H       1.64362032      4.19153856     10.28973428
H       7.29511833      5.30919768      9.33352114
H       2.93902407      4.13817011     15.10924001
H       3.12112134     -1.46534332     10.68416797
H       9.04860537      7.24635611     12.32265545
H       8.72670631      8.79703770     12.15807993
O       9.43724137      8.10176650     12.05366201
O       2.81992710      3.48082298     15.87174222
H       2.47538451      4.86821910     11.37903870
H       7.64108765      0.87089301     13.09665815
H       3.15540802      2.60119195     15.66958261
H      11.33038071     -0.92808968     12.12197452
H       9.89884674      7.74121205     10.55742144
H       7.05906761      0.66561642     11.67637936
O      10.14590490      7.41452059      9.64914858
O      12.30195334     -0.79812641     12.39803809
O       7.28216765      0.21256657     12.51968959
Cl      3.13184795      5.37875296     13.34505938
H       1.42449095      2.10167723     13.38765540
O       6.16370475      3.43145252     14.23840585
H       5.30040057      3.00636326     13.70221975
Cl     -3.33022475      5.74661354     13.11785525
O       4.59256838      2.18568036     12.89486018
H      -1.81932441      6.75281633      9.55953754
O       1.68696945      1.68657513     12.50440467
H       6.39751221      4.35066969     13.89507608
H       3.67882836      2.48464405     12.62643853
H       4.38954274      1.25674707     13.34883271
H      12.27573338     -1.30854969     13.25655845
H       4.47583677      9.00380215     12.69103378
O      -0.01960291      3.16876728     15.64659206
H       0.99290702      3.20956957     15.65054784
H       3.41458658     -2.21508124     11.99335547
H       1.49568976      0.68449752     12.48395093
H       4.66301216      6.71012531     17.53924431
H       3.98624210     -0.00508737     15.44636732
H      -0.41996985      4.09099992     15.63053286
H       9.41392504      5.89549238     14.61732151
H       3.85510977      6.01333732     18.53588366
O       4.80739601     -0.24970424     13.55465236
H       5.74599373      9.59813869     13.35258024
O       3.74191247      0.65898232     16.05755902
O       2.82236111      9.71785641      9.37528571
O       4.75344240      6.43452640     18.48846954
H       2.91409811      0.11115562     16.44496568
H       4.67842281      6.56114505     14.78264521
O      10.17360392      5.74295714     15.25862083
O      -2.27654375      1.94759055     14.03085134
O       5.18549284      7.00169249     15.47575835
H      -1.32758794      1.73354092     14.15934851
H      -0.98219974      0.47638581     17.55496622
O      -0.20728029      1.11656712     17.67650885
H       1.87983770      9.76537380      9.46557021
H       9.83409079      6.03925943     16.16799780
H       6.76720715      2.25411199     16.90886489
H       5.37294570      0.69857138     16.78982703
H      -2.53792195      2.58282942     14.70068909
H      -0.19705353      1.79956744     16.97502544
H       8.93040715      7.48597979     17.51260705
O       6.10538625      0.84322141     17.40571063
H       5.97600985      7.32540208     15.03858264
H       6.70815934      5.76830445     18.25725723
H       6.59325237      3.28382623     15.19213488
O       9.39657924      6.61566881     17.53191874
O       7.11716802      3.14375263     16.50428139
O       1.70511756     -0.76545032     17.02161017
H       8.72408925      6.01675440     17.93225555
O       7.46903556      5.14308040     18.39143368
H       1.45968955     -1.30031725     16.19329974
H       7.10438732      3.87897082     17.12567072
H       0.96091002      9.45205179     17.33446292
H       7.48795659     -0.19742433     17.67223509
H      -0.41602968      6.32788990     18.70053265
H       5.68095125      0.89895934     18.31939689
O       8.40046661      9.22809293     17.98149241
H       7.28769035      4.72577509     19.27743193
O       0.17736022      5.90472657     19.39687829
O       4.62232847      1.08849217     19.68180235
H       3.92214269      1.85134204     19.81360510
H       8.22986352      9.05937955     18.91647455
O       0.38525296      1.54856121     20.09145632
H       0.62696368      6.66141347     19.80495482
H       1.71508682      2.35091726     20.36142252
H       1.56014558      5.03172616     18.40181155
O       7.51809556      3.98159910     20.85874612
H      11.43150138      1.33227731     19.14794202
H       2.56984706      3.56798254     19.80473570
O       2.64396933      2.78601109     20.41368438
H       7.29583040      4.82592800     21.31944579
H       5.72570567      1.40420534     20.97082666
H       2.71600508      4.30270658     17.48436729
H       7.20909082      3.22641550     21.32612541
H      10.90580684      2.36342611     20.23083635
O       2.49689923      4.71464876     18.37837815
O      -0.54217239     -1.11024268     20.94603912
O       6.45390715      1.49130756     21.66445386
H       4.17508475      0.28549470     20.01798904
H       9.40177811      3.73575134     21.02904559
H      -0.06396218     -1.31251482     21.82716657
O       7.86254526     -1.11657021     20.76690623
H      10.84947316     -0.12781864     20.91045647
H       8.83828752     -1.05342480     20.71902907
O       3.16725389     -1.22287663     19.62459644
O      10.38742241      3.83404937     20.91334545
H       6.04514507      1.57152940     22.59996847
H       7.51819424     -0.37326754     21.29819983
H       7.44636553      7.10229583     21.54615840
H       3.15459469      3.21569441     21.89051275
H      10.57039747      4.72713365     20.48292257
O       7.07276192      6.33753334     22.20912790
H       2.90136465     -1.00511615     18.69984461
H       5.67820398      6.65163860     23.07595099
H       7.55589845      6.44741463     23.07210523
O       3.37078850      3.50449486     22.89767387
O      11.67990888      7.69407888     23.32095797
O       4.90712288      6.60921888     23.69411675
O       8.64949428      2.35886601     24.05434845
H      10.65975737      4.10998914     22.64137574
H       2.86114052      4.40509415     22.98983684
H       5.13253759      6.05667943     24.45300502
H      12.42671845      7.03945559     23.25476690
H       7.98602344      3.04457904     24.26175146
H       9.45213910      2.90350506     23.80283449
H       3.76516839     -1.98211104     19.59872947
H       0.99810989     -1.26019710     23.83666821
H       4.97109656      3.33112513     23.55742963
O       2.44608483      5.95958054     23.56246584
H       3.40324751      6.28881498     23.50427003
O       5.78405135      2.82094732     23.98397548
O       2.47514519     -0.38087454     24.35778000
O      10.70129090      3.92504530     23.59844990
O       1.23684893      2.03880732     24.46943152
O       9.17549728      7.18970376     24.30432566
H       6.35326721     -0.40652584     24.49460479
H       4.97733164      8.24999469     24.56075373
H      11.57949330      2.52017722     24.10191051
H      10.12364036      7.37486303     24.01630616
H      13.44008972      5.80903694     24.56247971
H      10.71564795      4.72618473     24.19809076
H       3.54796479     -0.22754068     24.31534266
H       7.77357297     10.33751780     24.41450918
H       2.14352305      0.53464173     24.22228621
H       5.45346546      2.42633074     24.85442003
O       7.62863254      9.36011753     24.58221012
O       5.14555728      9.17710871     24.57027938
H       2.04256083      2.65745399     24.16572553
H       8.67662720      8.08177400     24.49512898
Pt      2.26137994      9.40087500     26.78883378
Pt      5.02630444      9.44676472     26.66840407
Pt      7.91225486      9.38535853     26.77779986
Pt     -0.43356173      9.31280234     26.86315742
Pt      7.96146905      4.59884443     26.76516376
Pt      3.70915706      6.80747872     26.88088515
Pt      9.29056890      6.86488483     26.65729238
Pt      6.48918715      6.86361245     26.80883687
Pt     10.73286557      4.58953023     26.94920652
Pt      0.83191001      6.89277502     26.79434651
Pt      9.30066246      2.20722705     26.65239892
Pt      6.63382021      2.22054072     26.87802426
Pt      2.27518113      4.59853894     26.74297780
Pt      5.05278390      4.51598999     26.83255307
Pt      0.89802069      2.15455867     26.71542308
Pt      3.62331553      2.19892488     26.83213512
H       7.64738432      2.41453089     10.72340043
O       1.18819379      7.43609380     14.80710404
H       1.94759533      6.87451823     14.39294121
H       0.44803743      6.78110007     14.83406535
H       8.86627085      4.15027575     10.18230525
