   243
 Tv_1:  11.152900   0.000000   0.000000 Tv_2:   0.000000   9.658700   0.000000 Tv_3:   0.000000   0.000000  26.829700
Pt      5.34832699      8.07869607      2.26590551
Pt      6.85002837      0.92502559      2.27347225
Pt     -0.28031391      8.20585404      2.28447570
Pt      8.07803387      8.05069512      2.04324990
Pt      8.24544735      3.35847311      2.36982633
Pt      2.48661189      8.06927235      2.34898345
Pt      9.63626167      5.70180039      2.33573055
Pt      6.85550894      5.53524010      2.20135963
Pt      5.38272562      3.18695925      2.36821967
Pt      4.04520350      5.51036930      2.32118902
Pt      9.56088975      0.89574313      2.21357918
Pt      1.32331191      5.67095841      2.45423767
Pt      1.21927223      0.80924838      2.44673149
Pt      2.62833922      3.18963353      2.33531464
Pt      4.14569962      0.79134388      2.29507969
Pt     -0.07378520      3.24260466      2.32117828
Pt      5.55674677      6.53287630      4.43315389
Pt      8.32836019      6.68938402      4.56343881
Pt      6.95954992      9.03541535      4.45573999
Pt      7.04343905      4.13013542      4.65302719
Pt      8.44927527      1.73206913      4.54960036
Pt      5.60488133      1.67560915      4.67869436
Pt      9.84502600      4.21705148      4.58751584
Pt      9.76420922      9.05045796      4.52898513
Pt      1.44501028      8.95410558      4.77961962
Pt     -0.00198214      6.63403483      4.70620669
Pt      2.82045312      1.72331797      4.69049686
Pt      2.85909958      6.56770693      4.70949959
Pt      4.21454144      8.98363467      4.56695690
Pt      4.22026280      4.09087803      4.69149429
Pt      0.00944381      1.70206138      4.57430736
Pt      1.46225081      4.17112029      4.69070759
Pt      7.16408297      2.78761810      6.88556342
Pt      9.99348409      7.45280374      7.09985819
Pt      8.53790482      5.13566187      6.93087835
Pt      8.49732107      0.36735842      6.91191407
Pt      5.68721465      0.40487976      7.08653285
Pt      2.98063932      5.08253079      6.98771162
Pt      2.92510564      0.31406493      7.05008028
Pt      7.16709690      7.53921330      6.74595264
Pt      4.33025858      2.74964244      6.98161788
Pt      1.48076813      2.61574224      6.97819976
Pt      0.23134568      5.01436426      6.89701817
Pt      9.86944138      2.71931567      6.82978295
Pt      5.66346205      5.05460327      6.92277453
Pt      0.21303002      0.34108577      7.19162965
Pt      1.57147194      7.51755088      7.09505322
Pt      4.42521501      7.54617952      6.93616880
O       6.27418265      5.52050689      9.52759640
O       1.37439987      7.26215847      9.28188104
O      -1.61767057      3.48412097     11.40531979
H       3.73673028      3.29696160      9.44611708
H       4.70806864      6.59259743     10.29149837
O      -0.16530334      0.63777459      9.51424032
H       0.38995244      7.30438116      9.43223516
H       5.35542775      2.61858777      9.60321799
O       8.50405343      0.46631871      9.01710421
H       9.91409044      0.60199598      9.62093355
H       0.24142488      1.48830437      9.87965699
H      -1.75135859      4.33528079     11.83644717
H       7.43494123      2.02701162      9.70803054
H       0.04837246      3.35717041     11.18892995
H       7.82727813      9.58489393      9.43933663
C       5.78022766      6.40777142     10.20326977
H       1.72247807      6.36389936      9.30415213
O       6.78466895      2.65844471     10.04928966
H       3.60792583     10.50576289      9.74695704
H       6.39213793      7.11580413     10.77276036
O       5.88632243      8.38114270      8.29095665
O       4.35114762      2.54991138      9.23780382
O       0.88993315      3.01401581     10.91786822
H       1.26671961      2.39664415     11.73340085
O       8.85598078      4.98873462      9.16248261
O       3.29240708     -1.36342987     11.90244418
O       2.56763276      4.64660136      9.62281417
H       1.90702241      4.05914042     10.08593097
H       7.84135867      5.12614749      9.41012963
H       3.37111601      3.80438970     15.02592887
H       2.39268809     -1.51461283     12.34138450
H       8.25355295      7.77757115     11.80295499
H       8.38583906      9.28107954     11.97187391
O       8.33487312      8.56116103     11.23680561
O       2.90482474      3.35274069     15.80072233
H       2.93821062      5.06907777     10.47356611
H       9.02618485      0.27208537     13.90074905
H       3.39106251      2.47486783     15.84274654
H      11.41615374     -0.42722503     10.81889138
H       9.35295098      8.04649909      9.59830856
H       8.95086965      1.46313250     12.79143385
O      10.03781423      7.39718428      9.21279200
O      11.66917909     -0.65727629     11.73149547
O       8.43863769      0.68679115     13.21669184
Cl      3.59637879      4.98871000     12.91307801
H       0.83688026      1.83389156     13.70297647
O       6.91497068      4.01780777     14.83662705
H       6.59392005      3.59730144     14.01725678
Cl     -2.49617036      6.42813013     13.55162401
O       5.93710929      2.92897921     12.59806808
H      -1.86496568      5.90841581      9.34808847
O       1.50161072      1.42164012     13.02718777
H       7.44586464      4.78323530     14.53577665
H       5.06413412      3.48467314     12.61902890
H       5.71359900      1.98611696     12.81307187
H      10.88900602     -1.11576244     12.05337432
H       3.87280761      9.99246840     12.81417217
O       0.48634246      2.46847598     15.58949993
H       1.36490974      2.96542535     15.50980313
H       3.83219921     -2.02651413     12.29861771
H       1.01146712      0.62687980     12.64928961
H       5.47123017      6.40329824     19.83797743
H       4.53353096      0.74113448     15.18823607
H      -0.17835636      3.13641680     15.38478818
H      10.06995789      5.35871489     14.61432854
H       4.93432420      5.48411392     18.71859375
O       4.60821338      0.49748585     13.41368318
H       5.12580090      9.27474845     13.40123464
O       4.45108397      0.87204546     16.16862328
O       3.01700422      9.77109609      9.52556156
O       5.67679898      6.08457171     18.90053808
H       3.74477277      0.27322956     16.52087138
H       4.88425434      6.80077115     14.33352127
O      10.67252601      5.12597924     15.37414325
O      -1.27627162     -0.89549815     15.05481187
O       5.45607186      7.49594756     13.98691159
H      -1.40148642     -1.84124307     14.82324651
H      -0.63572054      0.24722245     17.61551054
O       0.26698814      0.68485084     17.66565968
H       3.22871107      9.17375541     10.28635555
H      10.15863038      5.63948224     16.06640262
H       7.26975806      1.80595743     17.02599880
H       5.74594670      0.34245520     16.60746528
H      -0.32516647     -0.89920415     15.32231137
H       0.26265414      1.44026735     17.02736980
H       9.46089712      7.29233748     17.77015448
O       6.74633134      0.22592675     17.04633387
H       6.35311964      7.16260427     14.11103781
H       7.02472386      5.17507061     18.71606203
H       7.25115679      3.23225756     16.16815358
O       9.79678006      6.34677979     17.76708829
O       7.63501674      2.74351874     16.95796877
O       2.56965611     -0.67069299     16.86896332
H       9.11560165      5.72729755     18.07559755
O       7.83129187      4.56447298     18.59647707
H       2.30495241     -1.37263534     16.24202945
H       7.65521944      3.46429489     17.80610744
H       1.69688278      9.49155611     17.15099501
H       8.32989962     -0.45947505     17.33320025
H       0.28965693      5.87386596     18.52859793
H       6.50094202      0.02138393     17.99563414
O       9.15324608      9.02040521     17.91487521
H       8.11770638      4.25940517     19.56110371
O       1.03236622      5.83908277     19.23218587
O       5.61907479      0.18894632     19.59212699
H       4.82959138      0.82428115     19.49162724
H       8.85247973      9.26241699     18.80678770
O       0.98379337      1.38412783     20.23134562
H       1.16951984      6.78964730     19.50311678
H       2.84292070      1.92932234     19.87696341
H       2.81867039      5.21564712     18.67065120
O       8.70884041      3.81852066     20.90805030
H      11.79909147      1.12407845     19.28135671
H       3.62066175      3.15480046     19.23040493
O       3.76668576      2.27894642     19.68788188
H       8.41877367      4.63324875     21.44755155
H       6.93744792      1.01888394     20.51318209
H       3.19634585      4.30163687     17.45571284
H       8.05904220      3.13364625     21.11483915
H      11.69074848      2.10772759     20.63443481
O       3.50853220      4.58931091     18.37208552
O       1.26272140     -1.62935250     20.81246781
O       7.62255022      1.27200337     21.20306030
H       5.21526481     -0.67809709     19.86916199
H      10.68513321      3.79968854     20.93292241
H       0.85486137     -1.89643595     21.72284328
O       9.17403927     -1.00820024     20.74615402
H      12.23180439     -0.65491675     20.78287799
H      10.02212271     -0.85389997     21.06099010
O       4.26695749     -1.92914633     21.01567511
O      11.70779865      3.98754282     20.96459907
H       7.09809472      1.35889569     22.05712384
H       8.55451506     -0.31731342     21.12866250
H       8.57170415      7.02460832     21.52880382
H       4.03448110      2.73895200     21.50516660
H      11.99141726      4.76143070     20.34461642
O       8.38303081      6.31327855     22.18547527
H       4.56661761     -1.33974565     21.68846714
H       6.79144352      6.62355364     23.10506399
H       8.78955021      6.53985712     23.13150245
O       4.05613238      2.77112079     22.46169955
O      11.86729176      7.54437069     23.53999679
O       6.15119011      6.96693400     23.78696171
O       9.80167182      2.05547282     23.58603898
H      12.05983798      4.72965415     22.58000091
H       4.13453499      3.71653240     22.83226060
H       6.70558689      7.00930236     24.61840912
H      12.07828960      6.68368167     23.88958750
H       9.55725066      2.97650317     23.80598091
H      10.73578562      1.97534353     23.77511291
H       3.30235221     -1.67526699     20.99129570
H       1.37683586     -1.48220707     23.93345558
H       5.64086918      2.54952928     23.45615639
O       4.09281962      5.24285768     23.71076937
H       4.87106159      5.86743824     23.63787354
O       6.53915099      2.13017017     23.61936120
O       2.55619547     -0.07361308     24.44080415
O      12.30203909      4.99777154     23.52136224
O       1.51049010      2.20265228     23.32054733
O       9.27125101      7.28003317     24.46049676
H       5.54313892      0.51833729     23.51153728
H       5.36476727      8.66022617     23.70161197
H      12.75341601      3.15886103     23.76616099
H      10.23862603      7.34079785     24.29176234
H      15.23727913      5.23594079     24.71891916
H      13.26315942      4.98226945     23.63057343
H       3.60762590     -0.13870142     24.11849305
H       8.80035109     10.40209566     24.07208875
H       2.21309014      0.84320017     24.25632445
H       6.66576560      2.32933617     24.55499895
O       8.21562691      9.64888389     24.36493444
O       4.92195298      9.42978527     23.28091549
H       2.34528126      2.24747395     22.70562591
H       8.72133720      8.77982778     24.25201308
Pt      2.41964901      9.43912905     26.74134549
Pt      5.16842307      9.46413086     26.61091146
Pt      7.92202561      9.47525437     26.57257400
Pt     -0.31758615      9.56591561     26.83961441
Pt      8.00245963      4.58465930     26.76869802
Pt      3.80572388      7.18966177     26.77976898
Pt      9.40522449      6.90451194     26.53110083
Pt      6.61381299      7.02823064     26.78413396
Pt     10.85941240      4.55625337     26.72838429
Pt      0.98326683      7.01728734     26.95613582
Pt      9.44898464      2.30019017     26.81915511
Pt      6.71111974      2.16235452     26.79771081
Pt      2.55292048      4.61103953     26.77666576
Pt      5.26151034      4.63103333     26.67956936
Pt      1.12389294      2.23195704     26.75981245
Pt      3.81103205      2.19140237     26.87276298
H       6.75320780      2.57821459     11.01563472
O       1.80723875      6.95745074     14.98373280
H       2.33848649      6.30051004     14.51505509
H       1.08241680      6.30540460     15.26471146
H       9.18827215      3.67730421     10.52183275
