     246
Tv_1:  11.152900   0.000000   0.000000 Tv_2:   0.000000   9.658700   0.000000 Tv_3:   0.000000   0.000000  26.829700
 Pt         5.3018162500        7.8789671100        1.9689606700
 Pt         6.7823390600        0.5915784700        1.9892276300
 Pt        10.9279097300        7.8254393000        2.1042551000
 Pt         8.1095648200        7.8818997800        1.9537128800
 Pt         8.1222123400        3.0350683100        2.1192213700
 Pt         2.5508685200        7.8470562700        2.0613358200
 Pt         9.5361567400        5.4021418000        2.0070931200
 Pt         6.7789877900        5.4530236500        2.0863923900
 Pt         5.3600503200        3.0612369700        2.0344847300
 Pt         3.9555730300        5.4527398800        2.0622325500
 Pt         9.5388312400        0.5970779700        2.0696720100
 Pt         1.1390765500        5.4218224100        2.0468663100
 Pt         1.1552142500        0.5727586300        2.0587344100
 Pt         2.6331611400        2.9812988700        2.0304630800
 Pt         3.9880302400        0.6043783200        1.9274930000
 Pt        10.9846373200        2.9868634600        2.0950275000
 Pt         5.7060363200        6.5707086500        4.3657697900
 Pt         8.5833277800        6.5283057800        4.2945353800
 Pt         7.2263657000        8.9214741700        4.2950766100
 Pt         7.1506252600        4.1827033500        4.4255372000
 Pt         8.6161811400        1.6603459600        4.4048168400
 Pt         5.8278798600        1.7008635600        4.3016912600
 Pt         9.9161109900        4.1016005200        4.3332867500
 Pt         9.9680433100        8.9343191900        4.3868499800
 Pt         1.6074369900        8.8956473900        4.4026774600
 Pt         0.2524629500        6.4331157000        4.3942338700
 Pt         3.0634278300        1.6485277600        4.3090905300
 Pt         2.9608960000        6.5251690000        4.3907233300
 Pt         4.4424496600        8.9415099600        4.3188632000
 Pt         4.4131875200        4.0862886200        4.3724700900
 Pt         0.3056912500        1.6252155900        4.4135391400
 Pt         1.5900224500        4.0573920400        4.3502405700
 Pt         7.4495535800        2.7159847500        6.6853435700
 Pt        10.3118562300        7.4889321100        6.6276835500
 Pt         8.9516300300        5.1124320900        6.7308133200
 Pt         8.9703631900        0.2796562200        6.7840504400
 Pt         6.1741121800        0.3211653200        6.6353053000
 Pt         3.2864318700        5.0570612400        6.6742311000
 Pt         3.3035489000        0.3154132400        6.6498437200
 Pt         7.5641566000        7.5526019600        6.6476694100
 Pt         4.7226774600        2.6674270700        6.7253545100
 Pt         2.0005145200        2.6930021100        6.6938052900
 Pt         0.5527023300        5.0832687700        6.7937757900
 Pt        10.2426752700        2.7207132000        6.6396421200
 Pt         6.1981257600        5.1140411300        6.7916807100
 Pt         0.5819899500        0.3121318300        6.7783234900
 Pt         2.1225572500        7.5058098200        6.7567763300
 Pt         4.8758707600        7.5588730400        6.7336077400
  O         5.8942407200        5.2786383600        9.0111053500
  H         9.4674457300        3.2161022800        9.1071504900
  O         2.2439565300        7.7594109200        8.9485114600
  O         0.2784014900        4.8996879100        8.9997365000
  H         4.5791950000        3.1432591700       10.0621765600
  H         5.5180895800        8.4580779800        9.2970222200
  H         7.6122681500        6.4452172600        9.4358010700
  O         0.5358850500        0.0843111800        8.9911710300
  H         1.5759682400        8.4544733400        9.2278515700
  H         5.3529524600        6.1142485900        9.1055514400
  O         8.9845674600        0.2007236000        9.0077604200
  H        10.7269531300        9.6036146600        9.2096554400
  H        10.7795458800        5.6043044200        9.4004009300
  H         0.8218743900        1.0248399100        9.3799541400
  H         1.1455010000        5.1342637900        9.4930964400
  H         7.1673773300        2.5758914800       10.2526547000
  H         0.7285703300        3.0993911400        9.4815102200
  H         8.9899585800        1.1829686600        9.3042700900
  C         7.1115762800        5.5292286100        9.7785747800
  H         2.2327338700        6.9324784500        9.5448127800
  H         9.5470884700        2.7826029000       10.6940350600
  O         9.0478695000        2.6684292800        9.8070693300
  H         3.9234831900        8.0194819000        9.2019754600
  H         8.1146313600        9.4766310500        9.3802638000
  H         7.7729103000        4.6750060200        9.6121378400
  O         4.8548133800        7.7565125300        8.9438527500
  O         3.6508831000        3.3419919300       10.3300399500
  O         1.1963569200        2.3355345400        9.8917438600
  H         2.1672562100        2.5735278600        9.8650240700
  H        10.5414135900        7.3624863200       10.6128431200
  O         9.9760207100        6.6282439500       10.2495658700
  H         3.5494431500        2.9288633800       11.2548144200
  O         6.3110531900        2.2215486500       10.5848726300
  O         2.3409117600        5.6076638300       10.3825293500
  H         3.0094975000        4.8466894300       10.3637751000
  H         6.8375892700        5.6205578600       10.8387016500
  H         5.0521535300        7.9963068100       11.9603230400
  H         6.2776578700        2.4568927700       11.5630321300
  H         9.7163813500        6.1547700500       11.0928847200
  H         6.5619104300        8.7117938300       10.9038087500
  H         6.4030645600       10.2224195900       10.2907386300
  O         6.6534878500        9.2719856800       10.0505172100
  O         6.0032979100        7.6999147300       11.9627967600
  H         2.0072895500        5.7235714900       11.3353236100
  H        10.7114150800        2.7420549800       12.7409455400
  H         6.1553412100        7.3967405700       12.9059550300
  H         8.3973590600        9.4354556300       12.5674573700
  H        10.6842355300        9.0246024300       12.2309051000
  H         9.4170207300        1.9124281700       12.5376783100
  O         0.1951888400        8.4260327400       11.7973474700
  O         9.2171184900        0.2117057100       12.8657760500
  O         9.8255763000        2.7803502400       12.2595163700
 Cl         3.2075202200       -0.7181182400       11.7795071800
  H         2.5440157600        2.2923898700       13.1970895300
  O         9.6694003700        5.4817227600       12.7300445000
  H         9.5057000500        4.5020529800       12.6980148600
  O         1.1899009000        6.0172375000       12.7350095600
  H         1.0161089300        6.9919410100       12.7018642400
  O         5.8549651600        2.7862647700       13.2085516800
  H         1.0769689400        8.8827415200       11.7844388700
  O         3.3691528900        2.1250587600       12.6334787600
  H        10.6639980800        5.5552272200       12.8317220900
  H         4.9138978500        2.4369459600       13.1154201400
  H         6.2934982000        2.1722989800       13.8665374200
  H         9.2137712900        0.1021122000       13.8799288900
  H         5.8842296800        0.5070088200       15.1544438100
  O         6.1155189200        6.9743431400       14.5396682100
  H         1.6752565300        5.8046949100       13.5929287100
  H         5.6446493600        6.1032782200       14.7390274100
  H         3.8807633500        9.1466358500       14.4106434700
  H         3.2941823600        1.1596818400       12.3489591100
  H         9.0492837200        6.2724846200       14.2036239300
  H         5.2486614400        4.0364956700       14.3230140000
  H         5.5253976800        7.7089062500       14.8801128200
  H         7.6967729400        6.7883233500       14.8903242700
  O         6.6574776200        1.1399433300       15.2164399500
  H         7.4800286900        0.5750518300       15.3232352500
  O         5.0145430100        4.6356425700       15.0865236900
  O         4.5840740200        9.1004401900       15.0930809600
  O         8.6955175900        6.7329278100       15.0156157200
  H         4.0198178400        4.7379615300       15.1036876600
  H         8.9641590200        8.3996426500       15.3631294500
 Cl         0.8922341300        2.5000931500       14.2709889100
  O         1.4076682200        9.1287946800       15.5187190200
  O         8.9590804100        9.3968590800       15.4205502200
  H         0.9180185500        9.8884190500       15.1363874800
  H         1.7843855200        4.2680187700       14.9686226100
  O         2.2903976600        5.1299689100       15.0305164700
  H         4.1335378500        9.2811921000       15.9855488200
  H         6.5404373900        2.3469148900       16.4279890300
  H         5.9987075000        3.8169643500       16.3615948900
  H         1.9584244500        9.5392608400       16.2325299700
  H         1.8509407100        5.6687923200       15.7542568900
  H         0.9690363800        7.6645638500       16.3213145100
  O         6.5361139200        3.2107036700       16.9394836600
  H         9.4110385400        9.6793828800       16.2924323600
  H         9.2236654600        6.1721094000       16.4951565100
  H         8.3504391400        3.2422180700       17.4820160300
  O         1.0449142800        6.8048800800       16.8358212400
  O         9.2983869800        3.2704585100       17.7557207100
  O         3.3969058900       -0.0338736600       17.3596197300
  H        11.2676230900        6.5300195200       17.0840631300
  O         9.6857609500        5.9138284100       17.3501199100
  H         3.5963491400        0.7457570200       17.9479525900
  H         9.5802452600        4.1900113000       17.4817348800
  H         3.2260642000        8.8523133900       17.9741862300
  H         9.9163742000        1.5822342000       17.5979133500
  H         1.9407547300        7.2214305300       18.2229852700
  H         4.6124511100        2.5778619000       19.0519022900
  O        10.0013850700        0.5978616000       17.6699768900
  H         9.0682823200        6.1459265000       18.0933037900
  O         2.6275728000        7.5330336700       18.8900552700
  O         3.9327053000        1.8875581900       19.2099001400
  H         3.1602154900        2.4101718300       19.5875568000
  H         9.5395898700        0.3803471700       18.5148717800
  O        -0.3860399900        3.3416957700       20.1612620200
  H         2.1667782200        8.0449630300       19.6118664900
  H         1.1904410500        3.5302813700       20.1568737500
  H         3.5024112600        6.3371797800       19.7165642600
  O         7.9136980200        6.0855787100       19.5201394100
  H        10.2150428500        3.2551020200       19.3435923900
  H         2.6242884800        4.3901504700       20.3121080700
  O         2.1839257100        3.4962401200       20.4063170400
  H         7.3767219600        6.8631996600       19.8464895000
  H         6.2572109200        3.6848319600       18.5033202600
  H         4.6391207900        5.2335460700       19.9782593100
  H         7.2424199000        5.3488052500       19.4286204000
  H        10.3470823900        4.0803045600       20.6754673600
  O         3.8577267900        5.6776940100       20.3866552000
  O         1.9740151400       -0.6109071200       21.0533442500
  O         6.0618336500        4.0591507400       19.4154627600
  H         4.5572817300        1.0023203300       20.6198386500
  H         8.8441402000        5.6618224400       20.8776166300
  H         2.5759461400       -1.0142931400       21.7279066300
  O         8.6667337000        9.8534793300       20.2497002000
  H         1.1118388200        9.1706957300       21.4862291800
  H         9.3037674000        9.7344611400       20.9973478900
  O         5.0860317100        0.6883611300       21.4038429500
  O         9.4462347600        5.2635431000       21.5802075400
  H         6.4991183400        3.4361369800       20.0741480900
  H         8.2087727600        1.0546154800       20.4788174200
  H         7.4393382800        8.7295243300       20.6903518000
  H         2.1531055000        3.2600704700       21.9378754200
  H         9.8421769500        5.9932691100       22.1276404000
  O         6.6556600400        8.1149784400       20.8338100600
  H         5.4847788200       -0.1803462400       21.1349289600
  H         4.1770618500        7.0371601000       21.8530652300
  H         6.7956938900        7.6365303100       21.6966908400
  O         2.0668968000        3.2621405500       22.9668547400
  O         9.9490162300        9.4777588200       22.7005206800
  O         3.8403432300        7.5483419000       22.6298074300
  O         7.1400464800        2.2961297500       21.1422579600
  H         8.7862346900        4.2571094500       22.6633829900
  H         1.1677566300        2.8504805100       23.1654290700
  H         3.1919326500        6.9038600600       23.0412675200
  H        10.3970132100        8.6276960000       22.9881057300
  H         6.3412513400        1.7045688400       21.3692725100
  H         7.5243962600        2.6571551000       21.9837470100
  H         3.1824070700        2.5904316100       23.6746477800
  H        10.4455408700        0.6239965400       23.0491125600
  H         1.9846153800        4.8867537600       23.2962541800
  O        -0.4714516000        6.9846623100       23.3133624300
  H         0.4553379400        6.5840384200       23.3538192300
  O         1.9473548500        5.8702646700       23.5356047000
  O         4.0183394400        2.1832548100       24.1721880000
  O         8.5535286000        3.4369607300       23.2204836300
  O        10.8739002000        2.1338239100       23.5520489800
  O         7.0531289400        6.6381510300       23.1608378700
  H         6.9835367100        9.4604179400       23.9173354700
  H         4.7094066500        8.6440724400       23.6044834700
  H        10.0245137500        2.6777431300       23.4384950000
  H         7.4784871400        7.3041288800       23.7513543700
  H        10.3286169800        6.8351062500       24.2277797100
  H         8.2215285700        3.7640520400       24.0909665500
  H         4.7174275300        0.5659232600       23.8792769200
  H         8.6526371700        9.4291913300       23.6121728500
  H         4.7093543500        2.8780237200       24.1455565900
  H         2.0230949700        5.8706232000       24.5288588500
  O         7.8724771600        9.1236033600       24.2048069100
  O         5.1894496700       -0.2812443900       24.1107638400
  H        -0.1819643400        2.0373341400       24.5412132500
  H         6.2942826200        6.3231048700       23.6900941000
 Pt         2.3178177800        9.2436122100       26.5185166300
 Pt         5.1345829100        9.1973600800       26.3921426800
 Pt         7.9470873900        9.2400485000       26.4061699400
 Pt        10.7471202500        9.2569017800       26.5466419100
 Pt         7.9356918200        4.4407593100       26.4825042600
 Pt         3.7339724300        6.8287293800       26.5016593700
 Pt         9.3470148100        6.8214635500       26.5159414400
 Pt         6.5506302500        6.8072898200       26.5572404600
 Pt        10.7123319400        4.4125421500       26.4915624400
 Pt         0.9925287500        6.8644166100       26.5407466400
 Pt         9.3123803100        2.0321255200       26.6032250000
 Pt         6.5532124000        2.0719341100       26.5951056000
 Pt         2.3168452400        4.4495179300       26.5843882100
 Pt         5.1758805800        4.4635495000       26.5020455300
 Pt         0.9715144300        2.0368246700       26.5577010400
 Pt         3.7043487300        2.0585794000       26.4261113400
