     246
Tv_1:  11.152900   0.000000   0.000000 Tv_2:   0.000000   9.658700   0.000000 Tv_3:   0.000000   0.000000  26.829700
 Pt         5.4857078991        8.0777900886        2.0598138828
 Pt         6.9588981949        0.6836596026        1.9915758969
 Pt        11.1358946705        7.8629293407        2.0979290681
 Pt         8.2306267966        7.9354958026        1.9620022535
 Pt         8.0813116945        3.1128562169        2.1797285824
 Pt         2.7946241413        7.8994466286        2.1401247801
 Pt         9.6939804469        5.3924797885        1.9924298991
 Pt         6.8997220251        5.6394562111        2.0174320050
 Pt         5.2525810320        3.1719642728        1.9934149089
 Pt         4.0847935323        5.5820691861        2.0980128700
 Pt         9.7111782869        0.5751501954        2.0172331290
 Pt         1.2570459808        5.4131767849        2.0643730896
 Pt         1.3253173733        0.5631732589        2.0862143044
 Pt         2.6550060971        3.1241420637        1.9958442099
 Pt         4.1976120313        0.7353521345        2.0436440104
 Pt        11.0371117585        2.8850110351        2.0810515347
 Pt         5.5480899771        6.5697917639        4.3966133935
 Pt         8.4693211193        6.4454076364        4.3122236947
 Pt         7.0918556341        8.8630844695        4.3056900641
 Pt         6.8233993918        4.2089263633        4.4192109964
 Pt         8.4358166772        1.5579968170        4.3804706280
 Pt         5.6611083294        1.7222932551        4.2107232066
 Pt         9.7132855985        3.9532502703        4.2955738621
 Pt         9.6973847160        8.7672547195        4.2773960032
 Pt         1.5297066373        8.9120037380        4.4627597942
 Pt         0.0436051838        6.3658308044        4.4640784163
 Pt         2.7626325177        1.5748658357        4.2239325714
 Pt         2.6854857141        6.5349983379        4.4516271354
 Pt         4.3613567600        8.8866591949        4.4934706935
 Pt         4.0943179315        4.0851333332        4.3540845645
 Pt         0.0288604694        1.4883620963        4.3989275783
 Pt         1.3705354816        3.9676394530        4.2848065434
 Pt         7.2193581591        2.6622132287        6.6377407152
 Pt        10.1071400733        7.4283529848        6.6915021483
 Pt         8.6194354300        5.0498872040        6.6835545366
 Pt         8.7180817371        0.2490487294        6.8785113463
 Pt         6.1325736759        0.2575467580        6.6365823384
 Pt         3.1404464477        5.0283350310        6.7209529218
 Pt         3.0486910316        0.3441103955        6.7673911237
 Pt         7.3587253892        7.4780537528        6.7325291807
 Pt         4.5141628262        2.6908806887        6.5435505720
 Pt         1.8669869142        2.7286898418        6.5434649134
 Pt         0.3429831304        4.9830228690        6.8631208658
 Pt         9.9821935191        2.6138502153        6.5899805078
 Pt         5.9993463759        5.0903285523        6.9235975546
 Pt         0.3287400501        0.2791762586        6.8060133397
 Pt         1.9150018470        7.4748712902        6.8693351597
 Pt         4.6579992046        7.5537167658        6.8128723508
  O         5.5857540636        5.3017077647        9.0816562079
  H         8.8754801148        3.6018596167        9.4265309694
  O         1.9963054014        7.8933970203        9.0088626041
  O        -0.0752390576        5.0390994308        9.0568504147
  H         3.8819116602        3.1257711741       10.1385204524
  H         5.4271433006        8.6403111755        9.3686214357
  H         7.3005597897        6.5741219801        9.7364347981
  O         0.3864362002        0.0906134664        9.0525497410
  H         1.3202801515        8.7166934030        9.1258736373
  H         5.0222306843        6.0827574020        9.2418135551
  O         8.7299103422        0.3354097319        9.0219436825
  H        10.5808361371        9.3858229529        9.2898879895
  H        10.4258390871        5.7198971724        9.4376791655
  H         0.4888674035        1.1114397311        9.4785074697
  H         0.7975223993        5.3203314584        9.4973882580
  H         6.5055881170        2.5950839617       10.5190899953
  H         0.0777030646        3.1125492986        9.4189248924
  H         8.8130723716        1.2903289241        9.3280525367
  C         6.7278147850        5.6599102358        9.9873331967
  H         1.7640435311        7.1014840516        9.5798699638
  H         8.8089929624        2.8595565744       10.9140402437
  O         8.4978111459        2.8430828968        9.9502723743
  H         3.8265158168        8.1751390224        9.4678757127
  H         7.8003711117        9.8055318364        9.4237791920
  H         7.5312056266        4.9200898457        9.8475524553
  O         4.7881169280        7.8713932634        9.2830669216
  O         2.9739590324        3.2677895837       10.3895571189
  O         0.4214816990        2.3761064907        9.9828895841
  H         1.4085140083        2.6533145969       10.0313776649
  H        10.1645596684        7.4977088329       10.8081431196
  O         9.5862786579        6.8435877785       10.4029721123
  H         3.0120133906        3.0134855255       11.4241552297
  O         5.5964178053        2.3454060434       10.6391671835
  O         1.9540396409        5.7004770324       10.6830772642
  H         2.4638635271        4.7846053486       10.4894282222
  H         6.3771013355        5.5966383085       11.0490588624
  H         5.4462459309        9.0230142757       12.3691115904
  H         5.7243890505        2.1615007377       11.6678804929
  H         9.3768084091        6.2807721653       11.2078535984
  H         6.3284152766        9.1116680446       10.7494084112
  H         6.1246033077       10.5435565045       10.1669899970
  O         6.4872437018        9.5846288234        9.9059232684
  O         6.3408160436        8.6050614617       12.2907021651
  H         1.5957072872        5.7189535456       11.6402742358
  H        10.4685232781        2.4678464297       12.9959806849
  H         6.2440835962        7.6867931073       12.7129816196
  H         8.1809903314        9.2167271250       12.9767847215
  H        10.8053327097        9.0946413138       12.5509452689
  H         8.9851087492        1.8517378803       12.9238116521
  O         0.1499854980        8.3652222729       12.1393520358
  O         9.0462483837        0.0410464263       13.1544390318
  O         9.5225431971        2.5634467536       12.5170454533
 Cl         3.1962949025       -0.4852596233       12.2027662369
  H         2.3840258382        2.4692053975       13.3815165471
  O         9.4215921438        5.4106386543       12.5730243222
  H         9.0082113464        4.5321487999       12.5603695069
  O         0.9339528087        5.9630467574       12.9752310906
  H         0.5508392523        6.8437036913       12.8430960250
  O         5.9525259355        2.5714837053       13.1478660542
  H         1.1396507096        8.5236569719       12.2316717596
  O         3.1525334295        2.3588474944       12.7514833146
  H        10.4053959281        5.1389392159       12.7373348754
  H         5.2822581601        3.1931023515       13.5360415761
  H         6.3933022755        2.0692237683       13.9074225257
  H         9.2015906686       -0.2442413008       14.0762869087
  H         5.9902289468        0.1249046519       15.4320519328
  O         6.0481921578        6.6733698317       14.0912234364
  H         1.3942818515        5.8138117610       13.8252226208
  H         5.4842750944        5.8572447950       14.2169207478
  H         3.9783286616        9.1784620403       14.5880088030
  H         3.2205593957        1.3880384734       12.5981896960
  H         9.0177674014        6.1655017065       13.9769887334
  H         5.4358143382        4.4048420562       15.6076732405
  H         5.5081915945        7.4580243240       14.4427408855
  H         7.7241861127        5.9498480564       14.7894425068
  O         6.7543323103        0.7307165617       15.4608600497
  H         7.5462444214        0.1983795900       15.7990059730
  O         4.9067464882        4.4926818603       14.7826800063
  O         4.5656897704        8.7739909262       15.2249836567
  O         8.7007193181        6.2076778213       14.9470127142
  H         3.9373117352        4.4559906868       15.0061710729
  H         9.0087283436        7.9400458804       15.6395351708
 Cl         0.5095636893        2.5327619089       14.5284951501
  O         0.8514747058        9.6269713458       16.6028620581
  O         9.0383427593        8.9232494861       15.8874797964
  H         0.6008571036       10.0747060925       15.8204725492
  H         1.6737117166        4.2962367871       14.9402855006
  O         2.4204780862        5.0015150886       15.0534751824
  H         4.1999481614        9.0107155150       16.1736088087
  H         7.2767346965        2.2680888929       15.9330681910
  H         8.2588490053        3.5249308322       15.8751559059
  H         1.8055792881        9.8592022100       16.7381411457
  H         2.1781424413        5.5805244031       15.7851170586
  H         0.8934014436        7.8196040444       16.5552499830
  O         7.6868777082        2.9983402455       16.4453926748
  H         9.3774334120        8.9556864190       16.8260175413
  H         9.6274728394        5.7706126892       16.1828108217
  H         9.8906354833        1.9501559133       17.1128721898
  O         1.2065581632        6.9137646979       16.7009464142
  O        10.5936879904        2.3678740845       17.6115883410
  O         3.3402855701       -0.1094717006       17.4323164344
  H        11.4762878788        6.4496821278       16.8073932058
  O        10.1763383290        5.4311298085       16.9187689332
  H         3.9618005105        0.5389477614       17.8702160932
  H        11.0973136362        2.7662043347       16.8192357478
  H         3.1584516906        8.8063993452       18.0705244991
  H        10.9681739983       -0.2814165784       17.9511227750
  H         1.8231774341        7.3892316582       18.1996125388
  H         4.9208626339        2.6518339050       18.9223682040
  O        10.2054184244       -0.7902771077       18.2311494605
  H         9.6043299168        5.6273349682       17.7016417618
  O         2.4036954859        7.4711600982       19.0033595803
  O         4.2768029955        1.9200501509       18.9619154098
  H         3.4449015865        2.1364114743       19.4231216054
  H         9.8541829213       -0.3746794848       19.0906863649
  O        -0.0502678303        2.5995314438       20.3572576729
  H         1.9380531304        7.9614526288       19.7067100419
  H         1.5337103389        2.9999868663       20.4270040136
  H         2.9976596483        6.0471220890       19.5616596800
  O         8.2583479408        5.7136123786       19.2330318253
  H        10.7137226054        2.3349242132       19.5097736127
  H         2.8477803568        3.9773697483       20.4132099531
  O         2.4686703329        3.1226237325       20.7348320587
  H         7.6116227287        6.4422582187       19.3393419346
  H         7.1190864695        3.2915556082       18.1430096893
  H         4.4120415803        5.4746349417       19.5675675875
  H         7.6783892915        4.9206322769       19.1714797184
  H        10.5951818364        3.3491221144       20.6684719086
  O         3.4687206238        5.2213282947       19.5069764869
  O         2.0624232233       -0.3597101650       21.3152465980
  O         6.6302458253        3.5571347749       18.9746045298
  H         4.6548272961        0.8746838480       20.6022871904
  H         9.2015622728        5.2800725654       20.5865121344
  H         2.9949306877       -0.0380987915       21.2891819814
  O         8.7750829499        9.4114671442       20.4349341356
  H         1.4262704585       10.0455457789       21.2380016648
  H         9.3969326846        9.4149553254       21.1951396101
  O         4.6529952375        0.3349348736       21.4025788008
  O         9.8412498346        4.9421800966       21.3169876002
  H         6.9275702666        2.9561113777       19.7390345090
  H         8.1824468392        0.5866206918       20.6137019880
  H         7.0185654415        8.4434609425       20.0042733557
  H         2.3432180181        3.2980845534       22.0694826729
  H        10.1294051160        5.7346131518       21.8545694341
  O         6.1190236073        7.8762453036       20.0785101366
  H         4.9946594349       -0.5179473746       21.1125732243
  H         5.6357288019        6.8445118628       23.0966667923
  H         6.1338189660        7.5159136862       21.0260068187
  O         2.4300688157        3.4359228568       23.1412502765
  O        10.2873600541        9.2648850094       22.7434942648
  O         5.0114418617        7.4719653034       22.7098761092
  O         7.1477789908        1.9615333739       21.2065136525
  H         9.0325904127        4.0631139643       22.6558455687
  H         1.6004733936        3.0844936482       23.5820770103
  H         4.0626559345        7.0599590154       22.7594420984
  H        10.7882535523        8.4320654288       22.7836079934
  H         6.4424009841        1.4804959875       21.6165523042
  H         7.7213860649        2.3022960323       21.9132182638
  H         3.5861516858        2.6938654641       23.9112348025
  H        10.7902046019        0.4122692929       23.1199852581
  H         2.6165219110        5.0040385794       23.0272122338
  O         0.0536120948        6.7056547985       23.0954311635
  H         0.9904736452        6.3696159650       23.1382165358
  O         2.8179648476        6.0217317830       23.2132385096
  O         4.4960551808        2.3907248670       24.3085987085
  O         8.6218750837        3.2636020010       23.1677864419
  O        11.1254806645        2.1758511865       23.5946394871
  O         7.2822679181        6.4228615810       23.4393054944
  H         7.2953594091        9.5006555879       23.7640672022
  H         5.2317670018        8.7497470887       23.7646953441
  H        10.2304992251        2.5826573904       23.5255144042
  H         7.7945411588        7.2235880602       23.7828735934
  H        10.8977500399        6.3266250795       23.9816625377
  H         8.4143116686        3.6694467963       24.0224191887
  H         4.9386245360        0.6152833069       23.8603680423
  H         9.0022237854        9.2715402418       23.7028854207
  H         4.9291948965        3.2641169336       24.4830516667
  H         2.9983077205        6.0833736471       24.1797472485
  O         8.0818115262        9.0876027124       24.1676768032
  O         5.5185370954       -0.1236289931       24.2465286083
  H         0.0179409747        1.9947947813       24.5438099440
  H         7.2502940788        5.8836145889       24.2450782490
 Pt         2.6171943383        9.3122873858       26.5852721929
 Pt         5.5207449446        9.3410999050       26.4428767229
 Pt         8.3860722902        9.2863518208       26.4895062745
 Pt        11.1166004301        9.2505383850       26.4148981197
 Pt         8.2969056162        4.4405228860       26.4715649474
 Pt         4.1479071713        7.0041110149       26.5675217951
 Pt         9.5344369721        6.8399806903       26.4871959446
 Pt         6.8352050984        6.8802920191       26.4557212738
 Pt        11.0434810330        4.3742238837       26.4177302071
 Pt         1.3227891680        6.8127009356       26.6146493273
 Pt         9.4127441326        2.0755534129       26.6060224212
 Pt         6.7774841974        2.2250493197       26.5433452875
 Pt         2.6113167635        4.5157538638       26.6525211165
 Pt         5.4802691373        4.5972727962       26.6236273156
 Pt         1.2135956069        2.0293058967       26.6311263335
 Pt         4.0941752535        2.1882104131       26.4864134156
