     246
Tv_1:  11.152900   0.000000   0.000000 Tv_2:   0.000000   9.658700   0.000000 Tv_3:   0.000000   0.000000  26.829700
 Pt         5.4538637686        7.8684164930        2.0822688223
 Pt         6.6943187103        0.5871761986        1.8370455422
 Pt        10.9458511957        7.7428760349        2.1684155958
 Pt         8.2538506562        7.8220194632        2.0780986260
 Pt         8.0672547457        2.9403627865        2.0415247387
 Pt         2.6652366199        7.8181039357        2.0647201792
 Pt         9.4823502087        5.2813246934        2.0749182914
 Pt         6.7577984265        5.4450636408        2.1962711983
 Pt         5.3855369354        3.1469104489        1.9863740712
 Pt         3.9984100203        5.5123128124        2.0543521837
 Pt         9.5555416983        0.5663126724        2.0914356142
 Pt         1.1273459903        5.3714331342        2.1765369491
 Pt         1.2837965492        0.5021221274        2.1069095399
 Pt         2.4824504273        3.0406371031        2.1993176377
 Pt         3.9886681172        0.6421041614        2.0215500554
 Pt        10.8555687607        2.9395578539        2.1543483507
 Pt         5.8193917356        6.5547872481        4.4697393734
 Pt         8.6108217446        6.4515718623        4.4108575205
 Pt         7.0747399683        9.0199220832        4.3022820303
 Pt         7.1305566745        4.1747459587        4.4839258529
 Pt         8.5865742800        1.6199891082        4.3180130124
 Pt         5.8338141181        1.7199347956        4.2213240846
 Pt         9.9744624282        3.8935723295        4.4293557388
 Pt         9.9415596467        8.8602695269        4.4637271159
 Pt         1.5275770193        8.7190210472        4.4234080985
 Pt         0.2069320505        6.3348175768        4.4806225007
 Pt         3.0278065050        1.5817470635        4.4565925830
 Pt         3.0139141580        6.4107598867        4.4213794270
 Pt         4.3659101982        8.9563276366        4.3303047558
 Pt         4.4189685999        4.1065388014        4.4251564020
 Pt         0.3128782421        1.4474193898        4.2947265580
 Pt         1.6752454506        4.0075626013        4.6072891204
 Pt         7.6128183290        2.5190947757        6.6979627928
 Pt        10.1832994251        7.5336393174        6.7555290555
 Pt         8.9322034514        4.9349377392        6.7601948203
 Pt         8.9504883739        0.3118640341        6.7827023838
 Pt         6.0894033438        0.2575181785        6.5520525907
 Pt         3.3337688663        4.9908603507        6.7530933909
 Pt         3.3608142014        0.2130359946        6.7235310808
 Pt         7.4757171982        7.4396614409        6.7012566016
 Pt         4.7647158570        2.5547890160        6.7250139966
 Pt         2.0437652128        2.6267948638        6.8917716902
 Pt         0.3641397350        5.0864101835        6.8697983475
 Pt        10.3364795818        2.5896279908        6.6708794395
 Pt         6.1585596111        4.8872928423        6.8637630693
 Pt         0.6888206612        0.2010127349        6.7537984443
 Pt         1.8817041593        7.3755200360        6.8843682941
 Pt         4.7355676981        7.4278707265        6.7627020985
  O         5.9274148083        5.2584622423        9.1397644739
  H         9.3099878523        3.1321174531        9.1270351147
  O         2.2831168922        7.6076625053        9.1283513409
  O         0.4238326784        4.9157447205        9.1549929976
  H         4.7314491686        3.0391809247       10.8211528317
  H         5.2513685553        8.4547323536        9.3401679634
  H         7.6247527580        6.3413620659       10.0046601916
  O         0.6839122940        0.0534621813        9.1124283994
  H         1.6903918795        8.4004249855        9.3146807465
  H         5.4087502515        6.1324114282        9.2323491734
  O         8.6937383488        0.0707340421        8.9995632644
  H        11.0487865262        9.5625387552        9.7015761354
  H        10.8551736765        5.5842345790        9.5416790132
  H         1.0812279331        0.9312500305        9.3148456559
  H         1.3058276510        5.1494156070        9.5368150352
  H         7.3971093131        2.7467983178       10.8136889484
  H         1.1230340079        3.1477026248        9.5541817348
  H         8.6283404748        1.1121516114        9.3039586546
  C         6.9918411900        5.4671975863       10.1101096266
  H         2.2808628413        6.8521066535        9.7823495100
  H         9.8767038414        2.5746225619       10.5120685412
  O         9.0415275781        2.5507376749        9.8699036107
  H         3.7265113537        7.7553011562        9.0425852722
  H         7.7553834613        9.4538268872        9.2738400695
  H         7.7746837699        4.6681583661        9.9684236938
  O         4.7696643465        7.5920582175        9.0153234858
  O         3.8337625317        3.3967480316       10.9613116314
  O         1.8270469227        2.5021579981        9.3862982144
  H         2.6449952912        2.9588565301        9.9328849380
  H        10.5514989521        7.1302100627       11.0743010096
  O        10.1027661592        6.3733302370       10.6130066030
  H         3.3643303274        2.8732081426       11.7777737998
  O         6.5447570519        2.2015683712       11.0095735959
  O         2.8060734750        5.7785692667       10.7252041360
  H         3.3656696935        5.0180173021       10.8755429965
  H         6.5909015587        5.3994186340       11.1245487606
  H         5.0499646449        8.1949968286       12.3388249428
  H         6.3752262992        2.3844756172       12.0023839140
  H         9.8432960285        5.8191285326       11.3428656999
  H         6.4262232346        8.9777976754       10.7035506009
  H         6.1292193436       10.4264653590       10.3517766710
  O         6.3376390327        9.5381091901        9.9135166374
  O         6.0042864142        8.3570830294       12.1904831077
  H         2.2851150461        5.8921565163       11.6176709865
  H        11.8355702849        2.5301691838       11.8591527049
  H         6.4084036751        7.7926739971       12.8574723781
  H         8.2429592172       10.5780966544       12.7293508428
  H        10.2643497915        9.2901099930       11.7623597438
  H        10.3906424721        1.9252760830       12.3030111192
  O        -0.1631274120        8.7236080572       11.4622863491
  O         9.1922862403        0.7521389590       12.9443707148
  O        10.7902808698        2.5565190911       11.6670824246
 Cl         2.9133383706       -0.5694697630       12.2002352512
  H         2.1342025153        2.6567528113       13.5838116268
  O         9.7566027387        4.9081856067       13.2114470605
  H         9.7930047859        3.9381052611       13.1963048206
  O         1.5723496093        6.2527930564       13.2210744394
  H         1.9438171509        7.1204299072       13.2356313337
  O         6.0365421748        2.8895194073       13.4217328332
  H         0.7659591822        8.9022748877       11.7931905335
  O         2.2419872329        2.3049995252       12.6660610073
  H        10.6789742217        5.1415016585       13.4738203016
  H         5.5866115564        3.6603145383       13.8119157363
  H         5.8479052353        2.0943821186       14.0232246194
  H         9.0836167182        0.4060027866       13.9166566527
  H         5.2563517209        0.2544208522       15.1552033607
  O         6.1008895320        7.1544579643       14.6668539462
  H         1.7253695550        5.8901591504       14.1057424541
  H         5.5154080875        6.3493601461       14.8842132388
  H         3.4880710612        9.0532873458       14.2041693297
  H         2.2731941138        1.2611555979       12.6625038514
  H         8.8706665624        5.6390493402       14.3662219711
  H         5.3437797520        4.6197430778       16.2285521539
  H         5.4629800017        7.8480764179       14.9861602401
  H         7.5466195452        6.4114529250       14.9896357050
  O         5.9588081631        0.9959927578       15.2670064750
  H         6.8292388150        0.4871295366       15.1896052293
  O         5.0255334914        4.9619660401       15.3304656748
  O         3.9858304978        8.9245797886       15.0461324535
  O         8.5283308621        6.2565800516       15.1345241806
  H         4.0373195595        4.9901772716       15.5096279435
  H         8.3297055598        8.5176768407       15.1011649037
 Cl         0.4413036984        3.2516816592       15.0463615930
  O         0.7704869560       10.1761084964       16.3558044002
  O         8.2009061628        9.4834454057       15.2520623357
  H         0.7803179443       11.0266711205       15.7608784882
  H         1.9171308785        4.6972982734       15.5551053344
  O         2.4859075037        5.4918539345       15.6798782643
  H         3.4828578135        8.8653916759       15.9109267039
  H         6.0651718815        2.1904492262       16.6578611891
  H         7.3440471369        2.9070183171       17.0234028425
  H         1.6747901186       10.0543753266       16.7746903312
  H         2.0135675030        6.2152435041       16.1415470565
  H         0.9428393318        8.2839290669       16.5257012892
  O         6.3674069464        2.8801980274       17.2203188257
  H         8.6139907019        9.6089341151       16.1366862510
  H         9.2411554068        6.3443909804       16.7770481125
  H         9.4684889769        4.4650332023       17.4933739543
  O         0.9485803871        7.3954183266       16.9280912498
  O         9.5126291614        3.4736183417       17.4411295094
  O         3.0929867833       -0.1798127394       17.5820552196
  H        11.1845871835        7.0700955377       17.2469754909
  O         9.8021076980        6.3027693873       17.5959848659
  H         3.4920340827        0.5360914306       18.1868066455
  H         9.9058552610        3.2709432190       16.5800284800
  H         2.6873252722        8.7520122966       18.1911021808
  H        10.3068110456        0.7148437126       17.2471611443
  H         1.1261706182        7.7964219343       18.7174899254
  H         4.8351889221        2.2362794576       19.0922310444
  O         9.4073848647        0.3114282320       17.4071005475
  H         9.1692623061        6.6779889139       18.3277270345
  O         1.5673404624        8.0231750402       19.5754868574
  O         3.9952040147        1.8199601010       19.3780247145
  H         3.3441102719        2.5972466147       19.5179828638
  H         9.0144061609        0.6738448474       18.2086613825
  O        -0.2056178210        2.9788211372       19.6117539184
  H         1.0737121844        8.9013772396       19.8064684668
  H         1.3527266953        3.6249735725       20.0897355211
  H         2.8325080849        6.9577563881       20.3132053366
  O         7.9775881409        6.4192710743       19.7004040373
  H        10.8861311802        3.1685940455       18.6637600179
  H         2.6874114935        4.4878344891       20.2638138443
  O         2.2909306422        3.5614766031       20.3704660264
  H         7.1980643853        7.0327996232       19.9375077484
  H         6.0905393357        3.7453096542       18.8299509178
  H         4.1393091386        6.2292763438       19.8665245713
  H         7.5000452846        5.5375917714       19.4408334911
  H        10.2696820988        3.5885508210       20.0056118967
  O         3.3319514961        6.1317390186       20.4688800143
  O         0.6990394574        0.6632523128       20.7290083725
  O         6.0503942851        4.3221520268       19.6432317767
  H         4.2619465805        1.1781839052       20.9792194979
  H         8.9829140023        5.6758240946       20.6086656276
  H         1.1940644674        0.8425215851       21.5058405503
  O         7.9111950896       10.1619908497       19.9828234051
  H         0.3423555914       11.1664515361       20.3708310415
  H         8.6780441578        9.8471279412       20.5246140684
  O         4.3217340702        0.5208703660       21.7518233766
  O         9.7076224143        4.9714166185       20.9626483408
  H         6.3774393581        3.7260316969       20.3875020699
  H         7.5152318381        1.2874726342       20.5684721597
  H         6.7616291805        8.9309058423       20.3440699158
  H         2.5341190005        3.5344864713       21.9919198740
  H        10.3055281957        5.5475128005       21.4661811740
  O         6.1089429841        8.1482702340       20.3662865494
  H         4.5741634442       -0.3174886252       21.3430274490
  H         5.7334357711        6.3475260576       22.9907157728
  H         6.0617068397        7.7577893285       21.2941061971
  O         2.4756787794        3.5314603529       22.9846282133
  O         9.7703803326        8.8999442400       22.2567271052
  O         4.9676612230        6.9517795954       23.1290522196
  O         6.8011696294        2.3408648116       21.5252778592
  H         9.1414675147        4.0447842660       22.2149992821
  H         1.6316988679        2.9059665876       23.2222672346
  H         4.1937455761        6.7105368857       22.4228679298
  H        10.3064787630        8.0299336974       22.5265007826
  H         5.9540499002        1.9894569919       22.0072271353
  H         7.4254819936        2.7008892578       22.2395083006
  H         3.6333157756        2.7465420755       23.5823777033
  H        10.4513497004       -0.1669246580       21.8807302148
  H         2.3273699282        5.3241093349       23.5374899895
  O        -0.3396816945        6.3744422947       22.8643321957
  H         0.5609650064        6.5178836631       23.2641880967
  O         2.2148386976        6.3018966270       23.4310742179
  O         4.3443854849        2.2740061897       24.1566762576
  O         8.8832048833        3.2753768893       22.8710675077
  O        11.4184894006        1.9042058668       23.3239465437
  O         7.6962400545        6.3017947231       23.4790883645
  H         7.1429566768        9.4391442128       23.9727407203
  H         5.0730963403        8.5534084383       23.6886044621
  H        10.6630947583        2.5522888764       23.1671114203
  H         7.7555365259        7.2777149661       23.6522835478
  H        10.1090907207        6.3027661255       23.5180300340
  H         8.6460472682        3.7326161287       23.6967241152
  H         4.7335536377        0.3742364851       23.7066744749
  H         8.6034962903        9.5614642900       23.5435785299
  H         4.9406256157        3.0389141967       24.3664006558
  H         2.6039429956        6.6786431212       24.2617334576
  O         8.0607168963        9.1517274632       24.2162211691
  O         5.3759883544       -0.2739520597       24.0790529289
  H         0.1823990439        1.6604172950       24.2927480951
  H         7.7385946268        5.8110114561       24.3379585246
 Pt         2.5746216637        9.3393552383       26.6396202393
 Pt         5.2433876359        9.3068737206       26.4329889746
 Pt         8.0696224384        9.2298449149       26.4219365408
 Pt        10.9477684542        9.3184575286       26.4737461802
 Pt         8.0067504350        4.4875223408       26.4202938802
 Pt         3.7750683520        6.9673510527       26.3990345463
 Pt         9.5866063975        7.0029749406       26.6291751255
 Pt         6.6286555377        6.8777100072       26.6263731209
 Pt        10.7258386560        4.4244106620       26.5388349101
 Pt         1.1106490691        6.8820137292       26.6984600890
 Pt         9.3987096638        2.0822311286       26.5920090979
 Pt         6.6725042782        2.1497852193       26.4772537824
 Pt         2.3993809012        4.5352036740       26.6559813113
 Pt         5.2706366777        4.6521511717       26.5335262732
 Pt         1.0089375047        2.0448864421       26.7366791891
 Pt         3.7804932905        2.1418169392       26.6707418112
