     246
Tv_1:  11.152900   0.000000   0.000000 Tv_2:   0.000000   9.658700   0.000000 Tv_3:   0.000000   0.000000  26.829700
 Pt         5.3964901657        7.8069995477        1.9347100801
 Pt         6.7948751416        0.5078178091        1.9464326383
 Pt        10.7890296230        7.8065216363        2.0800445063
 Pt         8.1724375936        7.8789422291        2.0924744771
 Pt         8.1447003267        2.9514731802        2.1794358112
 Pt         2.5895430695        7.7457582022        2.1817186188
 Pt         9.7324620014        5.3079521063        2.1158858100
 Pt         6.8824050710        5.4714158519        2.1340745827
 Pt         5.4220809756        2.9645504968        2.1215025564
 Pt         4.0519008785        5.3753954357        2.1363917673
 Pt         9.5928135383        0.6481444261        2.1448792755
 Pt         1.2806817644        5.4277260020        2.2112687006
 Pt         1.1727396370        0.4168711661        2.1312909242
 Pt         2.6716466576        2.9113796208        2.0965890296
 Pt         4.0211148173        0.5052864895        1.9765710342
 Pt        10.9612792025        2.9483485213        2.1912744084
 Pt         5.8097677589        6.5480996030        4.4011288268
 Pt         8.5530444058        6.6024253556        4.3696992849
 Pt         7.0802864608        8.9698813502        4.3746687636
 Pt         7.2729649553        4.1435206331        4.4866535847
 Pt         8.5119324781        1.6103000501        4.6128857008
 Pt         5.7460810117        1.5730526443        4.2839423091
 Pt        10.0205066614        4.1008650438        4.4374665404
 Pt         9.9255438599        8.8863330107        4.5465747524
 Pt         1.6043377234        8.7748287266        4.5012075619
 Pt         0.1613037492        6.3918930962        4.5820946382
 Pt         3.0029737551        1.5076829232        4.3247215025
 Pt         3.0433083383        6.4314045910        4.5239100134
 Pt         4.3971197795        8.8431744366        4.3009090286
 Pt         4.4891943715        3.9679433765        4.5035358703
 Pt         0.2701700987        1.5302745208        4.4568425917
 Pt         1.6225754082        3.9789912623        4.4850148597
 Pt         7.5367539217        2.8179127126        6.7606056011
 Pt        10.4225058066        7.5565667352        6.8128207352
 Pt         8.9260849268        5.2140016562        6.8520563124
 Pt         8.8372821865        0.3486446500        6.9916842301
 Pt         6.2185353911        0.3988605100        6.8185263740
 Pt         3.3818042226        4.9456370595        6.7999779458
 Pt         3.3164806248        0.2550226512        6.6730628053
 Pt         7.5151585402        7.7252087299        6.7807962739
 Pt         4.7560730257        2.6280968229        6.7618262972
 Pt         1.9907555191        2.5325995479        6.8843706740
 Pt         0.6054451631        4.9945612827        6.8246542710
 Pt        10.3265918232        2.6950930452        6.7451170643
 Pt         6.2120641808        5.2340582583        6.9386268613
 Pt         0.5360578079        0.3956529679        6.8325935217
 Pt         2.1498900427        7.3992201945        6.8462943648
 Pt         4.8477512977        7.5717266696        6.7807176650
  O         5.9384475786        5.4479764940        9.2373259823
  H         9.0888938320        2.8703153225        8.9666592115
  O         2.0973307541        7.5483744705        9.0140752718
  O         0.2915577656        4.6935280502        9.0500695315
  H         4.8059569029        3.5121684878       10.4331549057
  H         5.4413911537        8.5223754182        9.3199259663
  H         7.3278794697        6.7735646458       10.0406889941
  O         0.7600868542       -0.0059843828        9.5383750273
  H         1.4878265317        8.2921726528        9.3450287715
  H         5.4478875436        6.3116385441        9.2998638446
  O         8.9661807385        0.1178766094        9.2181280831
  H        11.1546381808        9.6146246972       10.2388744452
  H        10.7155532728        5.2727885255        9.5175709077
  H         1.3064538825        0.8162977059        9.7984604440
  H         1.0492362688        4.8654139188        9.6981069674
  H         7.1502376464        2.5851567244       10.3068173578
  H         1.2841504246        2.9940198747        9.2453055338
  H         8.8705171489        1.0804955832        9.5239426273
  C         7.1543672092        5.7034010444        9.9826971389
  H         2.0283624961        6.7308625356        9.5561222630
  H         9.6584231729        2.9204877299       10.4407290603
  O         8.8619585116        2.6589892588        9.9195062420
  H         3.8670855086        7.9362693624        9.4784384355
  H         8.0570845987        9.5149627885        9.4080250692
  H         8.0383760177        5.3111361665        9.5322392633
  O         4.8003794824        7.8116109884        9.1093078297
  O         3.8195275672        3.5957422675       10.4401068084
  O         2.0395972350        2.3542787136        9.1149749719
  H         2.8264040274        2.6829062115        9.6206032312
  H        10.3190055815        6.9797768239       10.6933138074
  O         9.9165537825        6.0631207868       10.5725741672
  H         3.5753095813        3.1383950246       11.3015860373
  O         6.2079795753        2.3034095367       10.6746483096
  O         2.2718566260        5.5767158137       10.5837911553
  H         3.0185391273        4.8968755681       10.6457846455
  H         7.0956603388        5.3328325458       11.0290351490
  H         4.4237337880        8.0362710960       12.1320101756
  H         6.0786671375        2.5885745733       11.6335639912
  H         9.8112614387        5.7529739544       11.5030422375
  H         6.1779459411        8.9081933911       11.0212593177
  H         6.2082703227       10.3713832133       10.3440954477
  O         6.4075354335        9.4043868002       10.1753089523
  O         5.3616843423        7.6696715504       11.9588406770
  H         1.9217301978        5.6168836037       11.5237447712
  H        11.7655082860        2.9246245012       11.7661494886
  H         5.5049489115        7.0581674593       12.7375604208
  H         7.8573791865       10.8890369700       12.7426600268
  H         9.8402384740        9.2572268304       12.0455082665
  H        10.3851239672        2.5570286578       12.3292345709
  O        -0.6765839204        8.6799768614       11.5930222632
  O         8.7748601214        1.0865689155       12.9124344876
  O        10.7837599994        3.0764026126       11.6256289980
 Cl         2.3651839043       -0.9439935199       12.4963179332
  H         2.2124871060        2.3187189754       13.3752749936
  O         9.7366318090        5.3882925807       13.5560353363
  H         9.6314881726        4.4941278302       14.0655357099
  O         1.2766295416        5.8549322566       13.1091973763
  H         1.6817786945        6.7759874189       12.9449307540
  O         5.6924092033        2.8556296354       13.0579682612
  H         0.1008372926        8.6942089957       12.1799058121
  O         2.5677781499        2.2261033783       12.4243884632
  H        10.6957289923        5.5705062889       13.5826419425
  H         5.5350214632        3.7289655090       13.4997159900
  H         5.7491290076        2.2143508810       13.8333558650
  H         8.8549656998        0.9884038113       13.8699223588
  H         5.1020271451        0.5583949975       15.1472510227
  O         5.7053552399        6.5875262424       14.4626542191
  H         1.5733983370        5.5464438913       13.9965546836
  H         5.3480875233        5.7746585032       14.8979771863
  H         3.4561827648        8.8523491717       14.3803428740
  H         2.5375621019        1.2247876416       12.3548298802
  H         8.6146832085        6.3342019086       14.3310886608
  H         4.8511512966        4.0987407289       16.4407696529
  H         5.1392374058        7.2894115552       14.9644016623
  H         7.2720569295        6.6043136613       15.0933714846
  O         5.8900633120        1.2632334441       15.2826427539
  H         6.6754421977        0.7280334685       15.4040125847
  O         4.6419267359        4.2586829501       15.4378356016
  O         4.1886271494        8.8109577324       15.0170449705
  O         8.2113214064        6.7406078378       15.1485330797
  H         3.6910620150        4.5188191292       15.5235155966
  H         8.4866739899        8.5678618757       15.5179726427
 Cl         0.5527368754        2.7437468840       15.1623114545
  O         0.6306941822        9.6237707119       16.7913324645
  O         8.2921097374        9.5443513337       15.6585011090
  H         0.4532611939       10.3924260397       16.1786868364
  H         1.6424262217        4.3200298505       15.5178894504
  O         2.1626796107        5.2379213602       15.4287431998
  H         3.8266707896        8.9310694091       15.9798459334
  H         6.5649034435        2.1218706191       16.8514256293
  H         8.0708993440        2.5613146882       17.5174772285
  H         1.5556904519        9.6516841280       17.0992748839
  H         1.8631902405        5.7870032307       16.1797799841
  H         0.7552089636        8.0067887464       16.9009138772
  O         7.0391811395        2.4780238368       17.6824765195
  H         8.4262891991        9.5380981094       16.6592672873
  H         9.0317832652        6.0718533900       16.3431243479
  H         9.5716703975        4.0841536622       17.3746069343
  O         0.9022519172        7.0208047993       16.9635696337
  O         9.7455936543        3.1187808411       17.5197477536
  O         3.2762409221       -0.4485364068       17.5875494269
  H        11.1518293581        6.5071084806       16.9227473524
  O         9.6741321204        5.7260836673       17.0308623467
  H         3.9782405720        0.1658301751       17.8862754972
  H        10.2416717554        2.9418019032       16.7284519555
  H         3.0897663669        8.4829002669       18.2617552801
  H        10.0661538321       -0.3166179448       18.1790231807
  H         1.5107646813        7.1044731194       18.4923713244
  H         5.8275224708        1.5004158796       18.6857821924
  O         9.1994332827       -0.5622831463       18.4853368810
  H         9.2916427584        5.8688749505       17.9396079021
  O         2.3625328684        7.2361698439       19.1179701293
  O         4.9596403849        1.1415608407       18.8486573203
  H         4.3344718885        1.9591939693       18.9756459245
  H         8.9367499241        0.0100252365       19.3029661185
  O         0.4017622206        3.2909692648       19.5943072187
  H         2.0185878788        7.1875841594       20.0366150566
  H         2.1829961795        3.0263843517       19.2861748567
  H         3.6077488889        6.0234088300       19.1409751776
  O         8.5097863877        6.1775798777       19.3409687361
  H        10.8124092867        3.1004055656       18.8561384463
  H         3.4822251073        3.9216343625       19.2115473253
  O         3.1324650094        3.0064548692       19.5593718060
  H         8.1003617383        7.0797227228       19.2156565279
  H         6.5160035861        3.4973937862       19.3039046772
  H         5.0969075851        5.1610461256       19.3137197240
  H         7.7453555182        5.5909280594       19.5747359019
  H        11.3102080454        4.0639956018       20.1030690419
  O         4.2540719359        5.2821505066       18.8174754504
  O         0.5140562705       -0.0090863974       20.9218794427
  O         6.4806774200        4.2509067202       19.9440749240
  H         4.0225109318        0.5059365594       20.4964428308
  H         9.8886967134        6.2472571794       20.5775783753
  H         1.5262089014        0.0884081872       21.0769830062
  O         8.0714568358       10.2756438999       21.3149820980
  H         0.3602516020       10.5174337970       20.5149515568
  H         8.8508461468       10.0224828680       21.8724249687
  O         3.4617565509        0.1089343286       21.2074181647
  O        10.4340329472        6.0653977896       21.3866280298
  H         6.5647606282        3.8608949138       20.8135448981
  H         7.6424628709        1.3286613010       21.7654388739
  H         7.0598890935        8.6645902062       20.4783286956
  H         3.0366299371        3.1864969782       21.1091865553
  H        10.8245481548        6.8522139412       21.8016212785
  O         6.5121144261        8.1024997156       19.7965704379
  H         3.8376731426       -0.7409186018       21.3709019947
  H         5.3514973968        7.0975270546       21.9661536422
  H         5.9272272215        8.7005675014       19.3570933475
  O         2.9521018113        3.3227801623       22.1376412288
  O        10.4035036073        9.8550143284       23.4179441308
  O         4.5809565817        7.6352526232       22.2612564968
  O         7.1917662645        2.9150319853       22.2976710706
  H         9.6934856579        5.0458352893       22.4795061916
  H         2.0953058845        2.8877110824       22.3955639659
  H         4.0024919204        6.9308583455       22.7155433844
  H        10.6785184479        9.7343624065       22.4383960165
  H         6.3725764610        2.9096390128       22.9155622464
  H         7.9820544375        3.4963745313       22.5852190184
  H         4.1924461214        2.6781494482       23.0170924895
  H        10.5250134722        1.1465317129       23.5054131124
  H         2.9263119759        4.7576481571       23.1488763741
  O         0.6444447101        7.2103887072       23.1594612337
  H         1.5015543468        6.6987271358       23.4148210648
  O         2.9709413575        5.5949457140       23.6563495295
  O         4.9263040766        2.4000163191       23.6550718135
  O         9.1439207014        4.4194987241       23.0721977876
  O        11.2355741109        2.7069868153       23.3864683566
  O         6.4853681373        5.9231636295       23.1021243560
  H         7.4739162984        9.3208862333       23.9400616448
  H         5.0183684332        8.9243488374       23.3522880438
  H        10.4174148162        3.2446517480       23.2464897619
  H         7.4157481185        5.6535778571       23.0150401550
  H        11.7304360776        7.8136301940       23.9301935166
  H         9.2705423389        4.7692625613       23.9726293729
  H         5.2690131000        0.8283542457       23.8412502731
  H         9.1182919354        9.2196337130       24.3892703922
  H         4.7786472816        2.6795373469       24.5925022638
  H         2.8424915076        5.4494300394       24.5806213576
  O         8.1957124032        8.8133250885       24.4600087660
  O         5.4919558482       -0.1644394068       23.9760447498
  H         0.4007666416        3.0507482965       24.2183680886
  H         6.3365780861        6.4480244583       23.9578804952
 Pt         2.3997469482        9.2207088860       26.4509696322
 Pt         5.0480132912        9.2275862910       26.1258720876
 Pt         7.8864066543        9.1614825300       26.5441179079
 Pt        10.6068015993        9.3091311587       26.7068587887
 Pt         7.9278322764        4.4062965155       26.5620656955
 Pt         3.8971260186        6.7025304201       26.5871359050
 Pt         9.4268914211        6.7342436471       26.6009782398
 Pt         6.6558307072        6.7359939829       26.5417426051
 Pt        10.9080839317        4.3613035706       26.6125245718
 Pt         1.0847219932        6.8461214878       26.6382639815
 Pt         9.1849368246        1.9544244040       26.6273738522
 Pt         6.4816488100        2.0104399208       26.5405850777
 Pt         2.4258808456        4.3309055719       26.6907200571
 Pt         5.1849363382        4.2472760550       26.5783826986
 Pt         0.9844940591        2.0076059824       26.6927359638
 Pt         3.6908223435        1.9753631316       26.5781006853
