     246
Tv_1:  11.152900   0.000000   0.000000 Tv_2:   0.000000   9.658700   0.000000 Tv_3:   0.000000   0.000000  26.829700
 Pt         5.5121228281        7.8735477979        2.0800983594
 Pt         6.9360218939        0.4944196827        2.1783753379
 Pt        11.2303151076        7.7430272178        2.0033535342
 Pt         8.2910667663        7.7609089559        2.1350074948
 Pt         8.2604763555        2.8793814398        2.2851663263
 Pt         2.7987704742        7.6870732265        2.1151798674
 Pt         9.6383048965        5.2747107056        2.1509185465
 Pt         6.9136931047        5.4339908806        2.2139223627
 Pt         5.4851652970        2.9196672323        2.2189242818
 Pt         4.0567888467        5.3508353453        2.2215937549
 Pt         9.7197467973        0.4971687452        2.0209375763
 Pt         1.1637245450        5.2634919249        2.0675009409
 Pt         1.3636869035        0.4681077534        2.0968431526
 Pt         2.6393557062        2.8270755550        1.9701730815
 Pt         4.1192848486        0.6289440649        2.1195215420
 Pt        11.1749828769        2.8677773022        2.1095511324
 Pt         5.6814859839        6.5189749874        4.4516673479
 Pt         8.5727830069        6.3528537123        4.4515790368
 Pt         7.1673971040        8.7239937486        4.4032081519
 Pt         7.2247241532        4.0407862796        4.5246029595
 Pt         8.5472482337        1.4299745064        4.5407067573
 Pt         5.8529759571        1.5709288029        4.5077439672
 Pt        10.0182372526        3.9424107919        4.5199895188
 Pt        10.0086731387        8.8346382239        4.3940198240
 Pt         1.4965782523        8.6973451986        4.3314515138
 Pt         0.1491724180        6.3545473556        4.4809754856
 Pt         3.0738794608        1.6432533327        4.4367110237
 Pt         2.8931090186        6.4073584276        4.4321583772
 Pt         4.2733164511        8.8446024241        4.3288592222
 Pt         4.5179697141        3.9592564247        4.5061379849
 Pt         0.3285050267        1.5070017386        4.4998273036
 Pt         1.7436115033        4.0020965666        4.3765077564
 Pt         7.2888623176        2.6646480256        6.8452648301
 Pt        10.1956759255        7.4300796950        6.7823405607
 Pt         8.7570033139        5.0464298886        6.7667704463
 Pt         8.6474649870        0.2225710026        6.9736380643
 Pt         5.9113721818        0.2595378101        6.6849833548
 Pt         3.2915897539        5.0480548586        6.7273863371
 Pt         3.2269946680        0.2922384779        6.8426596860
 Pt         7.4410335224        7.5050247306        6.8821871686
 Pt         4.6162797169        2.7024220418        6.8880124051
 Pt         1.9307943755        2.7431928067        6.7963659111
 Pt         0.3202980116        5.0565715570        6.9046058127
 Pt        10.1732972019        2.7133925183        6.7847565084
 Pt         6.0233983138        5.1027440353        6.8322147489
 Pt         0.3451149684        0.2254025944        6.8722620850
 Pt         1.8382942456        7.4613419426        6.7724350726
 Pt         4.5618978466        7.5380363452        6.7344779970
  O         5.8006776972        5.2008608695        9.2400787005
  H         8.7451129735        3.4395602680        9.2996199933
  O         2.0705697580        7.6085840197        9.1960659894
  O         0.1698559559        4.6290934927        9.1737090964
  H         4.6070336285        3.1132624359       11.0894981327
  H         4.9411969372        8.3515705891        9.4028926444
  H         7.1295829431        6.8638339876        9.4513002000
  O         0.4562445321       -0.1626497107        9.4411510952
  H         1.4716172396        8.2675447018        9.5643827327
  H         5.0621472546        5.8996208525        9.1564412639
  O         8.4356549951        0.3398633217        9.2667702431
  H        10.8383871903        9.4664460045       10.0617772528
  H        10.6056682523        5.1389379565        9.6411981821
  H         0.8727171923        0.7380503857        9.5128533456
  H         0.9658784292        4.9933338105        9.6529370838
  H         6.9410574416        2.6839891344       11.0240607028
  H         1.0014131429        3.1819057869        9.4630611661
  H         8.5385781863        1.2823408889        9.4647330224
  C         6.8492164072        5.9136748276        9.9856673740
  H         1.9447301680        6.7090485679        9.7629616900
  H         9.3246727184        3.1808041724       10.6808391577
  O         8.5806838816        2.8625458597       10.0546387936
  H         3.4819072393        7.6081564492        9.3054997550
  H         7.5621178661        9.6815716785        9.5366399746
  H         7.6501287032        5.1674276095       10.0764997314
  O         4.4511188958        7.5206826812        9.0338229450
  O         3.6170660094        3.1722787272       11.0375715292
  O         1.6385295043        2.4234101846        9.2304693876
  H         2.3758328763        2.6287855608        9.8164449148
  H         9.7522195380        7.0035026400       10.7071624759
  O         9.6142237254        6.0618430312       10.6586165324
  H         3.1845450096        2.9056535959       11.8646760802
  O         6.2592174919        2.4063698740       11.7014363436
  O         2.1040484864        5.5547068927       10.8436335533
  H         2.7813716658        4.8560758542       11.0574614387
  H         6.3907303118        6.0749295866       10.9490691232
  H         4.1292413755        8.3525057719       11.9332652009
  H         6.4478247917        2.8574446259       12.5102893907
  H         9.5269177860        5.7747477107       11.6241400246
  H         5.9898104460        8.7317531927       10.9059536089
  H         5.8577252449       10.2992985091       10.6917685699
  O         6.1042274198        9.4448476661       10.1848287747
  O         4.9337379623        7.7804153730       11.9311660581
  H         1.8177012820        5.9775442159       11.7357203522
  H        11.1704620587        3.0588284421       12.1585068537
  H         5.1397574695        7.6888912531       12.9029002557
  H         8.0563513207       10.4619243813       12.5958294199
  H         9.8904686378        9.3319158965       12.1676186459
  H         9.8489380932        2.4658069346       12.6595249541
  O        -0.8348024881        8.6868295974       11.5562722593
  O         8.9911583555        0.8047008777       12.9379687328
  O        10.1919740737        3.2150302320       12.1155956445
 Cl         2.3314162556       -0.4128827993       12.3577887650
  H         1.3019528075        2.7606136310       13.6665559585
  O         9.7986474720        5.6913940704       13.5877353699
  H        10.0412667917        4.8568939796       14.0190583617
  O         1.3532857635        6.4296144792       13.2441811456
  H         1.8073451986        7.2772368060       13.2959144701
  O         7.0649027873        4.0081884757       13.6544127826
  H         0.0770139247        8.5240382435       11.9071137031
  O         1.8140387002        2.4638468762       12.8598289270
  H        10.6854825851        6.1942825480       13.4696387581
  H         7.9877886740        3.9728210630       13.6180973145
  H         6.8545102542        3.6741675650       14.5754638633
  H         8.9395327431        0.5979016489       13.9908648421
  H         5.4557881512        1.8068833397       15.3105210299
  O         5.6395697625        7.1247852739       14.5732127256
  H         1.5242038544        5.9862488164       14.1573661729
  H         5.2117592370        6.3149855072       15.0456534983
  H         3.5166959832        9.3009386051       14.3995419733
  H         1.8361859182        1.4227969253       12.8749519905
  H         8.6791355669        6.4282577473       14.4643205810
  H         4.6315017771        5.2137539836       16.9076241653
  H         5.0580997796        7.8847931966       14.9953667260
  H         7.1829970883        6.8341902812       15.0695572425
  O         6.3785934057        2.0771896928       15.5993993581
  H         6.8972068660        1.2458325470       15.4089621682
  O         4.7686272366        5.0434868427       15.9264501434
  O         4.2456919463        9.4104662804       15.0816390271
  O         8.2093764962        7.0635344775       15.1831722158
  H         3.8358517781        4.9593610717       15.5638231940
  H         8.0039136684        8.6888250128       14.9002964775
 Cl        -0.3768459945        3.2353192806       15.3416227687
  O         0.2571889202       10.0805176338       16.8538733230
  O         8.1617008193        9.7015365412       15.1405057518
  H         0.1323535473       10.8838411693       16.2832241029
  H         1.1607159411        4.4349846764       15.3301375729
  O         1.8644762530        5.1552597183       15.5264782327
  H         3.7638333984        9.3137471519       15.9392179186
  H         6.7045161209        2.3378352416       17.2642882623
  H         7.9042525972        3.0546458901       18.0833893650
  H         1.2265998455       10.1416519433       17.1401102170
  H         1.5844872795        5.7865474798       16.2021869568
  H         0.2852504860        7.8871253270       16.5750031204
  O         7.0668204603        2.5443269187       18.1978170478
  H         8.3670668207        9.6690053272       16.1259233388
  H         8.6512286059        6.7433225415       16.5784312197
  H         9.1650740340        4.6744712556       17.7752595431
  O         0.3979266489        6.9496858847       16.7483308529
  O         9.4290830040        3.7554353172       18.0472615735
  O         2.9483407091        0.1027834590       17.7881379747
  H        10.5977271883        6.7336119925       16.9844187768
  O         9.0639425063        6.3600452135       17.4912115090
  H         3.6359849200        0.6674883361       18.2621391848
  H        10.0195313459        3.4894684924       17.2660850884
  H         2.6333351362        9.1181013765       18.4814114044
  H         9.7600849260        0.4363384629       17.8279868778
  H         1.0060591489        7.2869970880       18.3986523237
  H         5.2652764776        2.2092102768       19.1191333627
  O         8.7956033964        0.3241040178       17.9232694379
  H         8.6598780711        6.6454361900       18.3157121080
  O         1.7328690216        7.5440295280       19.0783739816
  O         4.4920415556        1.7009588510       19.4733051951
  H         3.7543589696        2.4620726493       19.4697405118
  H         8.4171995657        1.2582829533       18.0311104273
  O        -0.0264146849        3.7818498185       19.9599587063
  H         1.2618684485        7.5936056530       19.8821630600
  H         1.6285567483        3.7367039200       19.3824043977
  H         3.6598554268        6.5524420947       18.8630269460
  O         8.0782128077        6.7115963236       20.0509239637
  H        10.4360419755        3.8128250402       19.2429817805
  H         2.9362264570        4.5088476031       19.0596653165
  O         2.6121171525        3.6380862563       19.4478669980
  H         7.5909369328        7.6114151114       20.1300910610
  H         6.4252674218        4.0219295027       19.2376422372
  H         4.7287058773        5.4749094359       19.3238064084
  H         7.3583580022        6.0713880116       19.9283849134
  H        10.9046012423        4.4673891919       20.5856549020
  O         4.0414719165        5.6637610455       18.5971204826
  O         0.1095200756        1.1454102575       20.6535533601
  O         6.2885570661        4.6850535557       19.9386990146
  H         3.7587021518        0.9992897049       21.4164730444
  H         9.3381094185        6.3165738510       20.9841137946
  H         1.0219303858        1.0536050269       21.0163347228
  O         8.3595980876       10.6706931754       21.2448756114
  H        -0.0519632334       11.7478660719       20.3830286438
  H         8.5230815072       10.7980103184       20.2558568316
  O         2.9833571668        0.5950597502       21.8383471478
  O        10.1351518717        6.0171594095       21.4963428623
  H         6.5917607325        4.2448325015       20.8141587841
  H         8.2384605490        1.9691678802       21.5713778082
  H         7.0202031603        9.5769766804       21.0896183100
  H         2.8989949548        3.5324689398       21.3505715069
  H        10.9313906102        6.6785055189       21.5234599467
  O         6.5937571332        8.8516383592       20.5699886248
  H         3.1042124365       -0.3692767544       21.6695215868
  H         5.3569547702        6.7730086054       23.1120664596
  H         5.8496537326        9.2383600626       20.1784397789
  O         2.9731793266        3.4791239777       22.3566325736
  O        10.1149404298        9.7033842126       23.0298222285
  O         4.6519826112        7.4201647917       22.9629788316
  O         7.3549525706        3.4149621402       22.2012604266
  H         9.7389797896        4.9290849794       22.8325883535
  H         2.1410666960        3.0258499019       22.7239109084
  H         3.7621691899        7.0568833340       23.3291702588
  H         9.7993310727        9.8161173437       22.0918642938
  H         6.6847892964        3.1070289773       22.8213220635
  H         7.8312490720        4.1156122259       22.7418414118
  H         4.2639584773        2.6995278215       22.9364942003
  H        10.5064474234        0.9350525158       23.2691227674
  H         2.9452039766        4.9815221054       23.1015188902
  O         0.9558125934        7.7227764483       22.1449338932
  H         1.5592025292        7.0892150779       22.6668364477
  O         2.5842135208        5.8154355558       23.4876319000
  O         5.0825955976        2.4757805163       23.5325599486
  O         9.7396641029        4.1844966165       23.4395868415
  O        11.7693842658        2.5429558271       23.3285575939
  O         7.0234801026        6.1183986869       23.6254792594
  H         7.1441651774        9.2302162057       24.1451348255
  H         4.9412270500        8.5351099566       23.6099436244
  H        11.1076332514        3.2147359535       23.4442524430
  H         7.6776823057        6.8439801875       23.6475793813
  H        11.6172820731        8.2277727405       22.8157291333
  H         9.8295547803        4.6729180859       24.2873894618
  H         5.2266863110        0.5506195738       23.8770773313
  H         8.8899645850        9.4649360861       23.9528367347
  H         4.7877159301        2.7583868434       24.4060759447
  H         2.1314747340        5.6068179120       24.3667363390
  O         8.0868981245        9.0884903107       24.4929624372
  O         5.4615153579       -0.3747639518       24.2230277578
  H         0.8828569172        2.2270589627       24.2170366613
  H         6.9384833202        5.7899760937       24.5362007061
 Pt         2.6826227324        9.0197800367       26.6654845086
 Pt         5.3562996549        9.1539182658       26.4562597571
 Pt         8.2006846376        9.3050927279       26.6033371515
 Pt        11.0479464892        9.1206603045       26.5201719983
 Pt         8.1206514098        4.3241564223       26.6624407991
 Pt         3.9508818547        6.6076109527       26.5921075669
 Pt         9.5153189372        6.6640346484       26.7002348661
 Pt         6.7555757205        6.6999176520       26.6392447921
 Pt        10.8345308526        4.3459170793       26.4872315823
 Pt         1.2104401191        6.6462319503       26.4258940121
 Pt         9.6108471970        2.0437811481       26.7591619653
 Pt         6.8136170418        2.0004617115       26.7472628551
 Pt         2.4825551310        4.3001120118       26.5213921496
 Pt         5.3838157195        4.2062867212       26.6221718225
 Pt         1.1258373812        1.8181356741       26.4753732037
 Pt         3.9291665036        1.8352220052       26.5756891865
