     246
Tv_1:  11.152900   0.000000   0.000000 Tv_2:   0.000000   9.658700   0.000000 Tv_3:   0.000000   0.000000  26.829700
 Pt         5.5037904095        7.8685181471        2.1881118813
 Pt         7.0376680429        0.4679636168        2.1542542782
 Pt        11.1986507835        7.7864253357        2.1273642960
 Pt         8.4148531782        7.7246546053        2.1118716295
 Pt         8.3830015872        2.8439525616        2.1629860775
 Pt         2.7583140595        7.9132440267        2.0761925376
 Pt         9.6240411353        5.2465699854        2.1256256631
 Pt         6.9630615252        5.4203723812        2.1978950581
 Pt         5.6286033453        3.0482847490        2.2592029201
 Pt         4.0310029019        5.5152826803        2.1127561026
 Pt         9.7286116531        0.4239300106        2.1194235088
 Pt         1.2597808718        5.4414936525        2.0823525398
 Pt         1.4729160846        0.5832735830        2.1428163825
 Pt         2.7199784853        3.0646662776        2.1772719734
 Pt         4.2580079306        0.7065126670        2.1544619684
 Pt        11.1087649998        2.8731670238        2.1556461803
 Pt         5.6378379445        6.3625145272        4.4871284393
 Pt         8.5096156196        6.2829770792        4.5630863728
 Pt         7.2596450776        8.6666358021        4.5177566802
 Pt         7.1454575944        3.9761483905        4.4846998656
 Pt         8.5335863041        1.4427146729        4.3933439410
 Pt         5.7945125506        1.5545488617        4.4938436582
 Pt         9.7871706794        3.9488635425        4.4782351312
 Pt        10.0026922842        8.6398387736        4.5153152652
 Pt         1.4738694050        8.7740952466        4.3743768488
 Pt         0.2648879662        6.3594318203        4.5089259493
 Pt         2.8584661944        1.5152718730        4.4776323881
 Pt         2.9382147820        6.4486255983        4.4269326611
 Pt         4.4377588151        8.8431431380        4.4643106026
 Pt         4.3902253580        3.9067498782        4.4789034434
 Pt         0.1687496329        1.5704446529        4.4604757524
 Pt         1.4504121867        3.9709401919        4.5053069441
 Pt         7.5245006527        2.3928631223        6.7736327161
 Pt        10.1403992756        7.2185151367        6.8289567758
 Pt         8.7972430580        4.8565258849        6.9329122515
 Pt         8.6532679885        0.0502830974        6.7711978008
 Pt         5.9090647760        0.0291158571        6.8118650802
 Pt         3.3465244050        4.8269812931        6.7428258034
 Pt         3.2127173695        0.1139087043        6.6675646106
 Pt         7.3464672993        7.2827940695        6.8750859743
 Pt         4.6927913970        2.4190765504        6.8137724145
 Pt         1.8985445278        2.4853899144        6.9033397860
 Pt         0.4416792437        4.9604241128        6.9238099714
 Pt        10.1652007547        2.3892172125        6.7324429245
 Pt         6.0453760272        4.8309797879        7.0542535431
 Pt         0.2901893077        0.0084129491        6.8273984758
 Pt         1.8242048405        7.4101078351        6.8247398310
 Pt         4.4513435912        7.3361150202        6.7686584465
  O         5.8495646853        4.8383838730        9.2769156109
  H         9.6229434118        2.7520531200        9.3375920014
  O         2.5664877140        8.2314532959        9.9241759106
  O         0.4181651225        4.8114589628        9.1072772496
  H         4.4505174910        2.3051779956       10.5729536675
  H         5.1380489767        8.0867915990        9.3752996483
  H         6.8581440084        6.4804905255       10.0485407014
  O         0.5937707601        0.0015133174        8.9876560428
  H         1.8898279729        8.7982534906        9.5271070448
  H         5.0997855935        5.4684150955        9.3269550896
  O         8.3871890682       -0.1316489355        9.0820389639
  H        11.0484615102        9.4162835005        9.7274356577
  H        10.7704453698        5.2115847059        9.6487701255
  H         0.8770582613        0.9414781465        9.2521974147
  H         1.2091457838        5.3443106719        9.4293058362
  H         6.1529102447        2.2136654380        9.2583656076
  H         1.1506999168        3.1563823543        9.4073603012
  H         8.5073977547        0.8112471288        9.4155895147
  C         7.0326688541        5.3834955042        9.9987647137
  H         2.6417077432        8.4677637404       10.8777195367
  H         9.9539782945        2.0596592898       10.7513809875
  O         9.2158921831        2.2113477662       10.0375036287
  H         3.7234242555        7.5053556269        9.2362383010
  H         7.5691075383        9.2032839626        9.4766561340
  H         8.0016208501        5.1876460252        9.5084015868
  O         4.6386094359        7.2832332340        8.9844311857
  O         3.5527334254        2.6096007437       10.8944165982
  O         1.7891695943        2.3253818050        9.2514529936
  H         2.6019055991        2.2347444025        9.9053675839
  H         9.8931297389        6.9916799923       10.6816373270
  O         9.7519368117        5.9802110542       10.5830693596
  H         3.5429728215        2.3790184103       11.9290484630
  O         6.0451085716        1.8990459796       10.1881092723
  O         3.0267366097        5.2302494228       10.3254574852
  H         3.3039148571        4.3174594683       10.5189423047
  H         6.9682569080        5.0178254373       11.0408086710
  H         3.9677056128        8.1783058769       12.6279914339
  H         6.9117876945        2.2778701402       10.5659336894
  H         9.6104351210        5.6300830548       11.4684771566
  H         5.7395379814        8.5018493034       11.3905026207
  H         5.8428356271        9.9548331495       10.6085016735
  O         5.9972435005        8.9605624750       10.5441967787
  O         4.7043936834        7.5937549813       12.3684936241
  H         2.7470583963        5.5493341377       11.2484381912
  H        11.7191638232        1.3256610842       11.7429268213
  H         4.8603166820        6.9621692716       13.1296842752
  H         7.6942900218        9.5380389704       12.4420529689
  H         9.6336758039        9.0730914126       11.5981819242
  H        11.2110142815        2.3674970222       12.7838617221
  O        -0.7022070481        8.8267860364       11.0574580266
  O         8.5830806343       -0.3028189953       12.7495857588
  O        11.2763490291        2.1386497348       11.7701567588
 Cl         1.9099827923       -0.6048651351       12.9210495963
  H         4.2533905608        1.5001704547       13.5605135217
  O         9.9816731226        5.7551307483       13.4093837413
  H        10.1793369054        4.8624994225       13.7382191396
  O         1.6005724333        6.0915318651       12.6933355705
  H         1.6021380879        7.0415928688       12.8717587739
  O         7.3335469536        2.7622023091       12.3608148943
  H         0.0485925323        8.7264274552       11.6781242836
  O         3.4773700225        2.0057295667       13.2828303400
  H        10.8358312905        6.1311364104       13.1175945521
  H         8.2410149248        2.8497631107       12.7662445773
  H         6.7318721850        2.5264602809       13.0800485208
  H         8.6670515400       -0.1278566362       13.7275685227
  H         5.2514650996        0.2429056862       14.6019406598
  O         5.3732361571        6.6808663033       14.9319852803
  H         1.6517168129        5.6907530632       13.5936857619
  H         4.9524555327        6.1506980355       15.5889974110
  H         3.0690868236        8.9810077674       14.8910870306
  H         2.8127825915        1.2580684838       13.2230471549
  H         8.7934416179        6.5120335610       14.5586515401
  H         3.8287191826        5.4815726127       17.5988247669
  H         5.0163357777        7.5678991608       15.1639773445
  H         7.1979735660        6.6699171566       15.0894403455
  O         5.9204303251        0.8900428441       14.1653932867
  H         6.8227545174        0.6424320475       14.4185797342
  O         4.0628681378        5.1565291034       16.6833533082
  O         3.9625611973        9.0294641479       15.4100072029
  O         8.1627133486        6.7663353104       15.3232777575
  H         3.1379408486        5.2237419025       16.2658330837
  H         8.1547017929        8.6564221138       15.4697791942
 Cl        -0.3776832421        2.5264170629       14.7030364680
  O         0.6731813020        9.3742464464       16.1225663329
  O         8.3449965273        9.6337940532       15.3443755857
  H         0.5985886302        9.9166025230       15.2905600427
  H         1.0935016219        4.3308919935       15.3550194999
  O         1.6728060957        5.1228894948       15.3845777076
  H         3.7790165615        9.3087822798       16.3240617061
  H         5.5415356473        3.7713894793       17.1278196986
  H         6.8579331228        3.0358263173       17.3358442480
  H         1.3950919638        9.7030584889       16.6752551563
  H         1.1769163321        5.7458313432       16.0175073972
  H         0.7334099149        7.6334586839       16.4975281108
  O         5.9457162528        3.0256722443       17.6689549117
  H         8.5739543352       10.0312553285       16.2514734266
  H         8.7306026233        6.3633387809       16.7918860169
  H         8.9680610430        4.1542149677       17.1068327539
  O         0.6562943438        6.7204995722       16.9652396001
  O         8.7750438060        3.2017578327       16.8699017742
  O         2.7097084906       -0.0534697732       17.7429584789
  H        10.8432874744        6.5166322704       17.1907323324
  O         9.2919192646        6.0750365687       17.5394483426
  H         3.2082564095        0.6496978541       18.2189376175
  H         9.4043902919        2.9658632084       16.0486089045
  H         2.3803491269        9.1098525417       18.5191841516
  H        10.0788296818        0.6477531229       18.2793384196
  H         1.1113428865        7.5276632915       19.0388454148
  H         4.8256798941        2.0298787065       18.4955087043
  O         9.1456937407        0.6847768671       18.1131297104
  H         8.8017956485        6.3345045843       18.3886713433
  O         1.6959674551        8.0688387785       19.6404453096
  O         4.1169014299        1.8104441448       19.1171957975
  H         3.6266583877        2.6768345174       19.2930730289
  H         8.9970161183        1.6221741923       17.9069089069
  O        -0.2087833868        4.3161264101       19.4254795547
  H         1.1428407352        8.1910088073       20.4428881746
  H         1.5647348035        3.9180930449       19.5911931553
  H         3.1719638168        7.0922574448       19.5902245260
  O         7.9945397491        6.5475592944       19.8516283424
  H        10.8135074267        4.8682825078       18.6326881258
  H         2.7820999385        4.8323455652       19.5651263440
  O         2.5304991248        3.9069399619       19.7901297252
  H         7.7003440822        7.5512164890       19.7917939079
  H         5.8875232931        4.2443309945       19.5848543958
  H         4.1906505848        6.1657753430       20.2041602296
  H         7.1898564011        5.9235964153       19.9023291735
  H        10.6288743366        4.9027773929       20.1168148384
  O         3.6625055433        6.2664423619       19.3203823529
  O         0.1885700534        1.5462494717       20.1360244052
  O         5.9604261491        4.8583717339       20.3259392616
  H         4.4860562289        0.8859409237       20.5033413571
  H         9.0285129584        6.2013487404       20.9291254007
  H         0.9678362316        1.2282323069       19.5764826250
  O         8.5742552639       10.8463458019       21.1625253343
  H        -0.0103404985       12.1107389682       19.7586236954
  H         9.2939400208       11.0678126831       20.5882303681
  O         4.6762323324        0.4275491133       21.4009898367
  O         9.8895450998        5.8608298882       21.4205007515
  H         6.3231578269        4.3699300570       21.1060179089
  H         8.3089326463        2.1047125503       21.4678533696
  H         6.8633741941        9.6540996824       20.1960194416
  H         2.7779814323        3.3399898210       21.5509437854
  H        10.3938400368        6.7208355044       21.4453570624
  O         7.1355539708        8.9346445365       19.5442269551
  H         4.0616396492       -0.3206434161       21.2895216816
  H         5.3201833119        7.0371322835       23.0991063064
  H         7.8778763810        9.4168534610       19.0463003513
  O         2.7109880037        3.2553332202       22.5115452178
  O         9.9775376307        9.8434143434       23.0495484335
  O         4.5328784141        7.5122076780       22.7761401776
  O         7.4363981789        3.5497653794       22.2663011946
  H         9.8884897125        5.0718490058       22.8573661900
  H         1.7678296694        2.8220683558       22.6401688818
  H         3.7940559167        7.0850320573       23.1665397601
  H         9.4366790441       10.2252198224       22.2659318885
  H         6.6902057103        3.0422954662       22.7219077923
  H         8.1894178261        3.8705396307       22.8122493630
  H         4.2113691800        2.7173404348       23.2175534937
  H        10.4668986374        1.0285483856       23.2103488542
  H         2.3884403753        4.9795557367       23.1799243417
  O         0.4145122635        7.9369454304       22.1963462262
  H         0.8647899347        7.4569408373       22.9491149018
  O         2.1395821117        5.8956390296       23.5024325983
  O         5.1540120678        2.5946563096       23.5558577185
  O         9.6164691141        4.2895905433       23.5067938339
  O        11.5654635187        2.4209691838       23.5626730434
  O         7.0554560924        6.3242453066       23.4634350893
  H         7.1409603232        9.5453283290       24.3594628312
  H         4.9529963554        8.9745124637       23.7525167046
  H        10.9445999904        3.1820673026       23.8331767622
  H         7.6902539251        7.0385075329       23.6334238373
  H        11.0335913427        8.7498732487       22.4620408015
  H         9.3971437162        4.6234969960       24.4266470803
  H         5.1803665879        0.8489157733       24.1966947496
  H         8.9377269534        9.4595722064       24.1713694887
  H         5.3092065447        3.1348990126       24.3271246413
  H         1.9753362097        5.7739230364       24.4773643089
  O         8.0609239615        9.0976466057       24.6038449959
  O         5.4795347228       -0.0909480792       24.3921036333
  H         0.9777712201        2.4955051739       24.3545692381
  H         7.0385828630        5.7879978205       24.2962720742
 Pt         2.4029534940        9.2246297546       26.6082403657
 Pt         5.3875218318        9.3430520227       26.6773049135
 Pt         8.3090967616        9.2644756453       26.6001636230
 Pt        10.9671567005        9.2434896460       26.5403872718
 Pt         8.1642661814        4.4561880502       26.5746695069
 Pt         4.0271351009        6.8088708262       26.5469734954
 Pt         9.7098147598        6.8252722720       26.6513583364
 Pt         6.6995614563        6.8097411210       26.7726921527
 Pt        10.9577077157        4.3394562121       26.6150668367
 Pt         1.2625978213        6.8486413851       26.5149315664
 Pt         9.5462492165        1.9237027362       26.6699328485
 Pt         6.7229779672        2.0536226263       26.7839233854
 Pt         2.6517985766        4.4284951599       26.5952967970
 Pt         5.3818979277        4.5085958675       26.7007838672
 Pt         1.1626707283        1.9896601111       26.6037372581
 Pt         3.8141884190        2.0634186275       26.5848403444
