     246
Tv_1:  11.152900   0.000000   0.000000 Tv_2:   0.000000   9.658700   0.000000 Tv_3:   0.000000   0.000000  26.829700
 Pt         5.3744918154        7.7087391811        2.0330017270
 Pt         6.8429576520        0.3965359493        2.1712214391
 Pt        10.9234756250        7.6383094071        2.2359638203
 Pt         8.0816024742        7.7585070058        2.0430290692
 Pt         8.1731063270        2.9182871580        2.2491907789
 Pt         2.5620453062        7.6574277222        2.1749877242
 Pt         9.6061365672        5.2240334914        2.0604492606
 Pt         6.8812672769        5.2906200795        2.2274702297
 Pt         5.5044497998        2.8328947928        2.1938821129
 Pt         4.0071976731        5.2611324403        2.1674923840
 Pt         9.6360091280        0.4914444668        2.1884441813
 Pt         1.1880067558        5.2717592405        2.1065931485
 Pt         1.1889273908        0.4110156756        2.2619361884
 Pt         2.6667735543        2.8331369187        2.1554080956
 Pt         3.9433001213        0.3409127187        2.1320632731
 Pt        11.0203105795        2.8289909996        2.2677589705
 Pt         5.7276323361        6.3294064674        4.5122794751
 Pt         8.5694970247        6.3406078981        4.5098651771
 Pt         7.1927759732        8.7466655822        4.4329972929
 Pt         7.1378591792        3.9266760646        4.5424808630
 Pt         8.4334124149        1.4607573620        4.4688282005
 Pt         5.6255080134        1.4673680340        4.4497298511
 Pt         9.7334270490        3.9670747853        4.4067212569
 Pt         9.8848816989        8.7879263927        4.5241801432
 Pt         1.4456437490        8.7753900873        4.5352563391
 Pt         0.1488025178        6.2937560563        4.4716452229
 Pt         2.9859295794        1.4988128118        4.3791525754
 Pt         2.8812161586        6.3738254205        4.3537683549
 Pt         4.2904285492        8.6320230898        4.3657061160
 Pt         4.3312474996        3.9553796603        4.5503835522
 Pt         0.2648069153        1.5139569840        4.5231184602
 Pt         1.5914550074        3.9157616205        4.4826514999
 Pt         7.5241178827        2.6867392870        6.9146338322
 Pt        10.5454028117        7.5126271209        6.7460121022
 Pt         9.0866067936        5.1306949738        7.0768833586
 Pt         9.1176419408        0.2647010363        6.8769696908
 Pt         6.3497442391        0.2150316437        6.7484223294
 Pt         3.4311581610        5.2135588722        6.8129038552
 Pt         3.4916844552        0.2246537645        6.7465475846
 Pt         7.6655558162        7.5591537020        6.7864036565
 Pt         4.7538809204        2.7032165186        6.9484721280
 Pt         2.0637891504        2.7389853088        6.9118362626
 Pt         0.6685094277        5.1843560425        6.9217553089
 Pt        10.3908497058        2.7004529559        6.7790738683
 Pt         6.3603567514        5.1251530017        7.0022545888
 Pt         0.6664082973        0.3948639488        6.9782357338
 Pt         2.1519466956        7.5389745499        6.8363034538
 Pt         4.9167662718        7.5481031567        6.8514496234
  O         6.1340683161        5.2714666551        9.0894541051
  H         9.7113072795        3.6314606735        9.2178014857
  O         2.6588301459        8.4716553296        9.9745851504
  O         0.9060011769        5.1745608793        9.3566323055
  H         4.3701998266        2.6074180415       10.8338982494
  H         5.3460288343        8.3222367398        9.3398452318
  H         7.8174553922        6.4976890415        9.7029927274
  O         0.6829164224        0.5100942377        9.0916514645
  H         2.0203849979        8.9835373717        9.4541467067
  H         5.5196523171        6.0814733924        9.1997664561
  O         8.8844239083        0.4481674120        9.2388162461
  H        11.1072176621        9.8189494305        9.5704895053
  H        11.3385836272        5.8283195404        9.5263788753
  H         0.9852215394        1.4733670245        9.2732818509
  H         1.7953983148        5.5743133270        9.6997459030
  H         6.1974133475        2.6620862125        9.4348238435
  H         1.2090144510        3.6736031484        9.4433298163
  H         9.1335058386        1.4118421186        9.4838235208
  C         7.1597345792        5.6894397810       10.1127353151
  H         2.7056061682        8.8392416981       10.9061706044
  H        10.2499787975        3.0043037965       10.6671782123
  O         9.4498938436        3.0838873723       10.0593816141
  H         3.7801263133        7.7205102282        9.4226613364
  H         7.9322635497        9.9074652302        9.4921126959
  H         7.7439213016        4.7956219288       10.3879691865
  O         4.7314624255        7.5282301040        9.0592815593
  O         3.4957133146        2.9205401231       11.1184006782
  O         1.7092598717        2.7880860651        9.2222897734
  H         2.4372372498        2.7607806821        9.9157744320
  H        10.1682179369        7.4857454784       10.7156623924
  O        10.1440229514        6.5806961600       10.3125577766
  H         3.4674520234        2.7680268802       12.0909511255
  O         6.0237951505        2.2026357112       10.2741580032
  O         3.1674074544        5.6125633963       10.8186504756
  H         3.3533114940        4.6551207304       10.9978754302
  H         6.5762220621        6.0279520993       11.0359251199
  H         5.6063991701        9.0622147833       13.3439952812
  H         6.7146828201        2.4372038692       10.9622072790
  H         9.9705177120        5.8057828092       10.9506739591
  H         6.3930519092        9.0851744215       10.9888726728
  H         6.1224737472       10.3877347623       10.0674662092
  O         6.3608183830        9.3713675551       10.0119079510
  O         5.9939810163        8.3553278977       12.7482634999
  H         2.7197083818        5.9910460008       11.5974817314
  H        12.2462033090        1.9779848199       12.1889412353
  H         5.6983530924        7.5002630723       13.1098198446
  H         7.6873191538        9.1791161589       12.6826967050
  H         9.8329939283        9.3921542954       11.7087124640
  H        11.3212673955        2.9668664427       12.9471610545
  O        -0.5457957650        9.1726458405       11.1507214469
  O         8.4643340015        0.0938901723       12.8692495601
  O        11.4588986320        2.5617022684       12.0542778838
 Cl         2.0711671853        0.1451502813       12.5873018455
  H         4.0088890715        2.1925124778       14.2453421624
  O        10.1989590155        5.8001241962       13.1902366782
  H        10.4990413866        4.9934152128       13.7911576641
  O         2.2184512200        6.6291863112       13.1155740107
  H         2.4928848524        7.6018391794       13.2217552455
  O         7.5499035913        2.5779746733       12.2788237997
  H         0.2515515905        9.2612745342       11.7851745182
  O         3.4572386845        2.9529692933       13.9500267984
  H        11.1115356399        6.2449001415       13.0918540180
  H         8.4816727738        2.9573417835       12.2163023930
  H         7.7819898610        1.6462895870       12.5695893309
  H         8.7646542142       -0.0183960159       13.7671154052
  H         4.5206859886        0.1503981404       15.0237322028
  O         5.6702169658        5.5845337204       14.3444799484
  H         2.1739506960        6.2385333254       14.1038800247
  H         5.5702299426        4.6742220298       14.0398151731
  H         2.0296304714        9.5663420816       15.5220600734
  H         2.6962806086        2.8193714984       14.5322319104
  H         8.8992493047        6.6074892844       14.3363525580
  H         4.5063417924        6.0830362356       17.5713870232
  H         5.1256574314        5.6421287600       15.2055548290
  H         7.3795780992        6.5791621486       14.5882317875
  O         5.3600681483        0.4857357727       14.5907759046
  H         6.1818917030        0.3136938605       15.0843988579
  O         4.3839195072        5.4948818812       16.8287185194
  O         2.9419638349        9.3325219279       15.8958031893
  O         8.2148166531        6.7639060356       15.0651614760
  H         3.3841838977        5.7730538869       16.6263137681
  H         8.1260625301        8.3640382994       15.3210058375
 Cl         0.0626304965        3.2271354912       15.1032278908
  O        -0.0574602258        9.6055236392       15.0516753120
  O         7.8008292115        9.2466965010       15.3202147332
  H         0.3051741526        9.6817762394       14.1375422957
  H         1.3466302851        4.9457639106       15.9113461002
  O         1.9078711093        5.7313604408       15.6826124236
  H         2.7882413159        9.4484974921       16.8670402734
  H         5.1822227982        4.2545039121       17.6270331579
  H         6.3831193028        3.2240358824       17.6805370812
  H        -0.2097609030       10.5968751789       15.2405018146
  H         1.3878724044        6.4859770831       16.0565160278
  H        -0.0290215609        8.3152016823       16.5317732192
  O         5.5412677073        3.4589762615       18.1231142186
  H         8.1724636917        9.4984478794       16.2447304378
  H         8.6178607787        5.7712363492       16.4724748996
  H         8.4283379514        3.9130624212       17.4275252410
  O        -0.0089532907        7.6510870714       17.2684472728
  O         8.1450933021        3.0413557839       16.9546540683
  O         2.2141766990       -0.0690392902       18.6239382788
  H        10.3711144451        7.0507029270       17.2171707362
  O         8.9224397793        5.6035847461       17.4047341372
  H         2.8851945719        0.5597344751       18.9991746485
  H         8.5218907432        3.1270814559       16.0982040750
  H         1.9897738981        8.8389546284       19.2455336694
  H         9.6731428690        0.5574852958       18.2104401456
  H         0.4722251126        7.5558437283       19.3093497582
  H         4.8477410327        2.0156653662       18.9181749347
  O         8.7685524336        0.5697889178       17.7586561326
  H         8.4680305761        6.1514159379       18.1135268407
  O         1.2408305746        7.6463734710       19.9804939441
  O         4.0486591985        1.6981436506       19.4491959374
  H         3.6178344204        2.5441106646       19.6598620816
  H         8.5014646701        1.4608803228       17.4666009312
  O        -0.0334607468        3.5582017534       18.5688453087
  H         0.9303114816        7.3791809519       20.9072826977
  H         1.8255740657        3.8897656857       19.2628940403
  H         2.9729516007        7.0061036468       19.8062424562
  O         8.1124655006        6.6306375174       19.6398384730
  H        10.9512267101        3.5295846716       17.5697957663
  H         3.0731495073        4.8183709909       19.6710592917
  O         2.5876468537        3.9376832434       19.8885797558
  H         7.6579602108        7.5384179948       19.4166209137
  H         5.9609394577        4.4307715763       19.7232174155
  H         4.2826237908        6.4697873386       20.4021875742
  H         7.2905535236        6.0874765759       19.7534162455
  H        10.4230002240        4.0616248356       19.0593556096
  O         3.7328333107        6.4276571874       19.5723431009
  O        -0.1763799130        0.7869641808       19.0263207755
  O         6.2063407926        5.0121085568       20.4229842219
  H         4.8303455557        0.6094814344       20.4925399617
  H         9.2639444022        5.8197734015       20.5578057414
  H         0.8095314044        0.5557720074       18.7775710491
  O         9.2367284041        9.3170903828       21.0159112674
  H        -0.1511989968       11.4560060070       19.0068870609
  H         9.7853889150        9.7134075229       20.2730970022
  O         5.1865836903       -0.0589575602       21.1486883176
  O         9.9776259941        5.1929690203       20.8252239690
  H         6.3790060065        4.5815703332       21.2652507032
  H         8.5034334265        0.2582631982       21.2135355831
  H         6.2352701492        9.2033370337       19.1742748549
  H         2.1458019450        3.6859677022       21.5724214798
  H        10.4092708677        5.7675240610       21.5605118923
  O         6.9458298785        8.7165317231       18.7647800632
  H         4.6042743618       -0.8487915406       21.0935532604
  H         5.6581681275        6.8329075201       23.1995832132
  H         7.5010419375        9.3261704366       18.3313123129
  O         2.0804605217        3.3271160882       22.4933377374
  O        10.3405609694        9.0246406994       23.2779392055
  O         4.7148847713        7.2214183868       23.1426254702
  O         7.3708647647        1.3146232383       22.4372920761
  H         9.2176102832        4.3495884691       21.7765357147
  H         1.2525373494        2.9411275017       22.6471253765
  H         4.0800315201        6.4718726724       23.2445687852
  H         9.9230214211        9.1088090419       22.3094879642
  H         6.4961132911        1.2266630269       22.1030800676
  H         7.6078333835        2.3013691237       22.2966331305
  H         3.8690370622        2.4894566622       23.2302308488
  H        10.8684675006        0.2172645014       23.3278233738
  H         2.2380047986        4.7269238868       23.2618737536
  O         0.4309520846        6.7850350601       22.3548899917
  H         1.2174342433        6.4886210930       22.9569444817
  O         2.4796439250        5.6821566656       23.4356933326
  O         4.6883105002        2.3155764925       23.7009740883
  O         8.7088034048        3.6712237504       22.4422066280
  O        10.8651188898        2.2112738051       23.4216568835
  O         7.4097987606        6.6324359031       23.6015006644
  H         7.4243995404        9.8913537988       23.9227918444
  H         5.0031817582        8.6872748548       23.9536305668
  H        10.0931373023        2.7899458490       23.0736025657
  H         7.9806469015        7.4121409766       23.7037292816
  H        11.1089647410        7.4738570185       22.9475847890
  H         8.4967896917        4.1801190139       23.2267430527
  H         4.9017915850        0.7676724297       24.1859925449
  H         8.9734571956        9.4089430022       24.0876444341
  H         4.7159177737        3.1173314367       24.2883774362
  H         2.3120857680        5.7384958593       24.4177809498
  O         8.0665652223        9.2201916457       24.4144663115
  O         5.4154416184       -0.1197933735       24.4923719499
  H        -0.0595382332        2.5008472418       24.3774331296
  H         6.9928469558        6.4568084465       24.5265079890
 Pt         2.4578898544        9.1234117083       26.6781077916
 Pt         5.2817365861        9.0085275207       26.5557989959
 Pt         8.0901405257        8.9163629241       26.4873275241
 Pt        10.8496797565        8.9536746464       26.6624874266
 Pt         8.1425660377        4.0889203791       26.5308534873
 Pt         3.9394470923        6.6221804916       26.4949155081
 Pt         9.6757882972        6.5915242423       26.6198494888
 Pt         6.7250979693        6.6532833855       26.6574515917
 Pt        10.8728525083        4.1493979196       26.4446157265
 Pt         1.0923956313        6.6029680487       26.6874332883
 Pt         9.5634684409        1.7853603726       26.6765797169
 Pt         6.6896144567        1.8551512503       26.7498134761
 Pt         2.5049767107        4.2572616782       26.6098808712
 Pt         5.2783148893        4.2548732374       26.6439608002
 Pt         1.1376364876        1.8352451045       26.7618601428
 Pt         3.8868191893        1.9003199522       26.6814607059
