     246
Tv_1:  11.152900   0.000000   0.000000 Tv_2:   0.000000   9.658700   0.000000 Tv_3:   0.000000   0.000000  26.829700
 Pt         5.4267444651        7.5627240286        2.2028347743
 Pt         6.7914256806        0.4035839418        1.9449190837
 Pt        11.0392634310        7.8270190136        2.2003677241
 Pt         8.3061665446        7.7899410002        2.1311015016
 Pt         8.2555261399        2.8167556804        2.1139774088
 Pt         2.6724564662        7.5949118182        2.2428032247
 Pt         9.4827615889        5.1894444420        2.1090075645
 Pt         6.8058269787        5.2045518952        2.1706852841
 Pt         5.4879554057        2.8860591438        2.1901661979
 Pt         4.0429800871        5.2541103312        2.1782026928
 Pt         9.6443955447        0.5101054913        2.1293150542
 Pt         1.1026948527        5.2604469849        2.1006285563
 Pt         1.3405895464        0.4669538410        2.1354998991
 Pt         2.7770452887        2.8562616644        2.1869526228
 Pt         4.1509801169        0.3400359338        2.1942237295
 Pt        11.0583661670        2.8735253549        2.1333939212
 Pt         5.8161013698        6.3055586108        4.5724672007
 Pt         8.5653159196        6.3993521451        4.3740792513
 Pt         7.2645099115        8.8306749153        4.3937561425
 Pt         7.2798492555        4.0504000373        4.5866777118
 Pt         8.6263353378        1.5486730710        4.5733889669
 Pt         5.8793247236        1.5592173197        4.5115295504
 Pt        10.0103167112        3.8273205331        4.5592013871
 Pt         9.8868924149        8.7609675079        4.4948144305
 Pt         1.5834010259        8.7034862933        4.4108760756
 Pt         0.2838985303        6.1654290740        4.4279025399
 Pt         3.1007697229        1.5167000342        4.5436642774
 Pt         2.9321812935        6.1158970911        4.4544439216
 Pt         4.5031164940        8.6602808987        4.5783906796
 Pt         4.5126942838        3.9024648504        4.5601556251
 Pt         0.3173696053        1.4324998170        4.5738556421
 Pt         1.6960151697        3.7556620690        4.5142699002
 Pt         7.4587678595        2.5467799300        6.8535012580
 Pt        10.3418976683        7.1921643992        6.8416053778
 Pt         9.0331131569        4.8300069634        6.9719980001
 Pt         9.0322937640        0.0083433459        6.9786147306
 Pt         6.2256703833        0.0945073142        6.6839998841
 Pt         3.3249248634        4.9189655165        6.8029150261
 Pt         3.2815313852        0.0270113677        6.7831259243
 Pt         7.5349399505        7.2595827840        6.6468514642
 Pt         4.7771653504        2.5075998709        7.0223413111
 Pt         1.9851838458        2.4432337729        6.8704606565
 Pt         0.5726094121        4.8664864959        6.9106850945
 Pt        10.3428025556        2.4065715424        6.8669853724
 Pt         6.2469608307        4.7930833599        6.9545323077
 Pt         0.5473977234       -0.0489636476        6.8836341246
 Pt         1.9790493065        7.2692803350        6.7055530362
 Pt         4.7597240192        7.4017833858        6.8866306546
  O         5.9826175592        4.6928382206        9.1741990594
  H         9.6516796025        3.1148072607        9.5402341995
  O         3.1854122495        8.6086868776        9.9046597342
  O         0.5454345123        4.8447986673        9.3117427844
  H         4.4894094581        2.3102009134       10.9225058758
  H         5.6632480312        7.4561639598        9.3814707922
  H         7.8762242112        5.7339577454        9.5276317740
  O         0.7602829716       -0.0565273460        9.1847657771
  H         2.2937687725        8.8558098514        9.5871589490
  H         5.3322973799        5.4484733057        9.2356116367
  O         8.9854029753       -0.1260753062        9.2842236840
  H        11.3864661122        9.2069577646        9.9190356887
  H        10.9297052840        5.2479273778        9.8005672668
  H         0.9784579834        0.9209508258        9.3849791372
  H         1.4241945826        5.3366647685        9.4962743068
  H         6.1900316259        2.0564358006        9.7308250091
  H         1.1224486555        3.2558895518        9.3906456054
  H         9.1499937171        0.8215836158        9.5728451149
  C         7.1484314283        5.0454547740       10.0489649235
  H         3.1330714581        8.6230041042       10.8668891024
  H        10.1154680855        2.2944878673       10.8582290522
  O         9.3319066694        2.4635023996       10.2022334387
  H         4.0120769357        7.8690045016        9.4292524423
  H         8.1280452331        9.2927585269        9.7203811007
  H         7.5875501560        4.0559156658       10.2239888988
  O         4.8116592430        7.0912530860        9.0559654176
  O         3.6091011760        2.7704851885       11.0282444681
  O         1.7675502778        2.4961802491        9.0947426209
  H         2.5657425559        2.4465798179        9.7178279231
  H        10.1150267418        7.0644286524       10.8115825197
  O         9.9672451585        6.1298503355       10.6384439233
  H         3.2392519273        2.4936216932       11.8971430850
  O         5.9969351655        1.5888734287       10.6394758826
  O         2.5888391370        5.3066952559       10.6245758215
  H         3.1124660920        4.4919974063       10.7541499860
  H         6.7571974692        5.5709798597       10.9104729949
  H         6.2876988211        8.5872324065       13.5176552403
  H         6.6716438425        1.9765759762       11.3543734751
  H         9.7637790148        5.7160415544       11.5885399777
  H         6.4460899488        8.3425628037       11.4025907793
  H         6.0684379509        9.5020828688       10.3990747233
  O         6.6114572164        8.6532593516       10.4441792520
  O         6.4377488549        7.8059434142       12.9278534711
  H         2.2679085283        5.7258136496       11.4793879710
  H        12.1155556343        1.3092177136       11.9977041475
  H         5.7107719202        7.0945556848       12.9686558566
  H         8.4471716012        9.3238314700       12.6361925599
  H        10.2644715243        9.3932144649       12.0275566054
  H        11.3136016059        2.4798574375       12.8000187612
  O        -0.4326456014        8.6095937758       11.5497517786
  O         9.0289781341        0.3331045912       13.0176971783
  O        11.4849593305        2.0619797438       11.9183242342
 Cl         2.2954420943       -0.4208255949       12.8999523629
  H         3.4918040391        2.5119904390       14.0697018828
  O        10.2826496078        5.1680564295       13.1754532701
  H        10.3139372499        4.5314808107       13.9188934857
  O         1.6992891537        6.2950486411       12.9546702163
  H         1.8749187097        7.2548060253       13.0389190642
  O         7.3874384669        2.4487919631       12.5414292377
  H         0.4235759160        8.4976342311       12.0580054194
  O         2.7881865039        3.2010000428       13.9581635090
  H        11.2123129755        5.5320781968       13.1678078226
  H         6.9157663917        1.8618017267       13.1986463504
  H         8.3183794354        2.1433188327       12.4707136448
  H         9.0689953220        0.2149413067       14.0158396792
  H         5.3758404273        0.4877830064       15.1172535150
  O         4.9275434770        5.6391820232       13.0466545223
  H         1.8353328821        5.9875993706       13.8477630002
  H         4.4822986809        4.8747823043       12.5926174046
  H         3.2763535699        9.1369279442       15.6809005050
  H         2.1134214431        2.7554084120       14.5918735666
  H         8.7390351325        6.1037809672       14.1016606260
  H         4.4324531949        5.9034250893       16.3921668561
  H         4.7165818873        5.4754027838       14.0136696585
  H         7.3592763487        6.7982445333       14.0625693109
  O         6.1540630725        0.3286723560       14.5471622771
  H         6.9144005497        0.0776075115       15.1716921894
  O         4.2488253093        5.3576611649       15.6450604159
  O         3.9435041856        9.6960429456       16.0736968777
  O         8.0532146747        6.4416987848       14.6765461357
  H         3.2710857126        5.1572232781       15.6837668359
  H         8.4299466258        8.0293078505       15.5739455548
 Cl        -0.0948702215        3.0078321623       15.6542919786
  O         0.4171359181        9.4280708579       15.5976190163
  O         8.5300150010        9.0147083900       15.5407451933
  H         0.9117936467        9.5182941319       14.7461342164
  H         1.1217390058        4.7683506818       15.7691435751
  O         1.6085380036        5.6332701668       15.6604563107
  H         3.7351431177        9.6891286621       17.0239869342
  H         5.0528226159        3.6598487518       16.5802598629
  H         6.5105083550        3.1452968096       16.4124199118
  H         0.3077568458       10.3295285791       15.8513142265
  H         1.2798945414        6.2572110374       16.4514410808
  H         0.3737017620        8.0365887381       16.6846130679
  O         5.6228066628        2.9358593817       16.7978787542
  H         9.0070389761        9.1974911858       16.4073156352
  H         8.8003117865        6.0536331998       16.5126786414
  H         8.3599262760        3.7801446960       17.4598779540
  O         0.3231937493        7.3357222773       17.3213688340
  O         8.2633303022        2.9029713285       17.0171408649
  O         3.4083391709        0.5556824262       18.9398516867
  H        10.5502772482        6.9751357184       17.4103175541
  O         9.0641088100        6.0554042249       17.4831317563
  H         4.1316243386        1.1425904734       19.2041045975
  H         9.1091144048        2.9569861687       16.4950704122
  H         3.4452653707        9.2827602595       19.3436951857
  H        10.4804350094        0.6635901965       18.4906961726
  H         1.3377805660        7.6052750035       18.6727752589
  H         5.6590332806        2.6826201470       18.5879894080
  O         9.6658581671        0.4358384208       17.9386949781
  H         8.3843050541        6.2808376653       18.1097839262
  O         1.8835490594        7.7175685458       19.4955991885
  O         5.1928404103        2.5568921189       19.4888804551
  H         4.5028453751        3.2951902223       19.5250321417
  H         9.1417807636        1.2944225041       17.9660591035
  O         0.4916304245        4.2449576093       19.0761099236
  H         1.3560546807        7.2269058667       20.1771371072
  H         2.2408164599        4.3187930280       19.2923523876
  H         3.4337420476        7.1921375577       19.2117828880
  O         7.9091517781        6.5849880870       19.7294591379
  H        11.0477742203        3.9028332098       18.4034456558
  H         3.5264642856        5.1600565304       19.3553729234
  O         3.1389612836        4.2612235264       19.6529373251
  H         7.9152117821        7.5844968420       19.8195774499
  H         6.0753069236        4.0945664631       20.6403899214
  H         4.9864474025        6.8941477026       19.5284443792
  H         7.1354734964        6.1635391537       20.1039323923
  H        11.0169706687        4.4390644721       19.8269217755
  O         4.2777165282        6.6837711131       18.9030716511
  O         0.7800195568        1.4309157488       19.8611235171
  O         6.1895241163        4.8527330127       21.1867492791
  H         5.5316848368        1.4272612164       20.6411162205
  H         9.2276243070        5.5842481447       20.6284848711
  H         1.6996147818        1.0788402143       19.6168179618
  O        10.7432751232       11.0537644728       22.2695617117
  H         0.8012257330       12.0268892393       19.6308857659
  H        11.1523001349       11.0783919166       21.3426559470
  O         6.0052897987        0.6812649624       21.2301154546
  O         9.8405029457        4.9423564628       21.1380977659
  H         6.6668220561        4.5886999893       21.9947458543
  H         9.8510248867        1.6766372806       22.2382460900
  H         7.4593402961        9.5493771059       20.4183688369
  H         3.2080443043        3.9743945957       21.3252737395
  H        10.6084668609        5.4844484090       21.4002584699
  O         8.2421637012        9.0566106828       20.1124855500
  H         5.3099019281        0.0583324853       21.4581859366
  H         5.3165961130        7.4567589435       22.4232315784
  H         8.5064764390        9.3675464662       19.2222757567
  O         3.1485664023        3.8466269925       22.3358662517
  O        10.5501738210        8.8826572765       23.5859633451
  O         4.5444061884        8.0271986026       22.1582591477
  O         8.0048586900        1.3612259038       22.9141467301
  H         8.8015240240        4.5878699169       22.7951303746
  H         2.2460822593        3.6077144533       22.6917093293
  H         3.7789028598        7.4717516742       22.4210369578
  H        10.8256480981        9.7417273153       23.1607494868
  H         7.3349031544        1.1071789250       22.2478678007
  H         7.6547629464        2.2300848535       23.1988319448
  H         4.4376794173        2.9519616678       23.1799203485
  H        11.1213703186       -0.8821181725       24.4213031284
  H         2.9398811167        5.4817091348       23.3165930947
  O         0.5272565280        6.8810240017       21.9317015787
  H         1.3192763316        6.5968938315       22.3457594538
  O         2.8806842919        6.4390521697       23.4644183099
  O         5.0979531073        2.4705801524       23.7268154730
  O         8.2304056342        3.9854791729       23.2956755595
  O        12.0105971570        3.3228473853       23.6817166781
  O         6.6925513460        6.7472903219       23.3432825455
  H         7.8633083355        9.7289079577       23.9214666397
  H         4.7579622341        8.8753527249       23.7674124246
  H        11.4233897304        2.5987787920       23.3514428667
  H         7.1406718240        7.5294164295       23.7110982921
  H        11.3025491961        7.5886818030       22.4996275002
  H         8.1032088883        4.4288062138       24.2000087004
  H         4.9680716926        0.8381156059       24.2465028246
  H         8.9927993988        8.7521964693       24.0151211084
  H         5.3692921694        3.1014569749       24.4058769489
  H         2.7735680803        6.6828488517       24.3959325895
  O         8.0480097857        8.8996314451       24.4644620864
  O         5.1719362760       -0.1931391102       24.4150107522
  H         0.1759010499        3.9591605061       23.8247174590
  H         6.5094231370        6.2245783228       24.1581250089
 Pt         2.4411381365        9.1489499115       26.7183527035
 Pt         5.1604988997        9.1810416996       26.5744327727
 Pt         8.0290995526        9.2395317428       26.5600675858
 Pt        10.9051375156        9.2528563157       26.6743946875
 Pt         7.9613585348        4.4353454717       26.5729222436
 Pt         3.7815998047        6.8087067421       26.6591965920
 Pt         9.4371192159        6.7867993299       26.7398453298
 Pt         6.7337159126        6.8160924209       26.7481255287
 Pt        10.7955054961        4.5035968345       26.5345314746
 Pt         1.0153806874        6.8442815991       26.5356383445
 Pt         9.4905090835        1.9791691979       26.6780406637
 Pt         6.6603671068        2.0268819191       26.6584077464
 Pt         2.4471758840        4.4206759972       26.6545721088
 Pt         5.2228345384        4.4325264962       26.5955643608
 Pt         1.1930545465        1.9977140976       26.7003040188
 Pt         3.8615751177        2.0481315727       26.6618911855
