     246
Tv_1:  11.152900   0.000000   0.000000 Tv_2:   0.000000   9.658700   0.000000 Tv_3:   0.000000   0.000000  26.829700
 Pt         5.6850487381        7.7560056796        2.2013390776
 Pt         7.0893568864        0.4445420382        2.1000516380
 Pt        11.3536022282        7.7699610748        2.2586565591
 Pt         8.5071720692        7.6495401064        2.0590296315
 Pt         8.6010714329        2.8195727547        2.2784803837
 Pt         2.8796665537        7.7105689234        2.1739042480
 Pt         9.9698714011        5.3609323260        2.2000318083
 Pt         7.3220165933        5.1772989290        2.0188949759
 Pt         5.7123605013        2.8704464402        2.2666181298
 Pt         4.2824800769        5.2824404472        2.1796636488
 Pt         9.7679755340        0.4057372350        2.2302373753
 Pt         1.5162436475        5.3800223803        2.2172650928
 Pt         1.4569913226        0.5186542357        2.1469237354
 Pt         2.9475783304        2.8829035450        2.1812932035
 Pt         4.2551327268        0.4145807804        2.2321554577
 Pt        11.3958528480        2.7766446699        2.2013399637
 Pt         5.8952555112        6.1735438186        4.4078023057
 Pt         8.5634629996        6.2652504941        4.3940812464
 Pt         7.1571902242        8.7317817058        4.5079451557
 Pt         7.0933583914        3.8264560089        4.4423058510
 Pt         8.5648310498        1.3688387406        4.6077111430
 Pt         5.7522977270        1.4232085180        4.4434487638
 Pt         9.9310912790        3.8153906533        4.4141719461
 Pt         9.8873257071        8.6580182204        4.4933825257
 Pt         1.6049129307        8.6117475686        4.4739034608
 Pt         0.1841184546        6.1880969541        4.5923375690
 Pt         2.8612370285        1.4643342940        4.5092558622
 Pt         2.9215169689        6.1967583926        4.4875240903
 Pt         4.4086913836        8.5417219935        4.5212971493
 Pt         4.3059044678        3.9174847104        4.4436767426
 Pt         0.1279189931        1.2566483562        4.5604811615
 Pt         1.5760575734        3.7098448991        4.4027931484
 Pt         7.3078196973        2.6331109956        6.8371128939
 Pt        10.0618716132        7.3525617404        6.7865545325
 Pt         8.6874536332        4.9813291031        6.9570494381
 Pt         8.5732786915        0.1745509751        6.9937648192
 Pt         5.8402165829        0.1293664261        6.9174904573
 Pt         3.1008283569        4.8866778174        6.7665335594
 Pt         3.1715886219        0.0501451465        6.7749974693
 Pt         7.2744186919        7.3382800649        6.8866388279
 Pt         4.4484386915        2.4303537447        6.7945623217
 Pt         1.7733337957        2.4524206756        6.9406422426
 Pt         0.3024541364        4.9736106749        6.9696442668
 Pt        10.1212837765        2.5764012031        6.8711832044
 Pt         5.8869599734        4.9643485336        6.8350271392
 Pt         0.2925206879        0.1362295180        6.9246552131
 Pt         1.6885743312        7.3551765330        6.8240016550
 Pt         4.4231624300        7.4216065010        6.9104064295
  O         5.6937151174        4.8037632053        9.0941370903
  H         9.6613208157        2.6728628231        9.4100988427
  O         2.6311099050        8.4384392392       10.0173979381
  O         0.4727358732        4.6736318461        9.0423151017
  H         4.0734233875        2.1586889971        9.9485420086
  H         5.0652240943        7.8117942396        9.2308435556
  H         7.5202099424        5.7107841953        9.6875579622
  O         0.3528585595       -0.3039085104        9.0741709344
  H         1.9917551197        8.5113019272        9.3093883656
  H         4.9994381121        5.5857485616        9.0902102446
  O         8.7226387895       -0.1384373426        9.1792757940
  H        10.5911718382        9.2607835342        9.4247556497
  H        10.9720274134        5.1871116264        9.5577093477
  H         0.7597406624        0.5810126718        9.3154606888
  H         1.3492087769        4.9832157845        9.4792074861
  H         6.4619973030        1.8199118468        9.3029879196
  H         0.6664853603        2.6961993523        9.7774125970
  H         8.7974457635        0.8199223470        9.4590086772
  C         6.6711733958        5.1400852296       10.0777623771
  H         2.1089525588        8.4850841498       10.8072138408
  H        10.1400064170        1.9695932822       10.8924823364
  O         9.3886601224        2.2916912236       10.2597193557
  H         3.6271505860        7.3122417472        9.5725004022
  H         7.9324626311        9.0492593468        9.5110271917
  H         7.0481080003        4.1505781038       10.4413849608
  O         4.4773902467        7.0201120731        9.0844898570
  O         3.4231929081        2.6055678396       10.6228088652
  O         1.2842771414        2.0695585661        9.3493987316
  H         2.1901247666        2.1781754227        9.8072111274
  H         9.9472241130        7.0998012569       10.7616941959
  O         9.9027257413        6.1707256207       10.3348537673
  H         3.6663519723        1.9492749296       11.3969293089
  O         5.8262304937        1.5437008046        9.9968482932
  O         2.7177158547        5.2672070736       10.2772318320
  H         3.2331603599        4.4879416030       10.3639610787
  H         6.1324577841        5.6777217961       10.8925158309
  H         5.2912150734        8.2500850458       13.4939497904
  H         6.2401639670        1.8818418018       10.8651453747
  H         9.6623361189        5.5737166891       11.0342374206
  H         5.9732262783        8.3556853152       11.0343256243
  H         5.8825328711        9.6361071059       10.1353907802
  O         6.3014731143        8.7033093368       10.1366957505
  O         5.5504864070        7.5913785896       12.7583072591
  H         2.4487951001        5.4064153220       11.2434294099
  H        11.9096372009        1.1270677814       12.0287619251
  H         5.5089731113        6.6803535678       13.1631885491
  H         7.0997789308        8.5282085355       12.8284441273
  H         9.1110300651        8.9224105151       11.9984829671
  H        10.7897276010        2.0931938273       12.7323291255
  O        -1.1764023597        8.7176501175       11.5055350914
  O         7.7541610080       -0.3558797460       12.7848155257
  O        11.2685515293        1.8503348702       11.8948438495
 Cl         1.5670067579       -0.7415315941       13.1246465318
  H         4.1787433780        1.1981599390       13.6408992588
  O         9.9316636220        5.4183741032       13.1639760270
  H         9.9008018167        4.6187591336       13.7535167178
  O         1.6283139170        5.7767126439       12.9134797911
  H         1.9077485327        6.7236685491       12.9976252358
  O         6.7585860717        2.4226939401       12.5893141882
  H        -0.4360917697        8.7461536809       12.1800118821
  O         3.4058949426        1.6324152857       13.1122410006
  H        10.8359321733        5.7775189737       13.0103882843
  H         7.7023232386        2.7040892546       12.6341034289
  H         6.7797624099        1.4826373455       12.8624220239
  H         8.2539199781       -0.4857984546       13.6263019386
  H         4.9409903965       -0.1999541402       15.4547604344
  O         5.5909964373        5.0944700520       13.9810182967
  H         1.9716386681        5.3786125529       13.7581138310
  H         5.7000954024        4.2586429464       13.5547980552
  H         2.5926515652        9.9022989797       15.5785367996
  H         2.6712062803        0.9611454936       13.2893471028
  H         8.8550829732        6.0836647961       14.5027905601
  H         3.7093430726        5.6945059681       16.9532426576
  H         5.0239193009        4.9427440026       14.8661344805
  H         7.3596776238        5.7719845449       14.8858694354
  O         5.6410206751       -0.2119995260       14.7546008674
  H         6.4824000858       -0.3773368912       15.2970887605
  O         3.7219144656        5.0422094705       16.2344974519
  O         3.3301076183        9.9657716102       16.1421093835
  O         8.1308361550        6.2619835477       15.1283603404
  H         2.7730486279        5.0065418061       15.8886165051
  H         8.0281405881        8.0007390690       15.7279860909
 Cl        -1.1977663228        2.8882541014       14.7641519734
  O         0.0695602424        9.1908366718       15.8382755799
  O         8.0218366975        8.9708213059       15.7361648539
  H         0.4124681633        9.0194640947       14.9402029191
  H         0.1761263041        4.5094181625       15.6190878651
  O         0.8687478800        4.9090602611       16.1916722789
  H         2.9515555527       10.3140674477       17.0329118562
  H         5.2799622258        2.2537725643       16.4692005544
  H         6.6428566904        2.1224910863       17.1793459482
  H        -0.4860341201       10.0023215848       15.6082559702
  H         0.5317111740        5.7593834671       16.5370674678
  H        -0.2040587530        8.0227046216       16.9122734502
  O         5.7050680504        2.0344861914       17.3367725678
  H         8.5178450336        9.3432220465       16.5353434477
  H         8.4572097816        5.5114962307       16.8085573780
  H         8.3593633284        3.5729451865       17.7357209432
  O        -0.0762338841        7.2729802379       17.5219916928
  O         8.4263339903        2.7101538118       17.3446324822
  O         2.2543251742        0.7243915441       18.5201962189
  H        10.2145034556        6.8937715773       17.7518994558
  O         8.7315470212        5.3913854007       17.7103094375
  H         3.0964102196        1.2408137841       18.7976384650
  H         8.9672154314        2.7650301195       16.5427985419
  H         2.4549770887        9.5853082223       19.0596651347
  H         9.9493282857        0.4064184665       18.7419998335
  H         0.6632399426        7.8020314417       18.7760321489
  H         5.0125051212        2.3270203668       18.9258511349
  O         9.0964689138        0.2687568933       18.2452513272
  H         8.0531705073        5.7141950042       18.3141105683
  O         1.2437089224        8.1808505420       19.5679971164
  O         4.4919807029        2.1140164924       19.7481220960
  H         3.9522031108        2.9192551355       19.9026544388
  H         8.8708567001        1.2154588832       18.1362336749
  O         0.5068973287        3.9452530707       18.9451912902
  H         0.8411246169        7.8003082087       20.4154502173
  H         1.9662357197        3.9596696049       19.6916234500
  H         2.7687977822        7.2065171431       19.5697005143
  O         7.0172557226        6.1919946587       19.4552376319
  H        11.8462247134        4.1495300727       17.9869066677
  H         3.2143271024        5.0566690094       19.7877766620
  O         2.8528115726        4.1759912095       20.0836719159
  H         7.2191053437        7.1280087325       19.8376520805
  H         5.5427204990        4.1919374622       21.9354411776
  H         4.3788367572        7.1320486907       19.5398220243
  H         6.5743099277        5.6790062193       20.1781741238
  H        10.9573787980        4.5245613627       19.4047847556
  O         3.5563301496        6.6515894629       19.3154240361
  O        -0.1466625207        1.3579389190       19.5926455833
  O         5.5663801141        5.1124882749       21.6099672204
  H         5.2173407139        1.3275929174       20.8808367521
  H         9.1883106875        5.6125697442       20.2172514000
  H         0.6844166873        0.9072451548       19.3831546354
  O        10.1536952222       11.2823958648       21.9573379998
  H         0.0494446902       11.9432916425       19.2446255360
  H        10.6103682007       11.2673719821       21.0683459362
  O         5.8665322452        0.6864631038       21.3481829880
  O        10.0768757573        5.2918334390       20.3390298877
  H         6.3532401837        5.5121953842       22.1100568982
  H         9.1994348630        1.5566782732       21.8236199615
  H         6.9229768290        9.3345781161       20.5146847481
  H         2.6779162679        4.0324580305       21.7333552635
  H        10.4722927429        5.8472418605       21.1358504513
  O         7.6820136032        8.8381596007       20.2236587929
  H         5.2969237729       -0.0755510782       21.7130907914
  H         4.7225548547        7.2854903815       22.0840363954
  H         8.2421154293        9.1337048188       19.3927829800
  O         2.4888085010        4.0036127508       22.7292194930
  O        10.9586450053        9.3577634111       23.7173578579
  O         4.3583814291        8.0944657044       22.3800639207
  O         7.5905038814        1.8657318364       23.3946913742
  H         9.3225805946        4.3872950947       23.6018237051
  H         1.4765551704        3.8809592841       22.8520295474
  H         3.6116937343        7.7487329555       22.9554948808
  H        10.7045834455       10.1200533822       23.0523879090
  H         6.8247650481        1.8942653026       22.7509955013
  H         7.6630814587        2.8456984544       23.7043291509
  H         3.9904629138        3.1706187759       23.5963708958
  H        11.2774519426        0.0867090009       24.6279561844
  H         2.4790664644        5.7327569179       23.5033012243
  O         0.0381959469        6.8229718807       22.2306300126
  H         0.9299939035        6.6407883843       22.5379374508
  O         2.4530559025        6.7088956122       23.6533033655
  O         4.8695819566        2.7696146421       23.5779123875
  O         8.4467767992        4.4868105468       24.1448242834
  O        10.8589431117        3.6346196913       23.5295981271
  O         7.3350839395        6.7319323612       23.5029813569
  H         7.9705321241       10.0517659675       23.9660020472
  H         5.1816503634        9.0764819885       23.8490946482
  H        10.5915817826        2.9601837965       22.8365554704
  H         7.6302311232        7.6825423758       23.5258549839
  H        10.8157218074        7.5975002499       22.7547505416
  H         8.0487309961        5.3952886996       23.9315574293
  H         5.3439878756        0.9622648615       24.2273889315
  H         9.3441186946        9.2791143304       24.1640368152
  H         5.2838265763        3.3281976390       24.3066644759
  H         2.0080581004        6.8293491795       24.5052855192
  O         8.3544657528        9.2254229786       24.2964382976
  O         5.6876913890       -0.0126402418       24.4287169407
  H        -0.2076723572        3.0736512717       24.3222053448
  H         6.6350173563        6.7485536248       24.2003484336
 Pt         2.7637054261        9.1323780986       26.6345848822
 Pt         5.4915642691        9.1008210004       26.6532784635
 Pt         8.2297206997        9.0644910762       26.5465349628
 Pt        10.9693697573        9.1251802569       26.7243841229
 Pt         8.4327059024        4.3659600235       26.4105593861
 Pt         4.2143944796        6.7744359764       26.7052605393
 Pt         9.8208086895        6.6152884287       26.6603132886
 Pt         6.8058207739        6.6981294915       26.7160158032
 Pt        11.1761188891        4.3559899333       26.6935948082
 Pt         1.5578782085        6.6604889113       26.5688921494
 Pt         9.8191400986        1.9282707879       26.7400564209
 Pt         7.0231345277        2.0746456019       26.8496328046
 Pt         2.7880849729        4.2821922774       26.6557459844
 Pt         5.5287138754        4.2985400922       26.6334380304
 Pt         1.3028037351        1.9127357069       26.4141276086
 Pt         4.1529371759        1.8597902390       26.7526446213
