     246
Tv_1:  11.152900   0.000000   0.000000 Tv_2:   0.000000   9.658700   0.000000 Tv_3:   0.000000   0.000000  26.829700
 Pt         5.3702887720        7.6899862428        2.1992997020
 Pt         6.9416025866        0.2904501566        2.1580845440
 Pt        11.2161755531        7.6061799533        2.1938560548
 Pt         8.3768985055        7.6437711888        2.0444583465
 Pt         8.3496735400        2.7499801469        2.1960673172
 Pt         2.7217036559        7.6625059582        2.1720530637
 Pt         9.8481451066        5.1644538721        2.2266065727
 Pt         7.0569031238        5.1580754829        2.1083772233
 Pt         5.5459688358        2.8490009508        2.3498845287
 Pt         4.1502992654        5.3657086636        2.2313868233
 Pt         9.6438189810        0.3103830774        2.1005246429
 Pt         1.3669191600        5.2566021805        2.2200519829
 Pt         1.2000767119        0.4349792976        2.1839919228
 Pt         2.7487055262        2.9171713187        2.3246945867
 Pt         4.1172364806        0.3463324097        2.2685374088
 Pt        11.1591350321        2.8477616414        2.2255291518
 Pt         5.9148775285        6.3914107974        4.4421106231
 Pt         8.6373629764        6.3638528937        4.3776139777
 Pt         7.3421378323        8.7434782048        4.5183423786
 Pt         7.3240278233        3.8101403947        4.4356444437
 Pt         8.7194467333        1.4511779190        4.5243237046
 Pt         5.8852423743        1.4453337049        4.4294759857
 Pt        10.0207989729        3.9372835224        4.5199666789
 Pt        10.0817236764        8.6653924495        4.4557271553
 Pt         1.7101467233        8.7250379561        4.5037859501
 Pt         0.2971506743        6.2681280025        4.5916468331
 Pt         3.0573779728        1.4717831484        4.4920068185
 Pt         3.0892171258        6.2906081278        4.5234875904
 Pt         4.5534261777        8.6610916588        4.6058420193
 Pt         4.4867616652        3.9871433002        4.5501612768
 Pt         0.3032909179        1.4933578773        4.6411509715
 Pt         1.7026399025        3.8829272329        4.6823363411
 Pt         7.4019092580        2.5146390148        6.8225462195
 Pt        10.2495908070        7.2493179486        6.7166478885
 Pt         8.8623929358        4.9636954096        6.8214259137
 Pt         8.6991489842        0.1578745187        6.9050388110
 Pt         5.9519237699        0.1397892336        6.8436258459
 Pt         3.3220425152        4.9370960878        6.9690684222
 Pt         3.2463243073        0.0931245425        6.8133821209
 Pt         7.4153015176        7.3167556560        6.7420751806
 Pt         4.6946477304        2.4989766066        6.8507231016
 Pt         1.8703955408        2.5502861288        6.9503633954
 Pt         0.4757389569        4.8951343873        7.0348465933
 Pt        10.1430418807        2.5540162194        6.7626361172
 Pt         6.0689323469        4.9365314564        6.8292888396
 Pt         0.5134699446        0.0135715299        6.8359728538
 Pt         1.8788220878        7.3380901766        6.7616762746
 Pt         4.7139354182        7.4650685143        6.8975997636
  O         5.8965817901        4.8883062343        9.1116212250
  H         9.8014075297        3.0570453768        9.3496167934
  O         2.8753758192        8.3672557016       10.3680817977
  O         0.5707119447        4.7424882977        9.2929187140
  H         4.5461616856        2.2409209552       10.1518960739
  H         5.3987725502        7.9261738301        9.5797033413
  H         7.3472907609        6.3671286334        9.5439970299
  O         0.7894134033       -0.0843436405        9.0651048941
  H         2.0286083358        8.2665549838        9.9053840181
  H         5.3100239471        5.7539780543        9.1913806421
  O         8.9838479066        0.0470078027        8.9932128566
  H        11.1128880759        9.3016922119        9.4949107287
  H        10.9038277693        5.1065283212        9.9070024483
  H         0.9221250641        0.8977467025        9.3874309627
  H         1.3964126468        5.0713732991        9.7429008088
  H         6.2941778919        2.1777920293        8.8696604311
  H         1.1930975291        3.0919470547        9.3785308494
  H         9.1083493413        0.9847686006        9.3706388383
  C         7.0896158797        5.3125363915        9.8233869145
  H         2.7333644709        8.5302055164       11.2956559861
  H        10.5282612225        2.3524377430       10.6504250621
  O         9.7176358453        2.4514591529       10.0935251295
  H         3.9722896087        7.4169485558        9.7690919750
  H         8.1549943448        9.3753787916        9.4853701156
  H         7.9819533705        4.7595500470        9.6983695462
  O         4.8122243092        7.2631802802        9.1659900880
  O         3.6943379250        2.6407291996       10.5654722967
  O         1.7438453346        2.2946120967        9.1845265996
  H         2.5130840313        2.3270810622        9.8692785433
  H         9.9964517785        6.7712128348       10.7391380531
  O         9.9131955862        5.8143046247       10.7953177216
  H         3.6159647506        2.3111500994       11.4930767240
  O         6.0461669885        1.8636034089        9.7882597773
  O         2.7164365481        5.0900765972       10.6490913454
  H         3.3584357660        4.3308528932       10.7361105608
  H         6.7900499587        5.2963483850       10.8764609094
  H         6.0868625431        8.4602907992       13.4636121359
  H         6.5997449944        2.4254315032       10.4006959938
  H        10.1584154548        5.5351659440       11.7434318690
  H         6.6438305208        8.8651304888       11.2189405538
  H         6.3667099908        9.9345528980        9.9740822103
  O         6.5858564435        8.9789088934       10.2078481663
  O         6.4640490421        8.0752296172       12.5864259880
  H         2.3118323421        5.2291201726       11.5358864223
  H        12.0752172610        0.9150100349       11.9043080897
  H         6.3062479785        7.0971590808       12.6825439342
  H         8.1891706371        9.4340276394       12.9933115683
  H         9.9376199208        8.8739185249       11.6954470432
  H        11.4226649696        2.0774343771       12.7068590969
  O        -0.4686275819        8.4961971289       11.2310412417
  O         8.8992939588        0.3479727545       12.6328403777
  O        11.8751718544        1.8586716583       11.8196792609
 Cl         1.9485158839       -1.0367335135       13.3551760036
  H         4.2018391459        1.4816603062       13.8682573436
  O        10.4603316471        5.1808281680       13.3002432025
  H        10.2543544965        4.3278171485       13.6300414434
  O         2.0341936746        5.5612940213       13.5743993045
  H         2.4745769045        6.4555620250       13.7056151392
  O         7.4903168250        2.8535153878       11.8319265276
  H         0.2557344152        8.4113661089       11.8988162235
  O         3.4665308589        1.6139780809       13.2717467254
  H        11.4571059361        5.4357612200       13.4746461977
  H         8.2832737059        3.3020482922       11.4237838162
  H         7.7922753001        1.9852697521       12.0957836721
  H         9.2849900506        0.7887422548       13.3911354822
  H         4.6785138351       -0.3572215098       15.3846720688
  O         6.4502577996        5.1667627137       13.6674036128
  H         2.4473604335        5.0824684652       14.3345769955
  H         6.7759340457        4.3856853205       13.2231877520
  H         2.5434394621        9.3939809012       16.5564715656
  H         3.0943561432        0.6339675654       13.2422892821
  H         9.3804102002        5.9573277699       14.6515459503
  H         3.8635705604        4.9626065334       15.9769184701
  H         5.7057998340        4.9125472442       14.2385886984
  H         7.8157701178        5.6910568429       14.7775135670
  O         5.5257945268        0.0295419128       14.9536568122
  H         6.2665376088       -0.4051641625       15.4313119086
  O         4.1278451893        4.3907981986       15.2289336072
  O         3.4307843145        8.9344740833       16.6462549114
  O         8.6430473422        5.8967576515       15.2869693014
  H         4.5391194172        3.6843376230       15.8326333968
  H         8.3634146836        7.7957100883       15.3237237019
 Cl        -1.1721071776        2.3735734328       14.6505407442
  O         0.6785359743        9.4197556998       16.3602756010
  O         8.0351463763        8.7144465606       15.4797555791
  H         0.9050420160        9.9269428286       15.5746145098
  H        -0.2238672363        3.5268566388       16.3010768165
  O         0.5372164305        3.8926639199       16.7257788693
  H         3.8114005809        9.3856442897       17.4551291368
  H         5.5385604093        1.7049962393       15.9316593643
  H         6.5634141294        2.4154576361       16.8489225938
  H        -0.1437781957        9.7654858604       16.6707712706
  H         0.7602065319        4.8306632441       16.4748655276
  H         0.5183321537        7.5477814053       16.0229566821
  O         5.5486216984        2.2344982460       16.7569906335
  H         8.4747656153        9.0440300792       16.2570795703
  H         8.2902009897        5.5232093205       17.2206584845
  H         8.3497855351        3.3548574918       17.6343074433
  O         0.1843374306        6.6470612959       16.2420986349
  O         8.0822745449        2.4695387593       17.1158454644
  O         2.0391315343       -0.0542944400       20.3548945515
  H        10.7177099294        6.8090090110       16.9690419570
  O         8.4567338816        5.1248069945       18.0805242102
  H         2.7713294702        0.4479713472       19.9227338291
  H         8.6790406210        2.4989677363       16.2857833933
  H         2.0539528446        8.7526216745       19.8662453949
  H         9.5247674124        0.3751596145       18.6699358724
  H         1.7555981101        7.1308735256       17.9462331326
  H         4.7838733945        1.5830231611       18.1728155399
  O         8.7036701155        0.0452877441       18.1596405596
  H         7.5299995716        5.1235481432       18.5046006875
  O         1.9823656237        6.9687731038       18.8783980276
  O         4.2896284903        1.4685765911       19.0742595869
  H         3.7801244146        2.3548924056       19.3225953807
  H         8.3531729125        0.9483485159       17.8668537455
  O         0.4642776006        3.8257724324       19.3363391771
  H         1.1953118261        6.4611950301       19.2262785978
  H         2.1978834344        3.6914516395       19.5264997978
  H         3.3137655506        5.9118960594       18.4014103372
  O         6.2526278474        5.4901635812       19.4316576162
  H        11.4115556784        3.8397012794       18.3498061488
  H         3.5293363278        4.4508693092       19.2761810294
  O         3.1362971233        3.7564341969       19.8608875382
  H         6.6080680828        6.4494700144       19.5347747380
  H         5.7474584551        4.8608748706       22.8451926036
  H         4.7591840743        5.3853512648       18.3597514905
  H         5.9992760926        5.2292469864       20.3820714048
  H        11.1849746461        4.6312215104       19.7369943277
  O         3.9006266340        5.2828830928       17.9052603535
  O        -0.4717877978        1.2035393412       19.7199840418
  O         5.9569323007        5.6817801777       22.3319816619
  H         5.0398886165        0.6998065417       20.1223196990
  H         9.6946000736        5.9405747571       19.2758626030
  H         0.4202975737        0.7018052658       19.8775476758
  O         9.3323575033       11.7954680842       22.1219141588
  H        -0.2201915232       11.7825473431       19.4767580570
  H         9.9235515602       11.5953429196       21.3095813571
  O         5.4766755282        0.0458001122       20.8317298485
  O        10.5060627712        6.2469788579       19.8092949355
  H         6.8448731834        5.8707456601       22.6258117807
  H         8.5135243122        1.5855729221       22.0216352996
  H         6.6770011587        8.2272613249       20.4056781464
  H         2.5636574770        3.8177240024       21.6796482700
  H        10.3655349606        6.4655778568       20.7765236389
  O         7.4344918334        7.7929902788       19.8867487880
  H         4.7756894953       -0.4664572786       21.2561788360
  H         4.8344636394        6.6273907687       22.7233000226
  H         7.7196659744        8.4646293206       19.1514460312
  O         2.5269019753        3.7505689976       22.6971582685
  O        11.6282106569        9.6252363749       23.3594007767
  O         4.2420247657        7.3731716949       22.9813220852
  O         6.9024470836        1.1120318483       22.6235362259
  H         9.4701430221        3.9531937605       24.3794430939
  H         1.6779774383        3.2662766699       22.9421467628
  H         3.3012265203        7.0305364608       23.1210245956
  H        12.0881819762        9.8202787975       22.5064454075
  H         6.5133167907        0.4100106682       22.0357344839
  H         6.1617848706        1.8099217699       22.8756469500
  H         4.4919034379        3.2761813019       23.7174492262
  H        12.3757212843       -0.3345925161       23.8911672939
  H         1.9087482626        5.3290458199       23.0404313359
  O        -0.6535640859        7.1430418788       22.4961896999
  H         0.1598093888        6.7948028475       22.9561517383
  O         1.7175223720        6.2895859494       23.3607984268
  O         5.4927957483        3.1152491603       23.5747628849
  O         8.4715854103        4.0341894218       24.4719047628
  O        11.0022335974        3.2936164594       23.7707383742
  O         8.2241821623        6.3009522056       23.3269385253
  H         7.7721754293        9.8610035397       23.7891939312
  H         4.8065855479        8.3491595126       23.8419390033
  H        10.3162251210        2.7030963848       23.2168581219
  H         9.1644985347        6.6036357117       23.0753765786
  H        10.7080939069        8.0521938073       22.8046946428
  H         8.1901411399        4.9585013660       24.1724068679
  H         4.6901654343        0.3338392102       24.3132497800
  H         9.2464122811        9.5925968507       24.1392839376
  H         5.8136712328        3.2447524890       24.4958559244
  H         1.7040342707        6.1443477200       24.3729248691
  O         8.3186033107        9.2351749188       24.2964160814
  O         5.2298563096       -0.4775091609       24.4553927364
  H         0.2909134054        2.6859582670       24.4082874578
  H         7.8636803929        6.9162433910       24.0069558456
 Pt         2.6830793823        9.1462563548       26.8544072635
 Pt         5.4021706329        9.0999878544       26.6820931918
 Pt         8.1904887260        9.0117687920       26.4520739613
 Pt        11.0070613554        9.0866505604       26.5665091151
 Pt         8.1816772213        4.3019110693       26.6003789455
 Pt         4.0959158825        6.7272501235       26.6132309988
 Pt         9.6979301228        6.6611719516       26.6812138132
 Pt         6.8651934782        6.7082219941       26.8112350406
 Pt        11.0073389753        4.3036893398       26.6831221728
 Pt         1.2988578148        6.7703465553       26.4803848432
 Pt         9.6418561690        1.8384440764       26.6719649941
 Pt         6.7371549414        1.8004120053       26.7445755164
 Pt         2.6540559156        4.2349232591       26.7400117230
 Pt         5.4947231347        4.1733309453       26.7339558458
 Pt         1.2374512743        1.8944782519       26.5922601315
 Pt         3.9651897839        1.8638049513       26.6253887215
