     246
Tv_1:  11.152900   0.000000   0.000000 Tv_2:   0.000000   9.658700   0.000000 Tv_3:   0.000000   0.000000  26.829700
 Pt         5.2999015313        7.6792389954        2.0883824359
 Pt         7.0291351773        0.3166395452        2.2096049593
 Pt        11.0366439897        7.5120643319        2.2713380605
 Pt         8.3056569180        7.6971513071        2.1284212082
 Pt         8.3909590165        2.8452571182        2.2571247298
 Pt         2.5897398592        7.6994672602        2.2260941018
 Pt         9.6306683247        5.2848931987        2.1554749038
 Pt         6.8268310255        5.1867193240        2.1307071014
 Pt         5.4683314205        2.8444796338        2.2076984826
 Pt         4.0321641896        5.2263532746        2.2135365924
 Pt         9.7204502908        0.4623135833        2.2051871566
 Pt         1.1777110144        5.1627066523        2.1843486933
 Pt         1.2395892226        0.4329929625        2.1882930018
 Pt         2.7377881379        2.7725192215        2.2157358114
 Pt         4.1492692647        0.5314447260        2.1636607939
 Pt        11.2062156578        2.7834025771        2.1530513510
 Pt         5.8467294745        6.2979172343        4.3965706587
 Pt         8.6050205673        6.2085588854        4.4054877328
 Pt         7.3451989077        8.5856532343        4.4679411634
 Pt         7.3505462692        3.8890001301        4.5202268499
 Pt         8.7746314935        1.3717365459        4.5511305159
 Pt         5.8745152418        1.3245407236        4.4089593364
 Pt        10.1766223706        3.7809422339        4.4609029588
 Pt        10.0571405410        8.6245581086        4.5070012214
 Pt         1.5815319261        8.6099194731        4.5346105011
 Pt         0.3519135511        6.1976171024        4.5238285738
 Pt         3.1496700333        1.3356735497        4.4707188738
 Pt         3.0719405451        6.2654857854        4.4656329715
 Pt         4.4901657005        8.5561239906        4.3908061278
 Pt         4.5642940417        3.8993035898        4.5415917607
 Pt         0.4312031843        1.4460035832        4.5569388640
 Pt         1.8088864053        3.8626959926        4.5758907583
 Pt         7.8086264482        2.5614417574        6.7902983531
 Pt        10.4707158039        7.4109321828        6.8668150516
 Pt         9.0814053385        4.9319774153        6.7817357071
 Pt         9.0590502088        0.0898870185        6.9040009639
 Pt         6.3195907780       -0.0023672525        6.7651803876
 Pt         3.6270285559        4.8526835782        6.8267521823
 Pt         3.5735348225        0.0121708843        6.7255870128
 Pt         7.7169916356        7.2975078931        6.8436610606
 Pt         4.9764735467        2.4686050367        6.8080027820
 Pt         2.1618991001        2.4537153407        6.8489530458
 Pt         0.7486207092        4.9119945214        6.9892149389
 Pt        10.4737053635        2.5125955903        6.9034671137
 Pt         6.4233101370        4.8403819766        6.7916864742
 Pt         0.8136453201        0.0671792404        6.8899709435
 Pt         2.0468347923        7.3605907537        6.7801778467
 Pt         4.9277479502        7.1648217440        7.0191557721
  O         6.2380453048        4.6829072150        9.0542874930
  H        10.0448515220        3.3986201218        9.5263441077
  O         2.5489575657        7.3782751574        9.9509898528
  O         1.1249888942        4.9538629964        9.4189063485
  H         4.6899024386        1.4185120066       10.4631533585
  H         5.7739993327        8.0644986681        9.3954431085
  H         7.3211603240        6.3431753304        9.8923972260
  O         0.7468592011        0.0083867288        9.3065773102
  H         2.0220881214        8.2723749254        9.6656485551
  H         5.3401503437        4.8831444895        9.5281525780
  O         9.2173392448        0.3281922268        9.3114112524
  H        10.9251220040        9.5632481358        9.4415896459
  H        11.5176747598        5.4315964969        9.8943051367
  H         0.9533282076        0.9863823574        9.3539567987
  H         1.8366512036        5.6805737782        9.6046685121
  H         6.2262057703        2.7930845894        9.5995325321
  H         1.7275319804        3.3758866446        9.3531381013
  H         9.2943227094        1.2857612184        9.2576710702
  C         7.2666655532        5.2393293176        9.9085026953
  H         2.6070898794        7.3859779235       11.0021962373
  H        10.8132523914        2.4779079647       10.6357075687
  O         9.9074007893        2.6349938669       10.0539824078
  H         4.2569873224        7.4482554718        9.6035109475
  H         8.3665595006        9.7094793375        9.6946866375
  H         8.2457772567        4.9420023546        9.5290882188
  O         5.1575284467        7.2850728951        9.2032881862
  O         3.7485902440        1.2075968579       10.6323033400
  O         1.8707849347        2.4047522071        9.1898637415
  H         2.5830905441        2.0018799799        9.8558720398
  H        10.1345383165        6.7760587301       11.2325173276
  O        10.3695521525        5.8677876379       10.9256636572
  H         3.6790346598        1.0844310990       11.5833087291
  O         6.1701779834        2.0604525962       10.2754557214
  O         4.0898637018        4.6924437116       10.5290749056
  H         3.8764261349        3.7148249001       10.5284096098
  H         7.1521311346        4.8539889409       10.9621388417
  H         5.9278882191        8.4590789112       13.0073076103
  H         6.7513615985        2.3838279198       10.9696803063
  H        10.5965071326        5.3506241800       11.7083071037
  H         6.8848907468        8.5057618435       11.0849788249
  H         6.5226348810        9.8092041782       10.1860249817
  O         6.9029179394        8.8976736588       10.1414792844
  O         6.7656327526        8.0355620206       12.7341311089
  H         3.8396677300        4.8180966746       11.5431380013
  H        11.0663081532        0.8022754765       11.6798546851
  H         6.8702508780        7.0926666675       13.0261361122
  H         7.7737195832        9.4194377763       13.1768053596
  H         9.6380455944        9.0551868839       12.4286615282
  H        11.3824641144        1.8742287748       12.7476330206
  O        -0.8663927943        8.6342024694       11.7259903526
  O         8.5118863371        0.4038589042       13.3148043875
  O        11.6261011897        1.6480302521       11.8294651583
 Cl         1.9049634875       -1.8261037720       12.9192279380
  H         4.5485055494       -0.0401087611       14.0895956248
  O        11.4449963663        4.7430834422       13.2995355806
  H        10.8831507078        3.9996881852       13.7295613408
  O         3.6290804853        5.0614288251       13.1922775410
  H         3.1771755120        5.8971781282       13.3168889512
  O         8.0516146540        2.9569523245       12.2020841133
  H        -0.0906086987        8.2884544007       12.1973983078
  O         4.5213191995       -0.3164527882       13.1316856005
  H        12.4395062933        4.4514537201       13.3468278322
  H         8.6263079025        3.0139539822       11.3849620684
  H         8.5408143545        2.2450475774       12.6961526461
  H         8.8517480159        0.3737251386       14.2462323467
  H         4.9719185588       -0.5353085467       16.5089253492
  O         7.5671973807        5.6305754660       13.6261311900
  H         4.3187096617        4.9064729222       13.9094151767
  H         7.6787134305        4.7533968717       13.1996011017
  H         2.2140329315        9.2910674152       17.3050354383
  H         3.6511694507       -0.8192009181       13.1113469280
  H         9.9847963971        6.7502028600       15.6474376363
  H         4.9119650308        5.4310892912       16.0762464892
  H         6.8571430796        5.4251312101       14.3540066478
  H         8.6536173218        6.4009050642       14.7852203076
  O         5.4049645045       -0.0974421160       15.7764647298
  H         6.3787062014       -0.2085664148       15.9489739705
  O         5.4338782707        4.8384758040       15.4517043582
  O         2.9851986691        8.9528641484       17.8594810455
  O         8.9934691035        6.8243245344       15.5923234626
  H         5.3751559460        3.9229735752       15.8450773100
  H         8.5242239820        8.4591315281       16.1793670040
 Cl        -0.3621325606        2.2599549436       15.0578683245
  O         0.5948973028        9.2949625079       16.7985507351
  O         8.2115805751        9.4025613250       16.3277350010
  H         0.5221696893        9.9819928013       16.0631212312
  H         0.9708489095        3.6005407334       15.9747897240
  O         1.5309645463        4.0367907987       16.7489494866
  H         3.3341200030        9.8151149053       18.1923297714
  H         5.6935400259        1.6203044925       16.2126638062
  H         6.6621397222        2.8416575359       16.6885427166
  H         0.3332858953        9.8089675049       17.6007422016
  H         1.4598622982        5.0197723316       16.5621195714
  H         0.6850960401        6.5440024036       14.8672474860
  O         5.7119694524        2.5628628700       16.6638053585
  H         8.5246935422        9.7298130585       17.1886674966
  H         8.3031384416        6.3518183997       17.2624992075
  H         8.5140465719        4.0929851854       17.3201564877
  O         0.5827861747        6.7491964685       15.8343684627
  O         8.2925336541        3.2758292068       16.8070693804
  O         1.1964375807        0.2285539325       21.0748624827
  H        11.8549058149        7.7841692184       15.9496235816
  O         8.2637463273        5.8573432455       18.1214626372
  H         2.0952773400        0.6467760066       21.0875709323
  H         9.0367189686        3.0153767595       16.1784235963
  H         1.3655894893        8.9216361535       20.7614392609
  H         9.5394452144        1.2662085907       18.8208551178
  H         1.9971494456        7.9608878253       19.3056412515
  H         4.9498349591        1.8607877842       18.1583826267
  O         8.5649545905        1.2310275329       18.6614122543
  H         7.4899323301        6.3053021420       18.6952926132
  O         1.7716143846        7.5852341836       20.1780157644
  O         4.3902003635        1.4527675114       18.8493790844
  H         3.8134432554        2.2229774673       19.0547205073
  H         8.3626440871        2.0833323361       18.2007922893
  O         0.6452343256        3.8445809401       18.9572614979
  H         0.8764915793        7.1762312380       20.1411969382
  H         2.3991393568        3.9939012675       19.0022745359
  H         3.6655080514        7.1007328654       17.8595371549
  O         6.3366362237        7.0347346581       19.3056861997
  H        11.8339675455        3.8915691143       18.0002267747
  H         3.7909160389        4.7709908365       18.6614517511
  O         3.3688141314        4.0614263531       19.1921216058
  H         6.7493850376        7.9061943438       19.5715586146
  H         4.5415492457        5.7376563552       22.0444698474
  H         5.1009861337        6.5692261015       18.2272049738
  H         6.0748788110        6.6388375592       20.1424889148
  H        11.2084306157        4.6291299927       19.2397043260
  O         4.3200075847        6.3336712965       17.6586264085
  O         0.1652540422        1.2073413567       18.9055293015
  O         5.1327907991        6.5098232126       21.9745484917
  H         5.0160465233        0.6908545574       20.5422570205
  H         9.8460163788        6.0463797123       19.1526327399
  H         0.5477133324        0.6810422772       19.6097648614
  O        10.3925996451       13.4434999885       23.4064052780
  H         0.3391845716       11.8723375007       19.1798716237
  H        10.6091346080       13.4448451436       22.4871731122
  O         5.3170605026        0.3949207470       21.4439606797
  O        10.4813863777        6.1196128907       19.9732745812
  H         5.6550335955        6.3981447769       22.7593812311
  H        10.4779310737        2.7892639753       23.5971725179
  H         6.8658094682        9.6112110908       20.9369836307
  H         3.3859514343        4.0744726556       20.9443136384
  H         9.9509037709        6.6043111371       20.6849263283
  O         7.6327650946        9.1782339326       20.4111353950
  H         4.8910232215       -0.4249341665       21.7301211907
  H         3.6569364558        7.6195578839       22.2567323350
  H         7.8975474237        9.8981223827       19.8033132580
  O         3.5923822713        4.1227279389       21.8724828109
  O        10.8838841823       10.7664576156       23.4355596044
  O         3.3530175246        8.2560144376       22.9284242469
  O         7.1328545006        1.8308931871       23.1155013083
  H         8.9434270406        4.2042713191       24.1353624665
  H         2.8222066631        4.4507950497       22.4289899398
  H         2.4033313886        8.0086964527       23.0524286919
  H        11.3677935159       10.4654473997       22.6357509691
  H         6.2345215557        1.7620978487       22.6400160308
  H         7.1612161506        2.6931635729       23.5261229706
  H         4.3130666107        2.9041544167       22.8596322094
  H        11.5945500736        0.9819937086       24.1334323615
  H         1.0264086739        6.6229225834       23.4730785009
  O        -1.8451517152        7.4199846369       22.0015174601
  H        -0.9305498569        7.5166043000       22.4045318757
  O         0.6906841027        7.4966381605       23.3001619202
  O         4.4305100944        2.3928040424       23.6824256238
  O         7.9178340860        4.2842926592       24.3607786808
  O        12.6747495095        5.0912422767       23.7108308121
  O         7.1790529857        6.8579098211       23.6659064133
  H         7.5380702819       10.2103602732       24.0154567139
  H         4.5435158431        8.8847784879       23.9777386485
  H        11.7894841240        4.5997274702       23.6040771981
  H         7.9626523157        7.1815329805       23.1244000509
  H         8.9389301827        8.1968947851       21.5191902485
  H         7.7238245906        5.2525684221       24.1799647451
  H         5.0248022078        0.7101559828       24.0632076612
  H         9.0050975454        9.7416333700       23.9878482263
  H         4.3920291730        3.0814582916       24.3913380042
  H         0.5010171198        7.9059765549       24.2625323139
  O         8.1265059803        9.4484363773       24.3480257862
  O         5.2533438163       -0.1964322350       24.3921906386
  H         1.9822812236        4.5873841178       24.4622774009
  H         7.1519363773        7.4610966027       24.4706566536
 Pt         2.3635328083        9.0690651408       26.7012843684
 Pt         5.1848834745        8.9899516544       26.6078703224
 Pt         7.8991739292        9.0531234149       26.5483445200
 Pt        10.6769757659        9.0266400753       26.6921250210
 Pt         7.9670901875        4.2934810349       26.6496487692
 Pt         3.6694393346        6.5668570532       26.5313950664
 Pt         9.3260405920        6.6539230796       26.6531546201
 Pt         6.4330358350        6.5510130466       26.6883203014
 Pt        10.8530118148        4.2007914256       26.6206744178
 Pt         0.9785782893        6.6969595788       26.6854212539
 Pt         9.3665269460        1.7699462029       26.5774340394
 Pt         6.5940849197        1.8925042689       26.8264351817
 Pt         2.4537254758        4.1734848510       26.7132218682
 Pt         5.1093209098        4.2208267096       26.5459062860
 Pt         1.0380442764        1.7337043608       26.4909752128
 Pt         3.7357662807        1.8411909631       26.7530007365
