     246
Tv_1:  11.152900   0.000000   0.000000 Tv_2:   0.000000   9.658700   0.000000 Tv_3:   0.000000   0.000000  26.829700
 Pt         5.4824108178        7.7702536585        2.0798443886
 Pt         6.9332173680        0.4154481402        2.1765449330
 Pt        11.2450538354        7.6203428005        2.2371351269
 Pt         8.3673364020        7.7025385184        2.0744111974
 Pt         8.3957090299        2.8134980700        2.1637938570
 Pt         2.8548336339        7.5322776893        2.1485603819
 Pt         9.8806846201        5.2437659578        2.2575969572
 Pt         7.1253924695        5.2096811757        2.1396007922
 Pt         5.5790882468        2.8179213484        2.2111180908
 Pt         4.1957512390        5.3484958749        2.1370333101
 Pt         9.6855173910        0.3194080853        2.0589062697
 Pt         1.4792198614        5.2041909252        2.2897282511
 Pt         1.3553332740        0.3670508007        2.1112913412
 Pt         2.7855630846        2.8131292577        2.1968071004
 Pt         4.1950533912        0.3841087227        2.2862865828
 Pt        11.2071348199        2.6990074232        2.2050026756
 Pt         5.7359395795        6.2494320710        4.4956120579
 Pt         8.6490363670        6.2592583361        4.4380313668
 Pt         7.2269716867        8.6764795896        4.4177609416
 Pt         7.1599793669        3.8011756602        4.4518356246
 Pt         8.5975343142        1.3738245319        4.4519595892
 Pt         5.8280086753        1.4863982426        4.5048393543
 Pt         9.9029140400        3.7429150723        4.3825044838
 Pt         9.8981036863        8.5612474899        4.3996825013
 Pt         1.6950445438        8.5312549744        4.4848169963
 Pt         0.3759925691        6.0936010376        4.6319800481
 Pt         2.8583072024        1.3423547595        4.4908211207
 Pt         3.0749822597        6.2564736510        4.4909294670
 Pt         4.5891951712        8.6964218663        4.5084418030
 Pt         4.3921630123        3.8367270189        4.4227862862
 Pt         0.1263123495        1.3042161835        4.5092468150
 Pt         1.6213245597        3.7562397640        4.5830443717
 Pt         7.3199367754        2.5167663279        6.8028387482
 Pt        10.1119281314        7.2468718553        6.7168711020
 Pt         8.8354850017        4.8857843688        6.8723955802
 Pt         8.6869521392        0.1180099700        6.8154034662
 Pt         5.8923120285        0.1552915716        6.8491344376
 Pt         3.1038866621        4.7966615327        6.9423546356
 Pt         3.0518400916        0.0302498584        6.8305220128
 Pt         7.3396298813        7.3266872231        6.8085318042
 Pt         4.4096376710        2.3980908965        6.7247542067
 Pt         1.6843508845        2.4611058584        6.9469105988
 Pt         0.3706974435        5.0051085592        7.1723129541
 Pt        10.1571561059        2.4960484040        6.7447770247
 Pt         6.0884685246        4.9017176858        6.9680174657
 Pt         0.3968704919        0.0509685522        6.8947387679
 Pt         1.6992328510        7.3055374210        6.7283294103
 Pt         4.5758401302        7.4331587414        6.8619763287
  O         6.1591347226        4.5458835581        9.1664574847
  H         9.2623338921        2.9911546910        8.9256457757
  O         1.9429722906        7.1200785393       10.1437886900
  O         0.2280826856        4.8811716581        9.5057844411
  H         4.4400958065        2.2548288797       10.8339555483
  H         4.9440216925        8.0440050476        9.5162473631
  H         6.9069793956        6.4366693912        9.8875756661
  O         0.2784296613       -0.2432415688        9.3155232320
  H         1.3803770192        7.9304434000       10.0393307159
  H         5.1725902617        4.7428975830        9.4236232125
  O         8.7013811187        0.0372626481        9.1093451375
  H        10.3509706932        9.4748533857        9.2383502444
  H        10.7016202176        5.0442115951       10.2633038220
  H         0.4781839856        0.7294953271        9.3585148432
  H         0.7751527804        5.6285653031        9.7937057604
  H         6.3329087442        2.7768125146        9.9517434911
  H         0.9874758970        3.4035383489        9.4533361387
  H         8.6842300384        1.0068034627        9.3648997989
  C         7.0492904736        5.3228263797        9.9673564011
  H         2.2326741874        7.1468957191       11.0990969198
  H         9.7785178935        2.0899740559       10.3018750602
  O         9.0354704960        2.5585933285        9.7946087452
  H         3.4817878840        7.4737658111        9.4205697938
  H         7.8051799018        9.2876815582        9.4316035851
  H         8.0572176943        5.1103061558        9.7179532175
  O         4.4657424489        7.3387371175        9.0517632681
  O         3.4293053132        2.1962335233       10.8997691030
  O         1.2836892218        2.4059218686        9.2467085874
  H         2.0405765202        2.1166612771        9.8538371809
  H        10.2180320398        6.5316535107       11.9119320017
  O        10.0752300244        5.6255819842       11.5236143006
  H         3.2075194779        2.1836247235       11.9160277779
  O         5.9988158364        2.3046246184       10.7468799345
  O         3.7403458333        4.8823695505       10.1932817954
  H         3.3434799120        4.9467921733        9.3176383055
  H         6.9733781951        4.9079975258       10.9537933802
  H         5.4404460884        7.4370296516       12.7825741168
  H         6.7170264536        2.4242445571       11.4868241889
  H        10.7909897983        5.0444594828       11.9858843239
  H         6.9167635257        8.2997204520       10.8683285112
  H         6.2969629341        9.7405638407       10.7142995043
  O         6.4913609747        8.9194447279       10.2415941363
  O         6.4545265622        7.4237270913       12.8200703237
  H         3.6274075799        3.9478686665       10.5270554442
  H        10.5573510715        0.3707892819       11.6479150839
  H         6.5853830470        6.7434128428       13.5612890793
  H         7.3215184059        8.6916939239       13.5892983175
  H         9.4720473958        8.4040966614       12.9949950156
  H        10.7141291374        1.6961331253       12.3916787319
  O        -0.7615733364        8.2283254782       12.6428744609
  O         8.0069465592       -0.2827592593       13.7925451138
  O        10.2693728651        1.3028008570       11.6264796415
 Cl         3.2899400454       -2.1104163619       12.7294821614
  H         4.4750161033        0.8433802911       14.0046417303
  O        12.0979891505        4.1408478450       12.4068959172
  H        11.7798547983        3.6399361745       13.2110925528
  O         3.4497321080        4.4453170036       13.2464382818
  H         3.5949773906        5.3907710568       12.9365901831
  O         7.7383058803        2.2665770386       12.7680883357
  H        -0.2617982185        8.2137713605       13.4656799307
  O         3.6701776211        1.0295268851       13.4900804538
  H        13.0537279383        4.3753462117       12.6846778570
  H         8.7205633126        2.5069848376       12.5978743315
  H         7.8726366782        1.3576863605       13.1440410873
  H         8.1490086485       -0.4442426862       14.7606696946
  H         4.6377633631       -1.0539343283       16.0190195374
  O         6.6165245241        5.1180442821       14.4445482814
  H         3.6927519059        4.4351457446       14.1819211401
  H         6.9987685126        4.2920228005       14.1318452554
  H         2.2385695919        9.6828632272       17.2351204089
  H         3.4866215788        0.1193720748       13.0884767929
  H         9.4065147972        5.4898589465       16.0713614820
  H         4.4026601318        5.4330946354       16.3880428036
  H         5.8798512266        4.8817197920       15.0814411265
  H         7.8056285617        5.3567662279       15.7266902161
  O         5.3140217813       -0.4703769112       15.6820027573
  H         6.1781347567       -0.8324069298       16.1124959953
  O         4.5447431544        4.5660449175       15.8493485611
  O         2.8266553798        9.1420753055       17.8504840827
  O         8.4519588305        5.5669580549       16.4381516649
  H         4.7376307827        3.8819597349       16.4567234255
  H         8.2202204600        7.3531302347       16.5694172026
 Cl        -0.6691332145        2.5907514502       14.6053269084
  O         1.4679157945        9.9899000684       15.6537845086
  O         8.1390859519        8.3303534070       16.4585082850
  H         2.1770858962       10.1530131121       14.9504362204
  H        -0.2213516534        4.5753159509       15.4889255106
  O        -0.2769306203        5.4102137053       15.9292951711
  H         3.2648181204        9.8753419507       18.4058430147
  H         5.2306569463        1.1489180551       16.2623741941
  H         6.4993436342        1.8151561043       16.7874287275
  H         0.7421805189       10.6619276072       15.3926969662
  H         0.1684891559        6.1997480150       15.4313850945
  H         1.5734639623        7.4648166962       13.9894543447
  O         5.5565593335        1.8634422732       16.8209853685
  H         8.6533533844        8.7565392718       17.1655064289
  H         8.2301372831        4.9253403333       17.8327635221
  H         8.3200427389        3.0616464775       17.3016578618
  O         0.8828324502        7.3793609064       14.7280160855
  O         8.4438223128        2.2326743755       16.7831391165
  O         1.5195028331        0.1750366802       21.5360137856
  H        12.1723186118        8.1319899332       15.3339427751
  O         7.9000742285        4.3979273179       18.5632549532
  H         2.1759831606       -0.3442329194       21.9995706206
  H         8.9466768100        2.3935408573       15.9159510808
  H         1.2404397648        9.1847414978       20.8059737700
  H        10.6495900334        0.7330594318       18.6298527431
  H         1.8135313460        8.3035417286       19.1508564219
  H         4.7005421405        1.6100720463       18.2835536807
  O         9.8736927446        0.3639656515       18.1698676709
  H         7.1655936819        4.9313565265       18.8447779939
  O         1.1130711825        7.8933098318       19.7477058910
  O         4.0240492375        1.5359901289       19.0453719201
  H         3.9453068731        2.4974307851       19.1787762971
  H         9.4406418166        1.1924092819       17.7393505349
  O         0.6266124890        4.5877335686       18.9537244658
  H         1.5762445727        7.2004434877       20.2877581220
  H         2.1168243463        4.3163750634       19.1956415582
  H         3.7721432421        7.6003755276       17.6402145496
  O         6.2592065334        6.5329907195       19.6705779242
  H        11.4275085144        4.9180347203       18.1096545359
  H         3.5382912312        5.0848070267       18.8196035973
  O         3.1629915796        4.2806834130       19.2618187097
  H         7.0183771937        7.2019926517       19.6889081669
  H         4.5128872068        5.3878972833       22.0483179810
  H         4.9243602598        6.7986965903       18.2447943897
  H         5.9037875333        6.4570591195       20.6170864215
  H        11.0668993675        4.7489105281       19.6371795989
  O         4.1755936710        6.7061777392       17.6032213527
  O         0.9758645221        1.4897301482       19.2374567299
  O         4.9406077310        6.3019665569       22.0670235081
  H         5.0291868298        1.1388581070       20.4068373433
  H         8.9397849058        4.6856641510       20.0164504400
  H         1.3854280329        1.4936940072       20.1314300974
  O         9.9408124175       13.2582519447       22.9435822289
  H         1.0838004556       12.0475588698       18.8953541994
  H         9.7532111337       13.5701669038       22.0330357089
  O         5.6285221266        0.5580535662       21.0098674772
  O         9.7296550160        4.8365033559       20.6537833057
  H         5.6594010492        6.3104392160       22.7587979311
  H         9.8616632885        2.6304885458       22.9854860974
  H         7.3518939224        9.3319791166       20.5207222622
  H         3.3293839529        4.1493239006       20.8495409957
  H         9.6235694551        5.8032970353       20.9870691344
  O         8.0709275022        8.7302195029       20.2402365953
  H         5.1959153454       -0.2457827287       21.2990124321
  H         3.5956186722        7.4155251746       22.8335668974
  H         8.7338986672        9.2755349901       19.8051644413
  O         3.5710009773        4.1753934260       21.8455994048
  O        11.0005983579       10.6632906563       23.5603057039
  O         3.0290678187        8.1898060572       23.0164203174
  O         7.5163579141        1.5494292059       22.8029051389
  H         8.8618398064        4.1340447734       23.8489070911
  H         2.6967377931        4.4712312751       22.2105143114
  H         2.2780571825        7.8713429814       23.5828704195
  H        11.6652010562       10.2374229659       22.8839328531
  H         6.7868215877        1.2261557196       22.1453759612
  H         6.9538819219        2.0762732028       23.3741075969
  H         4.3945942600        3.0180057915       23.1861912287
  H        11.5104086127        1.3299940629       24.2996048861
  H         0.6952994566        6.4554689256       23.5387372918
  O        -1.8076642629        7.1005846245       22.0993117570
  H        -1.0484809746        7.3156956023       22.7536240917
  O         0.3518590575        7.4088412329       23.5322031868
  O         5.1758763287        2.7629267635       23.7309103475
  O         8.0276091869        4.3725722016       24.4566745181
  O        12.5775442896        4.9307505698       23.6056022648
  O         7.1040337196        6.8447114557       23.6244899409
  H         8.0711350033       10.0268165700       23.6677250205
  H         4.5365202295        9.1558262587       24.0134187767
  H        11.7820840068        4.3565823520       23.6985008143
  H         7.8421107504        7.0500152109       22.9809515053
  H         9.2126514741        7.9802025203       21.6873570595
  H         7.7632344770        5.3028407736       24.1858459026
  H         5.2396173359        0.7654260419       24.0467629038
  H         9.5779807587        9.5389862744       23.9828899471
  H         5.4142570799        3.5421041784       24.2894112407
  H         0.1886983149        7.5914864444       24.5158010482
  O         8.6527414200        9.2892477091       24.0674793860
  O         5.4713883581       -0.1689426395       24.2224489556
  H         1.9795646498        4.7258989726       24.4032569222
  H         6.9241163685        7.5855191687       24.3181130220
 Pt         2.7922433366        9.0557921066       26.7989884707
 Pt         5.7443764208        9.1751934859       26.5402165992
 Pt         8.4448117299        9.1467892848       26.3662866154
 Pt        11.2433085119        9.0750287932       26.6994511095
 Pt         8.3362799698        4.2329647807       26.5613843587
 Pt         4.3022897899        6.7552812080       26.5167315679
 Pt         9.7862290569        6.6889020188       26.7226482175
 Pt         6.9023160810        6.6647438798       26.6957016641
 Pt        11.1736807484        4.2266796661       26.7771413422
 Pt         1.5143405266        6.6939929692       26.6519666832
 Pt         9.7429203670        1.8689771546       26.7164551164
 Pt         6.8711949356        1.8578954997       26.6834134007
 Pt         2.7406161285        4.2326728460       26.7305960733
 Pt         5.6809924416        4.3363574386       26.7758700412
 Pt         1.3079937894        1.9136239336       26.5989076540
 Pt         4.1260725414        1.9379206437       26.6718084590
