     246
Tv_1:  11.152900   0.000000   0.000000 Tv_2:   0.000000   9.658700   0.000000 Tv_3:   0.000000   0.000000  26.829700
 Pt         5.6564894034        7.6837860657        2.1111151659
 Pt         7.0048399666        0.4924331598        2.1270593515
 Pt        11.2384221137        7.6525404481        2.3596684166
 Pt         8.5075831068        7.8245567961        2.1777569264
 Pt         8.3144209782        2.8312296106        2.1980599864
 Pt         2.8875872406        7.5937919974        2.1278096048
 Pt         9.7576142436        5.2089351996        2.1143419092
 Pt         6.8804242902        5.2951809918        2.1752753202
 Pt         5.5533296604        2.8660360978        2.1598462950
 Pt         4.2260919164        5.2996166653        2.2838561409
 Pt         9.8828939167        0.4431623040        2.2582427298
 Pt         1.3096523301        5.2035706448        2.1979102263
 Pt         1.4672380940        0.4991442144        2.2382149276
 Pt         2.7153106275        2.8417063548        2.1634435674
 Pt         4.2710909686        0.4385078300        2.2036389565
 Pt        11.1126717216        2.8850662414        2.3577625485
 Pt         5.6588686953        6.2438118089        4.6122493303
 Pt         8.5239755407        6.2228753677        4.3301238299
 Pt         7.0407058971        8.5670135960        4.3831442487
 Pt         7.0856456438        3.7721775480        4.4703851293
 Pt         8.6236824919        1.3536348582        4.4678885452
 Pt         5.7136425842        1.3403744822        4.4016080778
 Pt         9.7561461005        3.7756404728        4.5144835936
 Pt         9.9134702938        8.6944910102        4.4801186862
 Pt         1.6041150338        8.5986907353        4.5424035410
 Pt         0.1301564683        6.0831766971        4.4887681410
 Pt         2.9237746665        1.4043478025        4.3822004603
 Pt         2.8918653126        6.2015089357        4.5017500589
 Pt         4.3096053286        8.6442496208        4.4633983728
 Pt         4.4718148624        3.8680841605        4.4628168898
 Pt         0.1541415281        1.3970204933        4.6956735749
 Pt         1.6780165050        3.7752975968        4.5605100223
 Pt         7.2876849584        2.4661806891        6.8511190767
 Pt        10.1925204310        7.3786319657        6.6444361956
 Pt         8.8712898930        4.8751056291        6.8964839903
 Pt         8.8166722850        0.2590762696        6.7734338094
 Pt         6.0886516366        0.1096387545        6.7660040175
 Pt         3.1761413772        4.8471918590        6.8657147338
 Pt         3.1985714481        0.0084576509        6.9475572129
 Pt         7.3907176639        7.3628302550        6.6707148822
 Pt         4.6102048781        2.5279997121        6.8490326371
 Pt         1.9488710958        2.4570021866        6.8800890123
 Pt         0.4980353824        4.8255635120        6.8943643570
 Pt        10.1309932734        2.5058456720        6.9849702466
 Pt         6.1002953348        4.9134642779        6.8870577490
 Pt         0.5073339280        0.0757536910        6.9370190162
 Pt         1.9844045074        7.2837138066        6.9580683518
 Pt         4.6835318957        7.2502971139        6.9268644328
  O         6.3359187792        4.6007834710        9.0739330769
  H         9.6789338691        2.9601793124        9.1602491521
  O         2.3783677800        7.2551275399       10.0186168220
  O         0.5273459375        4.8859854659        9.2776044652
  H         4.0643511324        2.0115939274       10.8130621895
  H         5.5089593139        8.0272591265        9.4116301742
  H         8.1398975114        4.8300930143       10.1411757714
  O         0.4151424425       -0.2859764998        9.4045107335
  H         1.5472279074        7.8583850986       10.0209531292
  H         5.3867145192        4.5891046422        9.4583781616
  O         9.0019338697        0.0992168260        9.0867154012
  H        10.5616584475        9.3323742646        9.4492398910
  H        10.8835613397        5.2041304165        9.8540746130
  H         0.7443714059        0.5707535018        9.6806159444
  H         1.2389697642        5.5372109987        9.6355593720
  H         5.6234022853        2.0566087683        9.3386506568
  H         1.0537171788        3.2106406260        9.4169908246
  H         8.9737837666        1.1581288980        9.4014714898
  C         7.2206777379        5.4134857183        9.9123467628
  H         2.6592275119        7.0072522288       10.9263315393
  H         9.7959291249        2.3917040278       10.7102589127
  O         9.1805935499        2.4860310269        9.8829066919
  H         3.9156744693        7.5930594412        9.4463188719
  H         8.1584804132        9.3809135362        9.4953071422
  H         6.7413271227        5.5231665252       10.8258033075
  O         4.8586077566        7.3974822880        9.0496972407
  O         3.0843400031        1.9074346003       11.1164178003
  O         1.4858463726        2.3137854106        9.2456354908
  H         2.1612329686        2.2733333150       10.0698842227
  H         9.9540009792        6.4404916361       11.4794066874
  O         9.9266750997        5.4948212466       11.2591530891
  H         2.9315349027        2.2595144761       12.0747967514
  O         5.6171751618        1.8335148524       10.3448319458
  O         3.8088427608        4.3857275174        9.8793416126
  H         3.4829971426        4.5549505924        8.9217551325
  H         7.3769020232        6.3718489805        9.2956083303
  H         5.5777184650        7.5081014568       12.9706287415
  H         6.1774958445        2.4901933810       10.8469895467
  H        10.3669034610        5.0753683650       12.0316594514
  H         6.7642779487        8.4737211422       11.2739393242
  H         6.4165904602        9.8425078602       10.5435289427
  O         6.7011708155        8.8600279328       10.4256329178
  O         6.5815132459        7.7263465352       12.9272721855
  H         3.4287662209        3.6325079058       10.3592633624
  H        10.4782871906        0.7430855219       12.2637459835
  H         6.9584570805        6.9207352870       13.3532839510
  H         7.5968646116        9.4054160960       13.6536980937
  H         9.3179061808        8.3846507190       12.4939938265
  H        10.8632699688        2.3349297087       12.5241624375
  O        -1.1131084007        8.0013442415       12.0157268091
  O         8.0865925306        0.5025933842       13.3171852889
  O        10.8054738750        1.5619448268       11.8616290188
 Cl         3.6808951479       -3.0507184294       12.7596265677
  H         4.2218811262       -0.0675505978       14.2974042624
  O        11.4060704620        4.1702910016       13.0565711417
  H        11.1493517037        3.7466086613       13.9367339383
  O         2.8114709413        3.7844257278       13.2788726860
  H         3.1554492376        4.7127693941       13.0688988355
  O         7.4235000689        3.0038581574       12.0424364116
  H        -0.6770818354        7.6522217943       12.8462323370
  O         3.8714486107        0.1932648553       13.3956432572
  H        12.4162046402        4.0303081107       13.1025600614
  H         8.0347588899        3.2337770380       11.2556163159
  H         7.8635126292        2.1777636983       12.3615152949
  H         8.7237353897        0.7228617301       14.0470488718
  H         4.2403527441       -0.6740441049       16.5043278198
  O         7.0146126180        4.9360444503       13.9995719950
  H         3.2249731202        3.4793347503       14.1043669981
  H         7.3974252704        4.3629168639       13.3294218361
  H         2.0269636578        8.8299312901       16.7595998607
  H         3.5909171412       -0.6869555497       13.0341369619
  H         9.0399746034        6.1233084302       15.9773939336
  H         4.4482449885        5.0397117668       15.9038200741
  H         6.1257763778        4.6057205618       14.2610305294
  H         7.7191004210        5.6205151155       15.2434922850
  O         4.9120519538       -0.2537616619       15.8525699504
  H         5.8149577259       -0.5809854637       16.1049122341
  O         4.7493751537        4.3260572076       15.3046955217
  O         2.6251794120        8.6036037238       17.4862863028
  O         8.0542343881        6.2176055937       16.0477719599
  H         5.0788254481        3.4909107978       15.8182385811
  H         7.4782031592        7.7877734786       15.9744488116
 Cl        -0.8376287975        2.6459032843       15.3422915104
  O         1.6815347216        9.8132584757       14.7118036799
  O         7.3499367949        8.7410564381       15.8611830925
  H         2.4360582971       10.0293924592       14.0319295946
  H        -0.1400671411        4.7753810921       15.9273901470
  O        -0.2382964531        5.7537196926       15.9615067354
  H         2.7878328094        9.5440337974       17.8319498230
  H         5.4533697300        1.3749184269       16.2815780191
  H         6.5902275483        2.0675446523       16.8580623891
  H         1.0611549762       10.5562615038       14.7172670510
  H         0.3101685237        6.1657833905       15.2455124949
  H         1.4020768986        6.9658771169       13.4900375557
  O         5.6387510678        2.1594246274       16.8192108945
  H         7.8478775510        9.2460373017       16.5277180388
  H         8.0091302781        5.1852566420       17.4230508010
  H         8.1179326257        3.0486270161       17.9975944942
  O         0.6226074968        7.4868820207       13.9040940111
  O         8.2659400416        2.0736194365       17.6769648489
  O         1.3051792191        0.0814441610       22.0724801607
  H        12.0988437412        8.4593902015       14.0237142004
  O         7.8105566907        4.7545474801       18.2849111062
  H         1.8414847747       -0.6165029300       22.5040478444
  H         8.9820180489        2.2442492858       16.9101731526
  H         0.7861930144        9.3355232190       21.3568996007
  H        10.1059080744       -0.7604309929       18.2525795661
  H         0.9001914475        8.6684640079       19.1086208830
  H         5.0299880703        2.4070360993       18.4636751643
  O         9.4186371367       -0.2782508915       17.7022949813
  H         7.0449670022        5.2511617689       18.6669570813
  O         0.3132334577        8.2332330305       19.7582135998
  O         4.7912925918        2.2106822640       19.3983231106
  H         3.8642183496        2.5631445521       19.5855764629
  H         9.4579618451        0.7202945483       17.8789003807
  O         0.5472586360        5.5049826361       18.8254568173
  H         0.5031681369        7.2484124245       19.6989092103
  H         1.9096787595        4.5194095749       18.9853306245
  H         3.4872618498        7.0168404841       17.3388530579
  O         6.0755016474        6.6691447416       19.2050325437
  H        11.6172862148        5.7724704504       17.8535563659
  H         3.2380048660        4.5596900817       18.2930409045
  O         2.7192672447        3.9948850315       18.8526848109
  H         6.6692088490        7.4327675236       19.1255183366
  H         4.3014021323        5.8282266181       21.5042022547
  H         4.6749574806        6.2803453044       18.1500740129
  H         5.5782653999        6.6312997714       20.0250510491
  H        10.8804771554        5.1604889714       19.2493035578
  O         4.0484456474        6.1765602729       17.3593723660
  O         2.1420756140        1.6023306246       17.8558968639
  O         4.7926392038        6.7126920742       21.6311423670
  H         5.5282862337        1.3306468735       20.5951510081
  H         8.9798099892        4.6332166281       19.6595316849
  H         2.2254698360        2.5178986794       18.2408038899
  O        10.1627375743       13.2987355742       22.9685786695
  H         1.2578237866       11.2872627630       17.4209808765
  H         9.9202162983       13.4010643162       21.9904777133
  O         6.0063919035        0.6167903800       21.0992148483
  O         9.6462947525        4.7023776433       20.3851358126
  H         5.5435954738        6.5034876271       22.2618228349
  H        10.2288383126        2.6490107915       23.1377338362
  H         7.2178456470        9.2591824036       20.3320816275
  H         3.4545569089        3.9695242545       20.6647673283
  H         9.3681580186        5.5014466214       20.9131697161
  O         7.9192024547        8.6448870156       19.9311576217
  H         5.3415257235       -0.1013024248       21.1839023262
  H         3.8764766691        7.6584300359       22.7328449534
  H         8.4540521881        9.0851220016       19.2144590429
  O         3.6584960824        4.2738265707       21.5494660891
  O        10.7151528431       10.8938213500       23.7411382756
  O         3.3719411408        8.1963862637       23.4243584610
  O         7.7111514449        1.5864008384       23.1092511497
  H         9.0693126171        4.1391673206       23.9379609208
  H         2.8698700508        4.2895462609       22.1130411752
  H         3.0026299389        7.5407601399       24.0349074213
  H        11.4223304682       10.4456735858       23.2007374200
  H         7.2875609695        1.1217424758       22.3071175076
  H         6.9895246759        2.1273889776       23.4940642333
  H         5.0686825270        2.8735091735       22.6879223652
  H        11.3217116013        1.6146070412       24.4411761081
  H         0.5779257705        6.2964029349       23.0335405604
  O        -2.0639451229        6.9188011722       21.9398181051
  H        -1.2305954107        7.0963501298       22.5787248222
  O         0.0733201031        7.0878023271       23.4042590814
  O         5.2004866443        2.3803076576       23.5080246836
  O         8.2409733987        4.4832892799       24.4879171964
  O        12.7624258152        4.2708038538       23.5813555706
  O         7.1102661958        6.5832341188       23.6497380127
  H         8.0171541278       10.1060782692       23.9261328311
  H         4.8974996418        8.8105939932       24.0323679735
  H        11.8641866352        3.9578723627       23.1675736704
  H         7.7548659438        6.8764392267       22.9202785136
  H         8.9358118532        7.5920789030       21.2797929878
  H         7.9777204196        5.4028780132       24.1506535310
  H         5.3793527535        0.6382970574       23.8325546023
  H         9.4523224939        9.8032657770       24.3876867003
  H         4.6483271743        2.7370468874       24.2598862643
  H        -0.0523778697        6.9083017648       24.3842270894
  O         8.5716640809        9.3737999169       24.4625311773
  O         5.6454258999       -0.2966329650       24.1567844678
  H         1.4998027040        4.1154463808       24.5346547036
  H         7.0171977224        7.3973952184       24.0975934024
 Pt         2.8017004696        9.1416562591       26.7419920813
 Pt         5.5684863135        9.1538645979       26.5476267179
 Pt         8.4067760646        9.1140054639       26.5229734222
 Pt        11.2327592215        9.1443327438       26.8710611800
 Pt         8.5399372055        4.5172465278       26.5131160237
 Pt         4.1246543555        6.7117389593       26.5480538156
 Pt         9.8303971734        6.7641042999       26.7511505211
 Pt         6.8182991992        6.6666975320       26.7733829072
 Pt        11.1705624035        4.2294944572       26.6561389887
 Pt         1.3350115980        6.7329436311       26.6259244671
 Pt         9.7267185908        1.8532706640       26.8411337191
 Pt         7.0331025053        1.9874179480       26.7630822170
 Pt         2.8267876098        4.3134264729       26.7012723192
 Pt         5.6970640218        4.2369917992       26.6429370182
 Pt         1.4050499109        1.8705550975       26.6486710395
 Pt         4.1854616233        1.9031640913       26.7066911775
