     246
Tv_1:  11.152900   0.000000   0.000000 Tv_2:   0.000000   9.658700   0.000000 Tv_3:   0.000000   0.000000  26.829700
 Pt         5.4128079196        7.7280269352        2.2399509534
 Pt         6.8384564833        0.3234151490        2.0569654697
 Pt        11.0673449144        7.7041699531        2.1962804647
 Pt         8.3250976006        7.7097539128        2.1472687486
 Pt         8.2292523706        2.7968654761        2.1496264944
 Pt         2.6629917800        7.6886363250        2.2077589730
 Pt         9.6300706609        5.1620262668        2.2338079147
 Pt         6.9029310342        5.1133357385        2.0877183232
 Pt         5.4486337955        2.8529053660        2.2179216808
 Pt         3.9720691041        5.1580305485        2.1648171023
 Pt         9.6472980814        0.3794109467        2.2472880428
 Pt         1.2662303237        5.2370624311        2.2125640943
 Pt         1.2968874600        0.5151123023        2.0892520663
 Pt         2.6215716211        2.8233714248        2.1876376241
 Pt         4.1968256827        0.5012377867        2.2490498188
 Pt        10.9754389917        2.7275086663        2.3089673606
 Pt         5.9593341638        6.3108388089        4.3415490769
 Pt         8.7483990588        6.3895946906        4.4443360268
 Pt         7.3118554899        8.8071823058        4.4864203991
 Pt         7.3006682173        3.8509634334        4.4858793160
 Pt         8.7023638638        1.4418467903        4.5628966784
 Pt         5.8823931822        1.4956247265        4.4553026954
 Pt        10.0664604781        3.9237882054        4.5451705470
 Pt        10.1361175786        8.6716155756        4.5798238971
 Pt         1.6425088397        8.7672947263        4.5100718603
 Pt         0.3480695504        6.3663934922        4.6354480239
 Pt         3.1201100577        1.5373105286        4.5420382540
 Pt         3.2168716371        6.3814015494        4.4581530685
 Pt         4.5328151352        8.8258459292        4.5901141518
 Pt         4.6237462620        3.9088561646        4.4156310367
 Pt         0.3691364052        1.4800650198        4.5365367894
 Pt         1.6668870047        3.9531923725        4.5833206280
 Pt         7.7167292437        2.4285111219        6.9200058293
 Pt        10.4468048504        7.4139870991        6.9542394804
 Pt         9.1473888430        4.8498044194        6.9014557710
 Pt         8.9584368569        0.0277960749        6.8502593484
 Pt         6.1639757890        0.0688204383        6.8451449363
 Pt         3.7563348036        4.9098261399        6.7520406903
 Pt         3.5915529047        0.1814397553        6.8425611024
 Pt         7.6368390143        7.3139885650        6.7853111279
 Pt         4.9884865279        2.4561002802        6.8874793186
 Pt         2.2548072406        2.5705347968        6.9605429547
 Pt         0.8809045114        5.0162316036        6.9842790545
 Pt        10.5541820143        2.4992367522        6.8126225195
 Pt         6.4335572976        4.8979499895        6.7629165323
 Pt         0.6901321852        0.1099914467        6.9279545757
 Pt         1.9934565560        7.4721603256        6.7641658872
 Pt         4.8443889100        7.2536442555        6.8683421676
  O         6.6198979796        4.8160074683        9.1359529641
  H         9.8395409653        2.7319657835        8.9914669779
  O         2.1938881289        7.2535463242        9.9349755898
  O         0.7298625375        5.1186168832        9.3691674730
  H         4.7489640127        2.0397695404       11.0399589224
  H         5.7458173420        8.0985663107        9.4312834470
  H         8.2594129110        5.0771792458       10.4277618771
  O         0.8473656170        0.0114966724        9.5335580685
  H         1.6691235584        8.0690660917        9.7312915545
  H         5.6086590431        4.8639260119        9.4793613593
  O         9.2002095881       -0.0607834716        9.2084980136
  H        11.0252919180        9.5307085736        9.7571780419
  H        11.0372852520        5.4060546610        9.8529348580
  H         1.0946843813        0.9532307320        9.6588071046
  H         1.2706044916        5.9254051425        9.6088126511
  H         6.8066989246        2.7379179980        9.9647684813
  H         1.3383026893        3.4023353063        9.4708611557
  H         9.1311869942        0.9153763435        9.3822510596
  C         7.4153393261        5.6320326583        9.9852979511
  H         2.5938606910        7.5519640972       10.7862639716
  H        10.0715742232        2.3776056045       10.5059689993
  O         9.4320121829        2.6987475272        9.8573216515
  H         4.1750868555        7.4660857266        9.3310569116
  H         8.2896217757        9.3583833773        9.5708758022
  H         6.8993015422        6.1652039127       10.7965285542
  O         5.0901184912        7.3388430244        9.0408422010
  O         3.8026668748        2.3285142538       11.3044579304
  O         1.8214515203        2.5495454912        9.3203037763
  H         2.5743552418        2.4223596325       10.0060715212
  H        10.2240171610        6.6747088127       11.6357802175
  O        10.1645745017        5.7481196938       11.3303681330
  H         3.5723218357        1.7684797420       12.0897729456
  O         6.5610021774        2.0678871607       10.6123791061
  O         4.2220279354        4.7632975688       10.1689168209
  H         4.0356966345        4.0316936551       10.7526036475
  H         7.8677601159        6.4454107841        9.3901426716
  H         6.9759018731        8.7501029721       13.3786630031
  H         6.9694169912        2.4270847964       11.4514787425
  H        10.5845670718        5.1811876017       12.0289996697
  H         6.6821509785        8.7778015355       11.0758196892
  H         6.4690466891        9.9940454217       10.1465238595
  O         6.6711840196        9.0054453850       10.0869558530
  O         7.2920303499        8.2471278064       12.5476304458
  H         4.1046673100        5.6154922872       10.6843713535
  H        10.8444163813        0.9829001460       12.0731911418
  H         6.9979749093        7.3284389065       12.7883673096
  H         8.7122263066       10.8386345179       15.2524844813
  H         9.2802223844        8.4827018891       12.2320052183
  H        11.2775808198        2.5247239559       12.3335318532
  O        -0.9169417166        8.6315350419       12.0113939911
  O         8.6549636584        2.1712106139       15.0225726667
  O        11.1277904440        1.8465205430       11.6769861774
 Cl         3.8149422735       -2.1222193681       12.2040347139
  H         5.0012079615        0.4660721262       14.1275856718
  O        11.2434859095        3.9726026282       13.1801530806
  H        10.9223131583        3.6176448048       14.0397890988
  O         2.3500734346        5.3038298650       13.9370917018
  H         2.9812597817        5.8729053949       13.4928229591
  O         8.1605396215        3.1154269829       12.6991273085
  H        -0.4105089125        8.6169646624       12.8415140622
  O         4.0439814108        0.5793987397       13.9278057789
  H        12.1020102807        4.4775576348       13.4180975872
  H         9.0236489570        3.2164135499       12.2211458197
  H         8.4451611110        2.6566174330       13.5836182856
  H         9.3254340135        2.5764816418       15.6099969701
  H         5.8880887755       -0.9907820125       15.6154839716
  O         6.8462833875        5.6307332927       13.4293025851
  H         2.8751236343        4.9738960874       14.7273612223
  H         7.3534260382        4.8770842212       13.0448734758
  H         2.4940686196        9.8516477913       16.7504835449
  H         3.8956500699       -0.1625562166       13.3104571508
  H         9.9720267625        6.4195120265       15.4378579616
  H         4.6015625374        5.8837975200       16.0406062551
  H         6.0458912824        5.2546561959       13.8425932466
  H         8.3668374311        6.0465892076       14.8905756987
  O         6.4046354107       -0.4263402486       14.9832985432
  H         7.2617898510       -0.2691065455       15.4334632923
  O         4.6397228452        5.0017802489       15.5807027004
  O         2.7696202726        9.2927343036       17.5494361077
  O         8.9144275718        6.7046351884       15.3942099132
  H         5.2876368703        4.4000072289       15.9335540424
  H         8.9631683775        8.4331482850       16.0809308952
 Cl        -0.0854072448        3.1660783807       16.3531377014
  O         1.9832633233       10.7102715225       15.5265715071
  O         8.8605989534        9.3921608766       16.1416720334
  H         2.7828017800       10.7649207714       14.8868741432
  H         0.3586047632        5.2036691419       16.1067288720
  O         0.2155692702        6.1306857671       15.8971243454
  H         3.5442899306        9.6341294893       17.9418757838
  H         7.1327273192        2.6238706852       16.2311262666
  H         7.1297740467        3.3827179549       17.5649107303
  H         1.4981929887       11.5175095757       15.7984657904
  H         0.8887122724        6.3246924765       15.2067164042
  H         2.0469614611        8.2770631013       13.5589924644
  O         6.5591193067        3.1573524719       16.8099324640
  H         9.1739345760        9.5848265904       17.0611625670
  H         8.5300916765        6.1237632320       16.9829381211
  H         8.5059438147        4.4388869624       18.2528094199
  O         1.2295726616        8.2759075816       14.0930374081
  O         8.5656617864        3.4635140420       18.4979208653
  O         1.2914116430       -0.2967496443       21.2951537609
  H        12.3594838546        9.0777958678       14.6814154862
  O         8.3480386208        5.9557853049       17.9762073902
  H         1.9519857071       -0.8315236258       21.8042471109
  H         9.3438927371        3.1009798913       17.9736289999
  H         1.0055239756        8.6480465250       20.5923624683
  H        10.3769347181       -0.6963426732       18.8021271509
  H         1.3363928033        8.1155552458       18.5182116234
  H         5.3526932889        2.1732533730       17.7784368546
  O         9.6593822588        0.0249653242       18.7083275082
  H         7.5671456491        6.4627397020       18.2052489784
  O         0.5347791609        7.9897243416       19.1355636800
  O         4.7213139038        1.6378776944       18.4521593732
  H         4.0096992903        2.3140141120       18.6354634528
  H        10.1969227008        0.8597352129       18.9925299662
  O         0.4651376608        5.3708255677       19.2824991288
  H         0.5452288591        7.0281055395       19.2022126521
  H         2.3493944137        4.6485774961       18.8436886516
  H         3.8703689757        7.9364707972       16.7393457294
  O         6.1180558092        7.1130103622       19.0107955274
  H        11.0693988499        5.1444756452       18.5311352007
  H         3.6928792288        4.9035101151       18.2615899398
  O         3.2638442725        4.2854774121       18.8490882614
  H         6.6773317800        7.8432934932       19.3825900528
  H         4.5940293242        5.4801284011       21.6976789641
  H         5.1000525623        7.4729118787       17.6878611220
  H         5.6920250729        6.8047098412       19.9243002723
  H        11.1684113012        4.9192869130       20.0215122450
  O         4.6649107143        7.3738751291       16.7856081217
  O         0.4311415953        1.9047325632       19.7261652755
  O         4.9997181055        6.3985804797       21.6287285672
  H         5.3537991750        1.4437411012       19.9909936198
  H         9.1343255610        4.4397185157       20.1496443954
  H         1.0026256075        1.2279092111       20.1796797874
  O        10.3749702582       13.0012931506       23.3868238519
  H         0.7995995294       11.6032856406       18.8114516447
  H        10.0663517868       13.2760252090       22.4632123258
  O         5.6264231525        1.1820737134       20.9824385483
  O         9.4422092988        4.5787567666       21.0474497080
  H         5.7106154721        6.3113061153       22.3876066228
  H        10.5931855640        2.3883185459       23.4115961742
  H         7.0273495560        9.7471879565       20.5039639915
  H         3.2698816114        4.1037788740       21.0030819773
  H         8.9665039599        5.3672040692       21.3994735952
  O         7.6046881136        9.0828746726       20.0510223500
  H         4.9545903100        0.5492575434       21.2570283146
  H         3.6038827944        7.2025660003       22.3905469023
  H         8.3875334359        9.4381397355       19.5101792588
  O         3.5091489510        4.0034423747       21.9266947114
  O        11.0622956443       10.1485840721       23.7146289334
  O         3.1010120145        7.6790350019       23.1513103736
  O         7.5317871274        1.3274467889       22.9892547475
  H         8.8125311710        3.7275107898       23.9329776167
  H         2.6345028903        4.1351019333       22.4351837348
  H         2.2337700200        7.2831896670       23.3520764459
  H        11.6455321508        9.7171949597       23.0223411049
  H         6.8462316176        1.3625529677       22.3209436111
  H         7.4322398169        2.1112417458       23.6129650904
  H         4.1104092634        2.3079475359       22.6537107161
  H        11.5535292302        0.6327838372       24.5365800292
  H         0.6650673190        6.1196358622       23.0627951255
  O        -2.0327244983        7.0502310907       21.9817135764
  H        -1.1021336208        7.2577273419       22.2853072094
  O         0.4486276016        7.0642655554       23.2239603491
  O         4.1397334841        1.6675185470       23.4145925240
  O         7.8174485705        3.7485610075       24.1931051052
  O        12.7041716048        4.5809945604       23.4372853995
  O         6.8676099693        6.4857099788       23.5590992900
  H         8.0032915581        9.8021533035       23.8309704988
  H         4.5832117612        8.4382625063       23.9267572115
  H        11.8452413089        4.1457945527       23.4652193849
  H         7.7914025379        6.8700982169       23.3660262997
  H         8.7570004301        7.8217978870       21.4682655956
  H         7.5046426014        4.5436738118       23.7736867121
  H         4.8258227742        0.2909760015       23.8766334715
  H         9.5148703208        9.2467019297       24.1411453688
  H         3.6983039393        2.2329731419       24.0761422235
  H         0.1785225839        7.0611220179       24.1765254907
  O         8.5556436470        9.0134890412       24.2797458686
  O         5.2323346777       -0.5807604237       24.2777380513
  H         1.9577985303        4.5489755276       24.3890273854
  H         6.6435920461        6.9239192507       24.3866946750
 Pt         2.4696968868        9.0053064646       26.7571751765
 Pt         5.2076436574        9.0021291558       26.4680933106
 Pt         8.1537624356        8.9940308695       26.4729627141
 Pt        10.8967301165        8.9947306782       26.6795651841
 Pt         7.9091627772        4.2162279618       26.5493080345
 Pt         3.7639216585        6.6068546269       26.6402714398
 Pt         9.5570286358        6.5516560350       26.7376378510
 Pt         6.5338791201        6.7386675386       26.8183630905
 Pt        10.6339442259        4.0264490840       26.7664036367
 Pt         1.1068037637        6.6108678235       26.5968013914
 Pt         9.3972857668        1.7530635279       26.5818158181
 Pt         6.4539494917        1.8558350456       26.7152216684
 Pt         2.5043796817        4.1466705718       26.6582630606
 Pt         5.1002269776        4.1544294884       26.5594419271
 Pt         1.0811511867        1.8164384538       26.6327875531
 Pt         3.7813946513        1.7503942745       26.5789841113
