     246
Tv_1:  11.152900   0.000000   0.000000 Tv_2:   0.000000   9.658700   0.000000 Tv_3:   0.000000   0.000000  26.829700
 Pt         5.3411820315        7.7136556191        2.0393358777
 Pt         6.7772206068        0.3629017515        1.9787936925
 Pt        10.9081581155        7.6193204774        2.1899284880
 Pt         8.1291332970        7.6031689665        2.0911420529
 Pt         8.3338332898        2.6006515221        2.2619530352
 Pt         2.5889624762        7.6819213413        2.2090101254
 Pt         9.6615241875        5.1702945409        2.2394850716
 Pt         6.9204156314        5.0352346904        2.2179420366
 Pt         5.3718048539        2.6783754868        2.2051101798
 Pt         4.1096338725        5.2853188446        2.2569697718
 Pt         9.5991442322        0.3447388831        2.2206618877
 Pt         1.1952668774        5.1707264662        2.1596868719
 Pt         1.2859465110        0.4827358489        2.1472758764
 Pt         2.6839007217        2.8368748148        2.2012338123
 Pt         3.9997098561        0.4362088125        2.1479794433
 Pt        11.0734143930        2.7335188631        2.2207377989
 Pt         5.8807607810        6.3280328221        4.5220684604
 Pt         8.8110036826        6.3178590272        4.4892816471
 Pt         7.3387885172        8.7034119993        4.3868746621
 Pt         7.4299815954        3.8380148542        4.5552672524
 Pt         8.7223710954        1.3918315103        4.5601568649
 Pt         6.0460884320        1.4860079021        4.4566411585
 Pt        10.1774173645        3.9065235678        4.5015649764
 Pt        10.1257920662        8.7854209283        4.5751476699
 Pt         1.6731109429        8.9116366712        4.5241653494
 Pt         0.4242813763        6.4198595840        4.4451171026
 Pt         3.1967398299        1.5715153855        4.4659619432
 Pt         3.1724604044        6.4950863110        4.5267642609
 Pt         4.6540267704        8.8094391053        4.4612254733
 Pt         4.4771089242        4.0372204956        4.5423741831
 Pt         0.3492669080        1.4687084524        4.5783306184
 Pt         1.7159498236        4.0324107826        4.5360831135
 Pt         7.7126665001        2.6146905395        6.8654345113
 Pt        10.3689554105        7.3286450508        6.7589072431
 Pt         9.1980328260        4.9591631434        6.8818310924
 Pt         9.1064759607        0.2897287830        7.0770743819
 Pt         6.3682789592        0.2200074538        6.9022222533
 Pt         3.5507417008        5.0305268463        6.8677434345
 Pt         3.5131046116        0.1646550233        6.7914488897
 Pt         7.6879756641        7.6099412802        6.8564291970
 Pt         4.9808576458        2.5533455320        6.7824934401
 Pt         2.3533132424        2.5829974543        6.9574861922
 Pt         0.8168087354        4.9644719006        6.9225642040
 Pt        10.4478178202        2.6782038639        6.8043440582
 Pt         6.4069478061        5.1158805356        6.8904175695
 Pt         0.6319967819        0.1411604572        6.9812578503
 Pt         2.1606602391        7.3808000040        6.7867338142
 Pt         4.9645043389        7.5226261372        6.9072728139
  O         6.5631973266        4.7444694582        9.1336674332
  H        10.1170634226        2.6595601403        9.1984130073
  O         2.3905470214        7.1498467029       10.0616567081
  O         0.9032811313        4.8704562000        9.2659936662
  H         4.8741502779        2.0952317648       10.8865637915
  H         5.3934712465        8.0560076018        9.7540585050
  H         8.4445561054        5.2507243957        9.8632376572
  O         0.7191707049       -0.2334580691        9.1915119242
  H         2.0332608750        8.0058289404        9.7057728478
  H         5.6855931402        4.8081173139        9.5466838223
  O         9.2285055074       -0.0988640724        9.1535337511
  H        10.8663489586        9.2853923290        9.4067881592
  H        11.2309152656        5.2215137602        9.7367078519
  H         0.9235253043        0.5775896942        9.6620652225
  H         1.5600370203        5.6207807702        9.5293099381
  H         6.7499716095        2.6211544393        9.5334424786
  H         1.6704011733        3.2879549935        9.4281312862
  H         9.3590827793        0.8657126012        9.5929090336
  C         7.4227414177        5.6726705026        9.8798191700
  H         2.6301227866        7.2655925826       11.0499251176
  H        10.3162111982        2.2237832416       10.7719092381
  O         9.6586949159        2.3385027828        9.9818596253
  H         3.9694715942        7.2438059715        9.5536059440
  H         8.3270701045        9.2166580871        9.5251543664
  H         7.1593888807        5.8047165444       10.9752548061
  O         4.8885230356        7.3846144466        9.2218633238
  O         3.9522533028        2.2841694631       11.1192228461
  O         1.8937466945        2.3263031639        9.3636264731
  H         2.6853253608        2.1121300150        9.9575495307
  H        10.1733031629        6.5094947784       11.4734628991
  O        10.3685142006        5.5174797473       11.4891845493
  H         3.7020380430        1.6271558150       11.7948607043
  O         6.4843191254        2.2194717324       10.3349232151
  O         4.1511610084        4.6796048089       10.2877465758
  H         3.9495729046        3.7783085387       10.7395063403
  H         7.4593802504        6.6939510104        9.4097414060
  H         6.6971273019        8.8945763318       13.5174900099
  H         6.9796630878        2.6735997333       11.1002480496
  H        11.0795682879        5.3032820122       12.1316556819
  H         6.9324939268        8.8329445000       11.1684427746
  H         6.7548697453       10.0920197376       10.3245266698
  O         6.8042695893        9.0798986498       10.2110687600
  O         7.1351003070        8.4060587763       12.7708135566
  H         4.2629200708        5.2672036019       11.0538836826
  H        10.4343596804        1.7391992991       12.6495757725
  H         6.9545146843        7.4627296778       12.9874970727
  H         8.3058730947       10.7987910128       14.6795782126
  H         9.1833102656        8.3474891203       12.3771184306
  H        11.6927397910        2.6866433677       12.3136016890
  O        -1.1457945009        8.1967161256       11.8925619233
  O         8.6277020207        2.0158024901       14.3196149024
  O        11.1502196237        1.9192303886       11.9852717022
 Cl         3.6487239602       -2.4065812794       12.8048257888
  H         4.7180237640        0.8770595336       13.8362500707
  O        12.1910177330        4.0137720653       13.2140066649
  H        11.5440935092        4.0859187053       13.9458681410
  O         2.7590378659        5.0787220232       14.9120572533
  H         3.1316126761        5.8316100396       14.4142124240
  O         7.6851375476        3.5788571055       12.3655870266
  H        -0.4398465211        8.5779373466       12.5072265487
  O         3.8607790172        0.8357221026       13.3020962094
  H        13.0866974991        3.9964535623       13.6652401006
  H         8.5744186182        3.8223755618       12.0501394995
  H         7.8461015075        2.8995189108       13.0681095430
  H         9.2953558817        2.5094079480       15.0024209218
  H         5.4678946598       -0.5681562610       15.3973510454
  O         6.9441946747        5.8508551997       14.0157630259
  H         3.4600205587        5.1181418094       15.5794306400
  H         7.1123511306        4.9270402700       13.7308658075
  H         2.2987530627       10.3204792581       16.4723327688
  H         3.8683172497       -0.1181751629       13.1159617293
  H         9.9173035498        6.5067155411       16.1220611541
  H         4.6239607316        6.5604948042       17.1156386939
  H         6.1096911260        5.9216908890       14.4663125608
  H         8.5489997115        6.3361325012       15.3178435244
  O         6.0632048786        0.0039833283       14.8531940659
  H         6.8077467679        0.1182907799       15.4829424139
  O         4.5978868285        5.5782069151       16.9716855109
  O         2.6216429237        9.9350191840       17.3003949971
  O         8.9306183149        6.6814643211       16.1276735181
  H         5.4729045204        5.2343333748       17.2016413945
  H         8.4100724915        8.4115276831       16.2317814938
 Cl        -0.4722692650        3.4647057576       15.8976650464
  O         1.7707068465       10.9514799956       14.8969808035
  O         8.1513232295        9.3398201691       16.4460772054
  H         2.4549713620       10.9625282894       14.1546189383
  H         1.1737271354        6.0557725615       16.0561417346
  O         0.4716978986        6.7091367154       16.0602168158
  H         3.1122189004       10.6024542567       17.8538803950
  H         6.7406132667        1.6374569677       16.9041961027
  H         6.9970921345        2.7436630886       17.9709485198
  H         1.3517212827       11.8442699556       15.0843194796
  H         0.7514750110        7.3242815966       15.3622787676
  H         1.6337702310        8.1730473369       13.6203761838
  O         6.3080491354        2.1616770691       17.5314457942
  H         8.6975271883        9.8174498886       17.1327993988
  H         8.0266650997        6.1644296792       17.5574017997
  H         8.0809574127        4.3331309560       18.6621222242
  O         0.7448425701        8.4912659507       14.0114374350
  O         8.4081465521        3.3635259938       18.5890416886
  O         1.2408169009        0.0409735328       21.1407583853
  H        12.0884493142        9.4110824543       14.2223831388
  O         7.2664203387        5.8210493852       18.0536413642
  H         1.9976548935       -0.4668315223       21.5165539772
  H         8.8856565801        3.3831436333       17.7414072393
  H         0.8580807961        9.1415569219       20.4521765750
  H        10.4504083689        0.0489970524       18.5038152607
  H         1.3965491520        8.9164893866       18.2843015184
  H         4.6846109255        2.0903710025       18.5930963521
  O         9.7851192521        0.8059681474       18.4944374636
  H         6.9825172424        6.7022030470       18.4724563886
  O         0.6875699720        8.4118136552       18.7812059481
  O         3.8050721795        2.0584258871       19.0068744010
  H         3.4308182305        2.9495785874       19.0960127047
  H        10.2297454847        1.5800660097       18.8271069351
  O         0.2651576715        5.3198747500       18.5435684366
  H         0.6182813556        7.5012669677       18.4351411766
  H         1.6860037105        4.9128551456       18.6989746822
  H         3.8157303061        8.9830309648       16.9718997173
  O         6.3747137538        8.1623133522       19.2747560936
  H        11.0476689457        4.9314514381       17.7296739047
  H         3.1035666176        5.1241968193       18.1612289134
  O         2.6866868457        4.6578309952       18.9266078817
  H         6.8407020768        8.9926003019       19.6856101525
  H         4.8851401712        5.7189920234       21.8260948774
  H         5.1913103215        8.6323757269       17.6666042753
  H         5.8436166441        7.8077890309       20.0200184327
  H        10.7990742388        5.1820426230       19.3423411721
  O         4.6531310615        8.3932151392       16.8557146464
  O         0.4543601306        2.5354949395       20.0705344435
  O         5.2556956906        6.6239649089       21.7083950062
  H         4.2634974835        1.6753944281       20.6218632303
  H         9.3104584035        4.3182780176       20.5413545210
  H         0.9344489111        1.7141896646       20.4436376404
  O        10.5765568008       12.9716062167       23.1190207243
  H         1.1863451945       12.7668017231       19.7230874780
  H        10.6848185578       13.2377898063       22.1853975852
  O         4.4711881967        1.8853577146       21.5505953695
  O        10.0875450970        4.8733122215       20.8163629163
  H         6.1571795171        6.5552084390       22.1014079643
  H        10.6410830412        2.3339168162       23.1941240537
  H         7.6618017540       10.4783281895       20.9495361248
  H         3.1249548759        4.7735013597       20.5812522740
  H         9.7061213178        5.8155811314       20.9302684177
  O         8.0373956137        9.7706500608       20.4177966952
  H         4.3692380925        2.8687004044       21.5927794719
  H         4.0420398612        7.5073431018       22.2147264271
  H         8.5886781514       10.1369114398       19.6762309363
  O         3.5669445936        4.6786709225       21.4753395065
  O        10.6224191354       10.1274625147       23.3863974521
  O         3.3908749254        8.0911952236       22.7531629980
  O         7.1747664395        1.5865573825       23.1317394942
  H         9.1463499274        3.7714211746       24.0159531737
  H         2.8734630252        4.5919242368       22.2175257995
  H         2.8217551929        7.5593565866       23.3347198289
  H        11.3653242149        9.9855468624       22.7222457789
  H         6.2426651671        1.5382717572       22.9284659906
  H         7.3536972361        2.5413472451       23.4435885451
  H         3.5511463734        2.0385372093       22.9914538198
  H        11.0123243535        0.4174117596       24.3020862255
  H         0.8675785335        6.3159703554       23.2206617935
  O        -1.7235784955        7.3439363199       21.4018381736
  H        -0.9491000596        7.3726449970       22.0653465985
  O         0.3163307542        7.1241805555       23.0961632757
  O         3.2317881135        1.9510290305       23.9226099233
  O         8.2632101388        4.0459269417       24.3852087541
  O        12.8240355193        4.8644386998       23.4874477578
  O         7.6971805207        6.2892179830       23.4028848585
  H         7.7366541669        9.6566391400       23.9056192592
  H         4.4121939987        8.8094663313       23.8057100907
  H        12.1344560065        4.1415413703       23.5051502559
  H         8.2806041313        6.5844562795       22.6168678534
  H         9.1991084834        8.2439610413       21.0953523585
  H         8.0805067033        4.9602501279       24.0857922437
  H         4.5589889153        0.5729128117       24.2678040323
  H         9.2352804121        9.3451511147       23.9381293467
  H         3.0624836185        2.8086418681       24.2724639891
  H        -0.1398540920        7.1115307361       23.9494259391
  O         8.3409231232        8.8957208482       24.1674978127
  O         5.0824124404       -0.2577801065       24.2108028907
  H         1.9742373945        4.9959679349       24.4868272380
  H         7.6509556356        7.1806636566       23.9035860258
 Pt         2.4471823946        8.8948696908       26.5045932467
 Pt         5.1775574147        9.0293893014       26.5337342291
 Pt         8.0447366954        8.9465085553       26.4899466511
 Pt        10.9435787655        8.9626482651       26.7741977670
 Pt         8.1926293954        4.1097781077       26.6425575922
 Pt         3.7894209150        6.5352779969       26.6302341375
 Pt         9.4865528497        6.5759477969       26.6567119039
 Pt         6.7773342379        6.5629795583       26.6573088111
 Pt        10.9020373831        4.1406504332       26.6430192267
 Pt         1.0223184991        6.5672187365       26.5312484596
 Pt         9.5707942162        1.6962499661       26.6114757624
 Pt         6.7103973381        1.8030327016       26.5988586384
 Pt         2.5201214660        4.1415124048       26.6450809079
 Pt         5.3076161008        4.3165398295       26.7478915330
 Pt         1.1253805140        1.7541164991       26.6534070655
 Pt         3.8479399588        1.8207890660       26.7382509026
