     246
Tv_1:  11.152900   0.000000   0.000000 Tv_2:   0.000000   9.658700   0.000000 Tv_3:   0.000000   0.000000  26.829700
 Pt         5.6149239947        7.7456191877        2.0746439501
 Pt         6.9368677532        0.5233383997        2.1528490683
 Pt        11.1921652027        7.7219341182        2.1809137797
 Pt         8.3636411654        7.7469372384        2.1436087132
 Pt         8.3202356418        2.8049731434        2.2015141981
 Pt         2.8655550107        7.7683597327        2.1368856283
 Pt         9.8018269574        5.2304621923        2.1557642425
 Pt         7.0684153289        5.2201029353        2.2756795263
 Pt         5.4998754279        2.8781007731        2.2645330809
 Pt         4.2644828670        5.3650161613        2.2603064426
 Pt         9.7216476018        0.4464267193        2.0460421002
 Pt         1.4328287335        5.2805344399        2.0806897657
 Pt         1.3882900986        0.4462371579        2.1940194695
 Pt         2.9269820237        2.9020774958        2.2763214631
 Pt         4.1921753341        0.4474318717        2.1266111853
 Pt        11.1954292769        2.7669353787        2.1957123736
 Pt         5.9814740530        6.4643035465        4.4962412038
 Pt         8.7341069997        6.3885500439        4.4823871269
 Pt         7.3705494977        8.8296248923        4.3709557999
 Pt         7.2419236675        4.0065090151        4.5366633734
 Pt         8.7581794316        1.5641171002        4.5938970123
 Pt         6.0778306128        1.6216341121        4.6060405919
 Pt        10.0826504670        3.8712538988        4.3431416803
 Pt        10.1728064058        8.8224303988        4.4323987640
 Pt         1.7212681589        8.7023103598        4.5072208480
 Pt         0.2804418894        6.3135151813        4.4636340565
 Pt         3.1942017196        1.4512922437        4.4543447546
 Pt         2.9829417059        6.2267610744        4.4927987154
 Pt         4.6588330746        8.7359216733        4.4367310983
 Pt         4.5637362945        3.9370776934        4.4883627943
 Pt         0.3788009453        1.5274191963        4.5357745572
 Pt         1.7454791312        3.8212562355        4.4578667652
 Pt         7.4961245641        2.5596531691        6.8522203819
 Pt        10.3368595556        7.4181690333        6.7709180196
 Pt         8.9017390292        5.0054075425        6.9464308725
 Pt         8.9880189283        0.1279877559        6.8815485271
 Pt         6.2056308750        0.1765184696        6.8375515552
 Pt         3.2577849604        4.9462649216        6.8974530139
 Pt         3.4225276613        0.0534550375        6.7672257258
 Pt         7.5330217580        7.4728433625        6.8623737547
 Pt         4.7824084690        2.5387172027        6.8879447133
 Pt         2.0808032292        2.5498409741        6.9254418917
 Pt         0.5403005643        5.0523828713        7.0062364152
 Pt        10.3370933447        2.7136429212        6.7641078484
 Pt         6.2575878365        4.9828948148        6.7471966126
 Pt         0.6593134602        0.2255832434        6.9137746986
 Pt         1.9562040929        7.3052097281        6.8922961320
 Pt         4.8375633160        7.4618964624        6.8951111600
  O         6.3498097942        4.5340007475        9.2013864502
  H         9.8773333275        2.9523339086        9.1508103315
  O         2.2023824156        7.5209856793        9.8480710614
  O         0.5991405658        5.3105233598        9.5410037016
  H         4.4063976788        2.0455404545       10.7017308047
  H         5.3329559332        8.2469039095        9.4174310558
  H         8.2946891936        5.1555038737        9.2957162472
  O         0.5215213755       -0.0259618072        9.2173618899
  H         1.7069008244        8.3300634331        9.6398117197
  H         5.4525938207        4.7809535806        9.6980687353
  O         8.9719898719       -0.0052804858        9.1493686457
  H        10.6896481774        9.3694260375        9.3436924599
  H        11.1651012855        5.2035688645       10.3729392288
  H         0.6882925964        0.9278135651        9.3308821303
  H         1.1237251334        6.0962306888        9.7062222432
  H         6.7372732126        2.2614678730        9.5913726549
  H         1.1865320248        3.3662368994        9.3508354812
  H         9.2012980950        0.8903844373        9.5549545149
  C         7.3805432674        5.3471043537        9.8184260182
  H         2.4654120158        7.5610116380       10.7979051330
  H        10.3329073747        2.4184716976       10.6239568689
  O         9.5679672612        2.4829902056        9.9721215321
  H         3.8226981620        7.5646699070        9.2520080112
  H         8.1569936371        9.3044769797        9.5369109155
  H         7.5158652560        5.0796445979       10.8670648798
  O         4.7796042598        7.4583074760        9.1028649080
  O         3.5645986899        2.3275640816       11.1053795885
  O         1.6546110207        2.4904895050        9.2868556320
  H         2.2963207565        2.4222204343       10.0513535262
  H         9.8414971976        6.1250923389       11.9141608515
  O        10.3190550472        5.3024022786       11.6738027763
  H         3.3761771867        1.6866070140       11.7862489195
  O         6.2371992900        1.8896554210       10.3628623609
  O         4.1403878544        4.8742894761       10.5806159554
  H         3.7901552076        4.0737373810       11.0275355389
  H         7.2633610438        6.4511084150        9.7308524998
  H         5.9727695713        8.5898691326       13.2818737011
  H         6.6020451511        2.4730966272       11.1219124885
  H        11.0818825762        5.2909818803       12.3139680976
  H         6.7220434542        8.5601783157       11.2426225557
  H         6.4254484983        9.9166449228       10.5381522050
  O         6.6018549656        8.9790718248       10.3119145342
  O         6.5894596526        8.0404992376       12.7235664390
  H         4.2016435215        5.6428228166       11.2480906007
  H        10.9170902256        1.3647965067       12.5423470649
  H         6.4105325424        7.0417103010       12.8734098615
  H         8.3923743969       10.5912439764       14.6542419333
  H         8.4929686657        7.8209013010       12.6844097433
  H        11.9343622256        2.5968870058       12.3539736380
  O        -1.7910418980        7.7793545791       12.1913816554
  O         8.7727444178        1.7619997442       14.2388112785
  O        11.3149177521        1.9832849148       11.8582789033
 Cl         2.7805137243       -2.1953389957       12.7610800487
  H         4.3924067610        0.9007737364       13.8997717055
  O        12.4922424695        4.0750935881       13.4992795918
  H        12.1755316632        4.0518346113       14.4465258305
  O         3.9591212219        5.1733690523       14.6189156131
  H         3.5591023007        6.0687854335       14.6774404778
  O         7.7275047756        3.2181836597       12.3366112385
  H        -1.1336154789        7.9264662273       12.8906229525
  O         3.4951271595        0.8483493867       13.4752050474
  H        13.4317031566        4.2164529746       13.6132129976
  H         8.5504401467        3.3195830787       11.8158973681
  H         8.1726718574        2.7451897925       13.1431763282
  H         9.4428974400        2.0529948729       14.8748067004
  H         5.0006781563       -0.9386048462       15.5485101709
  O         6.5980640395        5.4442041159       13.4173237632
  H         3.9938410375        4.8437172839       15.5739748861
  H         7.0675957160        4.7119983281       13.0950823744
  H         2.2462955353        9.7650972643       16.8746196539
  H         3.3914060949       -0.0995686926       13.1870531057
  H         9.2123468616        6.3910340133       15.6850658867
  H         4.4270183777        6.2359646018       17.3884758127
  H         5.6614577052        5.1735926210       13.7252323171
  H         7.8167387669        6.0992330810       14.7660736910
  O         5.4173511068       -0.2593808925       14.9692346643
  H         6.3818095524       -0.2348794866       15.3454390515
  O         4.6296080778        5.2733414940       17.3812751332
  O         2.2647115876        9.5561659309       17.8757895253
  O         8.2103050524        6.5808632729       15.5307744517
  H         5.6370094070        5.2503941658       17.4286766030
  H         8.1280006210        8.3495986850       15.3613631615
 Cl        -0.2323055778        3.0478906276       16.2092815940
  O         1.6000271087       10.2069929385       15.3940773191
  O         8.0599888844        9.3001278737       15.5488885312
  H         2.2060409501       10.5354094692       14.7001251878
  H        -0.3274145331        5.3511296304       16.0243593475
  O        -0.5307198003        6.2893465678       16.2449223223
  H         2.5727734244       10.4416979376       18.2630660039
  H         5.6483376300        1.8354752506       17.2280102664
  H         6.7345004856        2.5403339215       18.2214432308
  H         0.8732137557       10.9302684123       15.5129769949
  H         0.0274069273        6.9229357161       15.7009635061
  H         0.8604764961        7.5851595600       13.5895987600
  O         5.7926717366        2.3534636460       17.9881578414
  H         8.4543670610        9.4371388923       16.3993655817
  H         7.5963176680        6.1330321794       16.8862604329
  H         7.9319925050        4.3087741935       18.4447352652
  O         0.1788109878        8.0164944744       14.1532213799
  O         8.1141227350        3.3892313771       18.7382382661
  O         0.6513644450        0.3306053537       21.2965614920
  H        11.8283977850        8.7483107391       14.6053704892
  O         7.1758458093        5.8553642019       17.7963655711
  H         1.6327394279        0.1677461020       21.4512087419
  H         8.8208391696        3.0975027437       18.1668339292
  H         0.2909736286        9.3876528211       20.5744244057
  H         9.9240940010       -0.5600935995       18.3544480053
  H         1.1514756912        8.8624100675       18.7476764793
  H         4.1287177658        1.7711686483       18.8864352511
  O         9.2400714849       -0.0354171648       17.8409851877
  H         6.9519262253        6.6884270251       18.1988586595
  O         0.2558390293        8.4525363328       19.1841525575
  O         3.3110058361        1.8076083064       19.3956733438
  H         3.1082789832        2.7772543638       19.3778628898
  H         9.3074051162        0.8913132354       18.1340602342
  O         0.4303080992        5.7492134733       18.7868642698
  H         0.5154619240        7.4774796833       19.1931425799
  H         2.0933706789        4.8752896529       18.7708488676
  H         3.7696407707        8.8542200391       17.7694596499
  O         6.4880730433        7.9067424491       19.5751293869
  H        11.0522918114        5.9074497299       17.9311376283
  H         3.6460542035        4.8763895320       18.3987416380
  O         2.9847010518        4.5458283307       19.0601621213
  H         7.0629408535        8.7042916845       19.7850001571
  H         4.4380946856        6.4837590433       21.6735426482
  H         5.2403760413        8.1526293693       18.0649970048
  H         6.1393936736        7.5170318143       20.3789037191
  H        10.9983890134        5.3259746093       19.4638268398
  O         4.4800265556        8.1746040480       17.4194631320
  O        -0.4121746673        1.9649198091       19.3349406429
  O         4.9137679984        7.3743645002       21.9390168534
  H         4.5677694494        2.1134076229       21.1537699647
  H         9.3937515424        3.9320759688       20.2820515345
  H         0.1884839132        1.7035311991       20.1236716415
  O        10.6832104365       13.2170893267       23.2275726605
  H         0.1293217684       11.9642196722       18.6133720874
  H        10.4560447269       13.3865324353       22.2838092907
  O         5.0273300043        2.7698719391       21.7491315454
  O         9.9013267603        4.4377183840       20.8975346819
  H         5.6771661160        7.0658268287       22.4808726863
  H        10.8760568045        2.5605076243       23.2101654355
  H         7.9821327242       10.3010188017       21.4541845399
  H         3.3553278747        4.8707829221       20.5654334052
  H         9.4840685950        5.3287279948       20.9367748622
  O         8.3648826233        9.6356167205       20.8284109387
  H         4.5620264772        3.6500630355       21.5723506862
  H         3.4840654852        8.4020573987       22.4384004126
  H         9.0318355677       10.0291592158       20.2419870214
  O         3.7561659405        5.0605216544       21.4824125370
  O        10.5309680140       10.3815567376       23.4900080866
  O         2.6411985236        8.9144970927       22.6827673777
  O         7.5334138152        1.6429234346       22.5952363421
  H         9.2399048710        3.8059824651       24.0960855653
  H         2.9991752166        4.9671287265       22.0780127915
  H         1.9837975115        8.2655462469       22.9901896413
  H        11.0663114890        9.9226008522       22.7514506408
  H         6.6006574783        1.9712399353       22.2534349266
  H         7.9634910443        2.3830712261       23.0002299403
  H         4.2805447178        2.5890877020       23.1976170586
  H        11.0544563942        0.4821377681       24.2913558333
  H         0.6253839386        6.5753201107       23.3325292268
  O        -1.6710750324        7.3298137251       21.7568165056
  H        -0.8887908918        7.4618246326       22.3039440880
  O         0.4020383287        7.5366088490       23.3879632434
  O         3.7337202904        2.3535959177       24.0150261234
  O         8.2965255205        3.9696198855       24.2882368134
  O        12.7812245922        5.0760362839       23.4732466007
  O         7.3744711999        6.3492175308       23.3924183006
  H         7.5361929479        9.8368029407       24.0906761825
  H         4.2246268824        9.4802906242       24.1472234293
  H        12.1547377552        4.2843007417       23.5167147690
  H         8.2201889627        6.7755956158       22.9989154446
  H         9.1758773759        8.1915338892       21.4285523667
  H         8.0319718767        4.8939884169       23.8515893235
  H         5.3747553221        0.7406143532       24.1129815957
  H         9.1243913381        9.6694838692       24.0175562831
  H         3.4123575558        3.2123407663       24.4460470836
  H        -0.0347978370        7.6115510128       24.2597559475
  O         8.2662992912        9.1683055246       24.3373457948
  O         5.1964734140       -0.1548077471       24.4089327995
  H         1.7868345037        5.1609504023       24.4425155508
  H         7.3098077398        6.8084926156       24.2377428064
 Pt         2.6502629874        9.1139145439       26.6156786624
 Pt         5.4067430904        9.1520091759       26.5521231149
 Pt         8.2601690900        9.2152768851       26.4931099726
 Pt        11.2525652786        9.0947185707       26.5726486537
 Pt         8.2195517601        4.3405679248       26.6413648238
 Pt         4.0765653768        6.7592532793       26.5739389835
 Pt         9.5934415978        6.7343343823       26.6584719258
 Pt         6.9191774429        6.6899035517       26.7345897344
 Pt        11.0723022001        4.2011496673       26.6729113263
 Pt         1.1672835055        6.6315621232       26.5345151908
 Pt         9.6232835130        1.9180948333       26.7186209720
 Pt         6.8369827594        2.0435787908       26.7124474225
 Pt         2.5953657473        4.3685180413       26.6322149245
 Pt         5.4703179561        4.3693992859       26.7331112327
 Pt         1.3221990994        1.7421466585       26.6588472534
 Pt         4.0694876492        1.9684839659       26.6859730245
