     246
Tv_1:  11.152900   0.000000   0.000000 Tv_2:   0.000000   9.658700   0.000000 Tv_3:   0.000000   0.000000  26.829700
 Pt         5.7417611656        7.7951777427        2.0949915394
 Pt         7.1177216113        0.5824270445        2.1543270387
 Pt        11.4498401914        7.7765553294        2.2104131265
 Pt         8.5326105534        7.9135818059        2.1399092039
 Pt         8.5188491727        3.0456861030        2.1687629674
 Pt         2.9179127814        7.5651360192        2.0467481995
 Pt         9.9407987040        5.4416875222        2.1722400557
 Pt         7.2602926183        5.4243487299        2.0566618736
 Pt         5.7167593890        2.9984146788        2.1838413694
 Pt         4.2983682039        5.3172124838        2.2053623562
 Pt         9.8687892025        0.6544086233        2.1752121125
 Pt         1.5265891223        5.2170597066        2.3380386291
 Pt         1.5385099707        0.6831442821        2.1666274426
 Pt         2.9742283018        2.8921844262        2.1499478029
 Pt         4.2859368442        0.5212565947        2.1526502172
 Pt        11.2683458178        3.0021798874        2.1567096262
 Pt         5.8352901806        6.4306233860        4.3758079791
 Pt         8.5715647739        6.4813508069        4.5191034584
 Pt         7.1869189535        8.8830898497        4.4848899274
 Pt         7.1174915305        3.9383832199        4.5270689815
 Pt         8.7249665851        1.4868656422        4.4446474762
 Pt         5.8512804878        1.4862605713        4.4200403327
 Pt         9.9354712257        3.9758328121        4.4482901774
 Pt        10.0183451670        8.6867973513        4.3790898508
 Pt         1.6911533471        8.7030584952        4.5390508491
 Pt         0.2775200426        6.2927229168        4.5087068728
 Pt         2.9926457223        1.3994573769        4.4463581311
 Pt         3.0756401756        6.2922543590        4.5364198405
 Pt         4.3268515601        8.7203730971        4.4686595285
 Pt         4.3936022225        3.8222504000        4.4659271218
 Pt         0.1957311230        1.3673682142        4.5721727393
 Pt         1.7153100721        3.7175878707        4.5408124344
 Pt         7.6087418670        2.4552928861        6.7505763118
 Pt        10.2573849747        7.2402465661        6.7562693374
 Pt         8.9573697616        4.8986501484        6.8978252168
 Pt         8.7195233829        0.0411789816        6.8352539445
 Pt         6.0671747970        0.2185510925        7.0729682055
 Pt         3.3822059311        5.0072382528        6.7541432577
 Pt         3.4184070434        0.0939812163        6.9367319048
 Pt         7.4494342657        7.3112375396        6.7410687701
 Pt         4.7056312830        2.5709243108        6.8542943814
 Pt         2.0649975904        2.6252052072        7.0743924696
 Pt         0.5805703459        4.9161488475        6.8373798430
 Pt        10.2125107458        2.4660656311        6.7538096401
 Pt         6.2965343720        4.8957888503        6.9523629297
 Pt         0.6696757383        0.1920603676        7.0411783422
 Pt         2.0255384672        7.4172670620        6.8703984580
 Pt         4.6810854169        7.3860009995        6.9445299201
  O         6.4169623387        4.8170141867        9.2310633224
  H         9.4361855298        2.7801365979        8.7726275781
  O         2.0503734175        7.2680264765        9.9300973419
  O         0.7452273254        5.2755181267        9.3016050377
  H         5.0009973980        2.3923505546       10.8455682627
  H         5.0823290858        8.3003160630        9.3806774470
  H         8.3234169085        5.6237919593        9.3379644439
  O         0.5575529642       -0.0453666002        9.3156287817
  H         1.5735406616        8.1290238443        9.7414182090
  H         5.4382370155        4.8718115986        9.5949705535
  O         8.9674870449       -0.0970722010        8.9904916490
  H        10.7579046672        9.7014972345        9.6107923493
  H        11.3346325379        5.4605184633       10.1465753747
  H         0.9005121486        0.8430912910        9.5977733460
  H         1.4165608447        6.0483515027        9.3739803994
  H         6.9182806621        3.1145395898       10.0565990089
  H         1.5698771891        3.6709964221        9.3981275178
  H         9.1587064671        0.8616957758        9.3007982322
  C         7.2955553431        5.7495292188        9.7716193975
  H         2.3042569277        7.2063374647       10.9114081406
  H         9.9236498613        2.6715261500       10.3576926470
  O         9.4024826008        2.2841496696        9.6075241350
  H         3.6653144109        7.4677045213        9.5044705075
  H         8.0855313339        9.3200530392        9.4264059215
  H         7.3243210221        5.5340912018       10.8874241386
  O         4.6766202409        7.4013328788        9.2440595169
  O         3.9653061624        2.4223378002       10.8775981191
  O         1.8763549309        2.7351921320        9.3228560249
  H         2.7414642512        2.6934647209        9.8194905826
  H        10.1507436939        6.6111845618       11.7620315644
  O        10.3519833355        5.6529130432       11.6071261853
  H         3.7508098224        1.6001087906       11.4624567848
  O         6.6542642605        2.4807940411       10.8013846735
  O         4.0854544163        5.0120108679       10.2677950016
  H         3.9024927581        4.2185131835       10.8361995661
  H         6.9841173028        6.7568838575        9.5922500619
  H         7.0086908641        9.1459393408       13.3848789188
  H         7.2276925374        2.8121817065       11.6098378446
  H        10.9704151453        5.3908152049       12.3502425881
  H         6.8618884040        8.8750978763       11.1535727148
  H         6.3970926295       10.2262287706       10.6383796981
  O         6.5853563933        9.3244865449       10.3125472511
  O         7.5652272695        8.5816242692       12.7980134096
  H         4.1281708865        5.7742234494       10.9002257388
  H        10.6827006394        1.8714900041       12.2261145036
  H         7.3774980091        7.6518927330       13.0885562096
  H         9.5932725428       11.3595464515       14.8147372389
  H         9.2493300803        8.6953221718       12.3764702468
  H        11.6454411707        3.1009143346       12.2567515112
  O        -0.9764496136        8.4010650483       12.0673325510
  O         9.8100493761        2.4727557277       14.2350290350
  O        11.2762106756        2.4319268067       11.6670393499
 Cl         3.0896754647       -2.6341023347       12.6497274208
  H         4.5641644804        0.0320731579       13.4671893721
  O        12.1503971656        4.6781769061       13.1859123227
  H        12.0459685944        4.5286701228       14.1655073988
  O         5.2164485024        5.2266839710       14.9733818134
  H         4.3504347553        5.1887944986       14.5597059748
  O         8.4225135917        3.9585957494       12.5528147049
  H        -0.3914114721        8.4261253263       12.8372215773
  O         3.8595064139        0.2110952560       12.7826782492
  H        12.8900022427        5.3011173179       13.0382469258
  H         9.0578635794        4.3743546332       11.9421802908
  H         8.9137648721        3.2901985211       13.1226998150
  H        10.5843509115        2.8704854363       14.7095631784
  H         5.6722526643       -0.5035080416       15.3428431021
  O         7.4349160068        6.2081135259       13.9853786073
  H         4.9947372305        5.1255252109       15.9408667071
  H         7.8713562799        5.4388363173       13.4764987246
  H         2.9342841493       10.5659048079       16.3662008824
  H         3.6981756898       -0.7034844349       12.4460385776
  H         9.4317298342        6.9301530675       16.3021739908
  H         4.4017895078        6.4176272282       17.3176909079
  H         6.4556848401        5.9000871092       14.2268973055
  H         8.2007296426        6.6162095985       15.4705625607
  O         5.8626746546        0.0289558028       14.5238337341
  H         6.0833122656        0.8996505566       14.8052777918
  O         4.8289376307        5.5525570370       17.6335006017
  O         3.2525555387       10.3803796884       17.3435089450
  O         8.5254259428        7.2058188106       16.2379514980
  H         5.7722142936        5.9238768745       17.9645904902
  H         8.5356802150        9.0385634315       16.0680128955
 Cl         0.8610846433        3.8283096026       15.9750666117
  O         2.2014508725       10.8477891522       14.7699151536
  O         8.7563841281       10.0254315538       16.1569959081
  H         2.8289792565       10.6769230554       14.0609469176
  H         0.2514794357        5.8367830748       16.1686929340
  O        -0.0126955866        6.7101100587       16.4880077456
  H         4.0427522754       10.9942911818       17.4382624092
  H         7.6668719444        1.7734296433       16.0929472089
  H         7.3155090046        3.2660017825       15.4316808170
  H         1.8741893824       11.7333636393       14.6497689514
  H         0.2931586907        7.2911952486       15.7014886345
  H         1.5019592697        7.7154655395       14.1652181052
  O         6.9764639430        2.3696886015       15.6011424635
  H         9.3605556319       10.1138647040       16.9435816460
  H         7.8911787434        6.7049007743       17.7898787060
  H         9.2190399662        4.2468525250       18.7279715961
  O         0.7620166206        8.3073580679       14.4082810733
  O         9.0940750222        3.6972556899       17.9137223091
  O         0.9775734595       -0.3442493830       22.2514111772
  H        12.3422877749        9.1797755111       14.5998589797
  O         7.3340060102        6.4474467592       18.5352290603
  H         1.7145924997       -0.7843735382       22.7420608984
  H         9.9763210258        3.7908573007       17.3808969932
  H         1.3520489715        9.4264427778       21.3350806743
  H        10.6191943857        0.6909706063       19.0294595566
  H         2.1374752921        9.8819362776       18.9551073852
  H         5.7835466659        2.7580271167       16.9681982436
  O         9.7473662439        1.0007878382       18.7483080063
  H         7.1840889592        7.2820432125       19.0628218260
  O         1.4170855290        9.4309321259       19.4472099540
  O         5.3112637596        2.7304440797       17.8140692549
  H         5.1842609228        3.6774572322       17.9157586426
  H         9.8250837999        1.9818427528       18.8617020350
  O         0.3154706927        6.8571974492       19.1850186758
  H         1.3793591239        8.4892194681       19.1795494000
  H         1.3456356155        5.5572185749       19.5388053219
  H         4.3046149333        9.2045881934       17.1091706119
  O         6.4663855199        8.7054846500       19.6717166732
  H        11.2391755303        6.7813057336       18.1860058003
  H         2.5809036701        4.8874223487       18.7304932076
  O         2.0733184079        4.8463563485       19.5618237764
  H         7.1197092281        9.4685741253       19.8641470290
  H         5.0851764323        6.1399452457       21.1895161097
  H         5.6725766487        8.5323149427       17.8127767076
  H         6.0291502488        8.2832409382       20.4374081540
  H        10.7518368761        6.4162255203       19.6847743354
  O         4.9661364796        8.4175934949       17.0948218406
  O         0.5625868388        2.6848674748       20.6008897577
  O         5.2174503924        7.0727168409       21.5564856215
  H         4.0010342849        1.9016708759       19.8329207297
  H         8.6116473004        5.9231550222       19.8563503119
  H         1.3502139623        2.2392799572       20.2522650598
  O         9.9322153910       13.4476013376       22.6333441655
  H         0.9068634322       13.2696379671       20.5062039172
  H         9.9301760744       13.8634289562       21.7863316044
  O         3.7454570381        2.2773006229       20.7585579800
  O         9.3024208328        5.5108819966       20.4952237884
  H         5.9502253627        6.9713419328       22.1566428559
  H        10.1412104449        2.8491335595       22.6110757822
  H         8.0203130755       10.6831411969       21.5227679291
  H         3.0339236485        4.8904995502       20.9203423349
  H         9.4838688890        6.2747823869       21.1756152798
  O         8.5219027524        9.9771946957       21.0003837102
  H         3.9692746141        3.2514374918       20.7211058964
  H         3.9224448856        7.6728638683       22.4291757174
  H         9.0023971076       10.4955113200       20.3222922843
  O         3.8179037991        4.7480514704       21.5502196009
  O        10.5472323248       10.9694583377       23.5704857725
  O         3.1889923900        7.8940768392       23.1221713262
  O         6.9049099318        1.8161221530       23.4631165188
  H         8.9680631572        3.9309539832       23.6782367978
  H         3.3653266687        4.2672079773       22.2803301219
  H         2.8051227862        7.0355103966       23.3675200914
  H        11.1507178418       10.3370899896       23.0081000034
  H         5.9107305799        1.7435706384       23.5897755687
  H         7.1818774275        2.6448597725       24.0138263233
  H         4.1879965214        1.5302249070       22.3258338343
  H        11.0591508314        1.4301016698       24.4217337212
  H         0.9024815975        5.0963651204       23.6972712089
  O        -1.2335793689        7.2091878899       22.3363550805
  H        -0.4640851392        6.8339835996       22.8271285441
  O         0.7743892750        6.0602822522       23.6828119482
  O         4.2780495795        1.5246207267       23.3278632453
  O         8.1206420133        4.0585046129       24.3526981182
  O        12.8935295112        3.5407458722       23.3482195252
  O         7.4815259525        6.6229418961       23.4931535890
  H         7.6534881265       10.1110886880       24.1095305420
  H         4.3412546244        8.3342100997       24.2991868919
  H        12.6032741334        2.7288388493       22.8867333335
  H         8.3596652308        6.7480636587       23.0306668259
  H        10.1655123545        8.1058463302       22.0460793645
  H         7.6447030668        4.8661655317       23.9813445340
  H         4.9267820874        0.0111398322       23.9462208212
  H         9.2386438860        9.8899389276       24.0531665818
  H         3.4744429144        1.8283787488       23.8075600305
  H         0.4787795231        6.3823470575       24.6111058126
  O         8.3956128544        9.4346783265       24.3666949900
  O         5.2618248389       -0.9118910396       24.2686495713
  H         2.0436150941        3.2320891789       24.2362398164
  H         7.6736571983        6.8210115404       24.3756508289
 Pt         2.6756009104        9.1933113373       26.6463176774
 Pt         5.4342720532        9.3017613031       26.5009694199
 Pt         8.3419205957        9.1231340901       26.6251179141
 Pt        11.0780068172        9.2456316035       26.7722491110
 Pt         8.1821479073        4.5367828853       26.4675498628
 Pt         4.0058974697        6.7805708378       26.5990500070
 Pt         9.7820254595        6.7313059771       26.6164096517
 Pt         6.8367925587        6.9460042307       26.6545588511
 Pt        10.9666726690        4.2690478190       26.5917542445
 Pt         1.3032282806        6.7297084362       26.5952139418
 Pt         9.4809166241        1.9567273752       26.7169400159
 Pt         6.8241839990        2.0480541601       26.7029510906
 Pt         2.7239490878        4.3437289272       26.7025502262
 Pt         5.3898365890        4.4267653761       26.7039258300
 Pt         1.2609986906        2.1350199559       26.6734829644
 Pt         4.0129478945        2.0159724199       26.5594181720
