     246
Tv_1:  11.152900   0.000000   0.000000 Tv_2:   0.000000   9.658700   0.000000 Tv_3:   0.000000   0.000000  26.829700
 Pt         5.4002188171        7.7949604024        2.0493688767
 Pt         6.8644362875        0.4500413050        2.1810325401
 Pt        10.9828367172        7.6114903678        2.2626063638
 Pt         8.2402103808        7.8475433438        1.8891310932
 Pt         8.3452849110        2.9046108043        2.0834539665
 Pt         2.5607747027        7.7756262986        2.3025035094
 Pt         9.6155266424        5.2829523798        2.1127060436
 Pt         6.9376876433        5.3588482859        2.2171962252
 Pt         5.5853606036        2.8020281373        2.1886849784
 Pt         4.1578808568        5.3567713481        2.2317246808
 Pt         9.7514669513        0.4099863276        2.2013912541
 Pt         1.3057689367        5.2588842806        2.1328382124
 Pt         1.3782645231        0.5146273198        2.1622321510
 Pt         2.7639848756        2.9388395952        2.2336381795
 Pt         4.0954178085        0.4460135957        2.1619257373
 Pt        11.0700289248        2.8067817722        2.0725461228
 Pt         6.0149314967        6.3982016195        4.6267460528
 Pt         8.7613158553        6.4904400287        4.3852409163
 Pt         7.3609700183        8.8254694074        4.4376183478
 Pt         7.2840934762        3.9926431564        4.4504056463
 Pt         8.5434642547        1.5674264557        4.3989855936
 Pt         5.8396591933        1.5193441490        4.5687247503
 Pt        10.0740602769        3.9848439851        4.3859935865
 Pt         9.9893657869        8.8736545469        4.5709859796
 Pt         1.5368771850        8.8909592923        4.6043548880
 Pt         0.4414073179        6.3515895226        4.5798025647
 Pt         3.1064154273        1.5328637972        4.5519589849
 Pt         3.1605850294        6.5097987072        4.4756681151
 Pt         4.6131222096        8.7777256820        4.4208570096
 Pt         4.6116044313        3.9898288854        4.4952870573
 Pt         0.2980200846        1.5583563931        4.4218797612
 Pt         1.7148981761        3.9017576853        4.6660161199
 Pt         7.8527676529        2.8758998842        6.6727394832
 Pt        10.4678108100        7.5317332145        6.8380838271
 Pt         9.2867611905        5.1080283914        6.7561932505
 Pt         9.2311720945        0.4058997757        7.0486824447
 Pt         6.3960933224        0.3951838609        6.9302236009
 Pt         3.6665266278        5.2087215291        6.7883370172
 Pt         3.5862960675        0.3848835306        6.9333948667
 Pt         7.7815958566        7.6479255614        6.9502465052
 Pt         5.0034343980        2.7635021137        6.9352190579
 Pt         2.3055608769        2.7684988388        7.0744673735
 Pt         0.8828238366        5.1910047645        7.0123284410
 Pt        10.6414413122        2.7397779923        6.7843600020
 Pt         6.4563830115        5.1341077350        6.9501387320
 Pt         0.7296242603        0.2774846403        6.9680339797
 Pt         2.3363862612        7.5788092447        6.7942169106
 Pt         5.0501851415        7.6800376190        6.8961003238
  O         6.5431241044        5.0174576199        9.3008526624
  H        10.6099928356        3.1832904648        9.2981729308
  O         2.2773114189        7.6135015625        9.8300765565
  O         1.1396133468        5.1265609496        9.4672057627
  H         5.0442820264        2.4102125100       10.7983645416
  H         5.5457788929        8.2986950239        9.4905581948
  H         8.5156378813        5.1763623532       10.0054067105
  O         0.9811019305        0.2316115718        9.3601545504
  H         1.7158852140        8.4141728105        9.6287819638
  H         5.6061532511        5.4503845838        9.5059905065
  O         9.0647025682        0.5419874692        9.2118154487
  H        11.2687280378        9.9552158705        9.7027380760
  H        11.4362260820        5.2933396133       10.0042235857
  H         1.3057316047        1.1641607860        9.3977748380
  H         1.6235143809        5.9806042745        9.5985621335
  H         6.9056882418        3.4788975087        9.8349394505
  H         1.7991917820        3.6112999608        9.4712908133
  H         9.2087914466        1.5040482824        9.5937063746
  C         7.6181404237        5.8220305529        9.9204144834
  H         2.4442694460        7.6864754542       10.7842663045
  H        10.9180244108        2.6771394312       10.7653311573
  O        10.2246899479        2.7207132647       10.0483188360
  H         4.0321149094        7.6871097686        9.5657567324
  H         8.2129076832        9.7624869176        9.5546109402
  H         7.2577700486        6.2380097454       10.8552296348
  O         4.9494624123        7.5775121176        9.1687909034
  O         4.0685462120        2.1724061449       10.9901931286
  O         2.1181069539        2.6225065267        9.3118146858
  H         2.8459617707        2.4461764667        9.9987055933
  H        10.6248333148        6.3235583544       11.6724564529
  O        10.8364864400        5.3482025669       11.5742719824
  H         3.9771904897        1.8863245435       11.9531670367
  O         6.8369227202        2.7431566327       10.5413530544
  O         4.1620249550        4.9838434407       10.7243630882
  H         4.1314487884        4.1049230124       11.0028724677
  H         7.8502798467        6.6863617478        9.3195868138
  H         7.0791323098        9.3556349390       13.2269445297
  H         7.3952347483        3.0957072856       11.2345091639
  H        11.6100979601        5.2562919376       12.1875346484
  H         6.7017474110        9.0432090870       11.1466526116
  H         6.2697255232       10.2883830263       10.3114628029
  O         6.6150461937        9.3995141264       10.1968901987
  O         7.4317495627        8.6478739124       12.6024492312
  H         3.9477955097        5.5925492868       11.4359578074
  H        11.4177508040        1.8209722529       12.7884847622
  H         6.9704192364        7.8047715257       12.9080750329
  H         9.6850859489       11.0540434512       14.7272486116
  H         9.1321348989        7.9467004116       12.1694573269
  H        12.5020637262        2.7939774710       12.2509643391
  O        -1.0168759433        7.7940065815       12.0887183135
  O         9.7903531714        2.2664358709       14.2487304304
  O        11.8931843015        2.0107677138       11.9827758552
 Cl         3.8025057274       -2.2652971705       12.7321848071
  H         5.0559409602        0.8797138047       14.0581832149
  O        12.8759534706        4.7911309088       13.3914582547
  H        12.5133154951        4.7330193157       14.2920805167
  O         5.1216083165        4.4182955159       14.9540104461
  H         4.4042820630        3.9249163116       14.5552480297
  O         8.3919116156        3.9787875754       12.6867135321
  H        -0.6519203145        8.0061856141       12.9471144198
  O         4.1750260236        0.8001655583       13.6594603932
  H        13.4644547719        5.5819518867       13.3809363524
  H         9.1903178396        4.4756766927       12.3136228769
  H         8.8788441485        3.3132560235       13.2452785672
  H        10.1619498210        2.8271129914       15.0116955437
  H         6.2425217928        0.1246951095       15.5093627964
  O         7.0792236655        6.1279981304       13.8461630698
  H         4.6033638158        5.1655786615       15.4134345222
  H         7.7643531629        5.4483411554       13.8181502388
  H         2.4146956294       10.5310059094       16.6322382785
  H         4.3140494048       -0.0437057566       13.1678976079
  H         8.9685658786        7.0977546527       16.0211235907
  H         4.0768744029        7.1390878649       15.9890738155
  H         6.3164339065        5.5022061707       14.0772930572
  H         7.6220227637        7.3890687362       15.2644989857
  O         6.5853540042        0.5993746194       14.6906438712
  H         6.7580543924        1.5217077524       14.9971336767
  O         4.0678229414        6.2507003673       16.3805745918
  O         2.8996294877       10.2253322907       17.4845358109
  O         8.0470663697        7.4115016088       16.1404601620
  H         4.7299433115        6.3779485278       17.0979984277
  H         8.9728813645        9.1462668850       15.7703216974
 Cl         0.5857334597        3.8126978621       16.0838932686
  O         1.9337885060       10.4641390132       14.9829556303
  O         9.7658425969        9.7679222370       15.8375057611
  H         2.7561591816       10.5091806980       14.4321010666
  H        -0.2816919584        5.7616067588       15.8881993705
  O        -0.5598166337        6.7159223432       16.0187456278
  H         3.2743102642       11.0811824420       17.7471588939
  H         7.4129191525        3.1591389122       16.9658854857
  H         6.2877270970        3.6210557389       15.8131318968
  H         1.5623505306       11.3647667943       15.1589366469
  H         0.0179532958        7.3272365548       15.3020110398
  H         1.5200617740        7.8958383846       13.7922197488
  O         6.6999320203        2.8987031410       16.3310849139
  H         9.8747883218        9.9295217120       16.8452056027
  H         6.9419166751        6.6122355438       17.3911802692
  H         9.1523949597        3.9141413828       18.8007910278
  O         0.6952825709        8.2315985914       14.2530621124
  O         9.2284677074        3.1775771156       18.1573450011
  O         1.6151991599        0.4355935093       22.1896917570
  H        12.1582731224        9.1576038143       14.5352178554
  O         6.4345927509        6.2784888947       18.1620897358
  H         2.1702577848       -0.2926543821       22.6433503967
  H        10.0087644863        3.3819447078       17.5536954517
  H         1.4044575608        9.6853735606       21.3573033771
  H        10.8024545514        0.4558080788       18.8450006598
  H         1.8268497560        9.8352193066       19.0927165595
  H         5.2755328879        2.8417353149       17.7185288754
  O         9.8764861489        0.6966910946       18.4936238522
  H         6.2962558984        7.1554553142       18.6111216589
  O         1.0949311849        9.4621758399       19.6224859826
  O         4.6072837929        2.5497982717       18.4149566982
  H         4.5619368012        3.3915741798       18.8877000998
  H         9.6138205678        1.6408719274       18.6667330919
  O         0.0360390672        6.7858920293       18.7225087690
  H         0.8263128895        8.5807526921       19.2750071236
  H         0.9342632056        5.4090943781       18.9716774685
  H         4.5298779464        9.5951663456       17.0120212244
  O         5.7852600547        8.2755128583       19.9758783441
  H        10.9676441823        6.8971630941       17.7539619770
  H         1.5917815056        4.3193912208       18.1412110747
  O         1.4416927288        4.5035074192       19.0976514952
  H         6.6287992021        8.4609696225       20.4164346877
  H         4.2951931503        5.7805154572       21.3860983228
  H         5.8408925919        9.1320172352       17.7021988272
  H         5.3705677776        7.5036944559       20.3663915824
  H        10.4077084103        6.2764293585       19.0202806883
  O         5.4204324326        9.1898699993       16.8213069231
  O         0.8375156563        3.0759661751       21.6174233124
  O         4.6920197088        6.6416977243       21.8059932497
  H         4.8392499673        0.1343680245       20.2561289729
  H         8.0515189956        5.7892440667       19.2126272076
  H         0.9410286366        2.1234900224       21.6992074171
  O        10.9393376431       14.0198455290       23.5065326247
  H         0.7467276206       13.0317264011       20.6811841938
  H        11.2216284593       13.3935266302       22.6865092319
  O         4.1236689903        0.8638176464       20.5203012791
  O         8.9416515322        5.5820286271       19.5760743017
  H         5.5656170893        6.4968417490       22.3122559914
  H        11.5271999389        4.0788396477       24.2609084772
  H         7.8451740827       10.3064204060       21.5582264388
  H         2.8449636114        4.6595657637       20.1028541155
  H         8.9214751992        6.0850344438       20.5044538304
  O         7.7625031312        9.8035909900       20.6959910628
  H         4.3406316392        1.6736114830       19.9979609238
  H         3.7083309881        7.4737973890       22.6170933946
  H         8.4133820450       10.2339143119       20.1012704406
  O         3.4692952723        4.5064549455       20.8612890739
  O        10.4748667838       10.6315832442       23.4350633043
  O         3.0956110195        7.9918558883       23.2289398747
  O         7.4468029651        1.9206916959       23.0831970157
  H         9.3829137172        4.3493968939       23.7758818027
  H         2.9350495826        4.3856751933       21.6703351612
  H         2.3431495402        7.3520112889       23.3709668521
  H        11.4220344909       10.2903734243       23.1449613978
  H         6.4281557207        2.0328771668       22.9253408405
  H         7.7760629939        2.7004873137       23.6274556852
  H         4.2220010689        1.5747270516       22.2017773039
  H        10.5983012014        1.6641303462       24.0754389270
  H         0.3781756661        5.9230989331       23.3216051928
  O        -1.7159000087        7.0661903503       21.7814617890
  H        -0.7782306989        7.1211203896       22.0795767560
  O         0.5989821476        6.9431825755       23.2443117273
  O         4.7286671913        1.8602913096       23.0596671013
  O         8.4934498573        4.1711623353       24.2297909578
  O        14.6990666229        4.1791394089       23.5915657462
  O         6.9482346193        6.4224382346       23.3786687166
  H         7.6008172393       10.3200517084       23.9368823579
  H         4.1523528018        8.7396961312       24.1624085062
  H        14.3614619984        4.2892748467       24.5562552809
  H         7.7591886048        6.9175509746       23.0406619167
  H         9.2214514051        7.8652427608       21.2952655132
  H         7.8426068063        4.8576000935       23.9016263949
  H         4.8758762793        0.5784501535       23.9504153081
  H         9.0450876831        9.6770490186       23.9221371490
  H         4.1799889792        2.7161838701       23.4630312099
  H         0.1821526965        7.4006817052       23.9893074137
  O         8.1297446288        9.4507575505       24.2300513067
  O         5.0211384788       -0.3853972744       24.3506427651
  H         4.2475728954        4.8602049458       23.4731105560
  H         6.7385344474        6.8799781895       24.2236746062
 Pt         2.2729548312        9.0458933057       26.7973858305
 Pt         5.2436619348        9.2242273709       26.5347099476
 Pt         8.1968386095        8.8587298403       26.2864179375
 Pt        10.8249032919        8.8163492840       26.6761867078
 Pt         8.3287622670        4.2053484403       26.5945266210
 Pt         3.9504457510        6.8137683020       26.6774417036
 Pt         9.4811715441        6.5544872978       26.6081994248
 Pt         6.6732719565        6.6847026982       26.6117310840
 Pt        11.0502936673        4.2748166065       26.6017114100
 Pt         1.2110091842        6.6461853260       26.6064529034
 Pt         9.5389869959        1.6785470950       26.6216957440
 Pt         6.7638089577        1.9601698335       26.7210860535
 Pt         2.7047911107        4.2913536974       26.7300455253
 Pt         5.4654442277        4.2209524873       26.7111675231
 Pt         1.2709200608        1.9590562949       26.7211775601
 Pt         3.9720894202        1.9595509060       26.5798155086
