     246
Tv_1:  11.152900   0.000000   0.000000 Tv_2:   0.000000   9.658700   0.000000 Tv_3:   0.000000   0.000000  26.829700
 Pt         5.5320315948        7.7852844487        2.1045882597
 Pt         7.0069724716        0.4243891688        1.9970613950
 Pt        11.2118795982        7.8985597641        2.2215191661
 Pt         8.2570247645        7.7048781469        2.0380537393
 Pt         8.3459113675        2.7596988864        2.2707460695
 Pt         2.7388678383        7.8248955560        2.2251775280
 Pt         9.7031606128        5.3821181358        2.1826587371
 Pt         7.0657436513        5.2723102449        2.1037863414
 Pt         5.5446717551        2.8925056483        2.0783361004
 Pt         4.2801414731        5.3594168964        2.1161635081
 Pt         9.7153187349        0.3945014400        2.1518794244
 Pt         1.3675100494        5.3663314838        2.0997451938
 Pt         1.3043145429        0.5566722766        2.2535949967
 Pt         2.7535763897        3.0183831568        2.2399215434
 Pt         4.1661261017        0.4391065714        2.4521407251
 Pt        11.0818633917        2.9263825009        2.1809162102
 Pt         6.1493580769        6.3785725254        4.4600979869
 Pt         9.0077624901        6.4740118509        4.4723874544
 Pt         7.5349879633        8.8259426682        4.3966761188
 Pt         7.4427203739        3.9456554384        4.5518816032
 Pt         8.8948533122        1.5426993531        4.5605357294
 Pt         5.9108748596        1.5226307857        4.4420121582
 Pt        10.2264554326        4.0767335764        4.4946799657
 Pt        10.3439860219        8.9402292853        4.5970630897
 Pt         1.9848332289        8.9547255361        4.5930188130
 Pt         0.5773482342        6.4936339611        4.4387114782
 Pt         3.1825422953        1.7113156061        4.6106726456
 Pt         3.3310590281        6.3788729449        4.4256666605
 Pt         4.7368670711        8.7566037873        4.6456084511
 Pt         4.7927745675        4.0066421190        4.4734294190
 Pt         0.5077066658        1.6861434141        4.6025478183
 Pt         1.8994161800        4.1212872418        4.6088167279
 Pt         7.8449633829        2.7659072738        6.9764987388
 Pt        10.6462016751        7.4829736876        6.8155839349
 Pt         9.4239807492        5.1027634971        6.9497118228
 Pt         9.3491119281        0.2204995854        6.9771459464
 Pt         6.4894829942        0.2947566199        6.8011938146
 Pt         3.7877917838        5.1394360746        6.8370557205
 Pt         3.8004933598        0.3346284299        6.7950670389
 Pt         7.8157919295        7.5742624051        6.9910849567
 Pt         5.1710388513        2.6522332229        6.8325413809
 Pt         2.4128791759        2.7403632030        6.9895890334
 Pt         0.9421067634        5.2202655257        7.1805092633
 Pt        10.6176039215        2.7458778359        6.8939530859
 Pt         6.5024316475        5.1253125564        6.9495230601
 Pt         0.9961314395        0.2917503158        6.9826561676
 Pt         2.4152314262        7.4400266450        6.8287277470
 Pt         5.1302271921        7.5973655211        7.0072177026
  O         6.5370196712        5.1979631702        9.1748950305
  H        10.4124876384        3.2359259725        9.5279694472
  O         2.4043507271        7.6889159222       10.0721510626
  O         1.0737893299        5.2361351507        9.5569439634
  H         5.4430041753        2.3944829958       10.8282021467
  H         5.7787398269        8.2159180489        9.7037619745
  H         8.4869253587        5.2741206014        9.7185484049
  O         0.9536353588        0.2827429854        9.3565790244
  H         1.9938018376        8.5795353710        9.8751636064
  H         5.5645495154        5.3665809611        9.6107778452
  O         9.3958110112        0.2617831399        9.2717161832
  H        11.1568942790        9.8838809437        9.6967425023
  H        11.3978312040        5.6014106053        9.9339859247
  H         1.2394446590        1.2395602248        9.5883182042
  H         1.6802053846        6.0209674521        9.7657354172
  H         6.8473463560        3.1332828655        9.8808941092
  H         1.8204570974        3.5412338901        9.5347470498
  H         9.4941058329        1.2115649410        9.4640147077
  C         7.5561774351        5.8948461216        9.9227754032
  H         2.6609198401        7.6638788203       11.0199712278
  H        10.9783267464        2.3777093113       10.7079837992
  O        10.1648492508        2.7652916621       10.3209992041
  H         4.0829109560        7.6447536083        9.5243287397
  H         8.5265058670        9.6972657528        9.6930282759
  H         7.2460987147        5.8711364694       10.9697348850
  O         5.0278430383        7.7810657799        9.2017680603
  O         4.3810426650        2.3780511720       10.7999421991
  O         2.1795787024        2.6741561593        9.2124582651
  H         3.1367491181        2.5101251068        9.5864795802
  H        10.4309007891        7.3772979856       11.1630675573
  O        10.3980494682        6.3188593754       11.0375302201
  H         4.2325218850        1.8049621230       11.6460341957
  O         6.8913880267        2.3734319300       10.4908797993
  O         4.3047340168        5.2859682245       10.5403742889
  H         4.1664106737        4.4356472165       10.9976599478
  H         7.5743491333        6.9816061315        9.6518387412
  H         7.2735832218        8.7782704361       13.6078038407
  H         7.5135759389        2.6568079967       11.2131927427
  H        10.8880659235        5.9891866561       11.8163728270
  H         7.1217658993        8.8476787769       11.4268045617
  H         6.5253196209       10.1453767530       10.6666997917
  O         7.0206870899        9.3208287906       10.5679694467
  O         7.7964349198        8.2931569751       12.9277965716
  H         4.0592401150        5.9588693882       11.1668524419
  H        11.7417052353        2.1424726449       12.9242170920
  H         7.8991787205        7.3402335049       13.2625114840
  H         8.6384526213       11.2446148611       15.0859571423
  H         9.4169488819        9.0972402552       12.1952019264
  H        12.1965034856        3.5950107321       12.4733032826
  O        -0.8584079400        9.2247791229       11.8012945584
  O         8.5511251564        2.5351088087       14.7801910518
  O        12.1848786841        2.6264617257       12.1647337888
 Cl         3.6969644787       -2.0849448859       12.8048345879
  H         4.9599124067        0.8002402475       13.8316419956
  O        12.2413065859        5.2575282660       13.2482937516
  H        12.0284803174        4.9164132554       14.1691575388
  O         5.3842632649        5.2299899548       13.7006127037
  H         4.9934644577        6.0708126102       13.3368043172
  O         8.6185083183        3.4546577248       12.4199475859
  H        -0.2458455459        9.2096799219       12.5360334154
  O         4.1056962112        0.8576089506       13.3482027906
  H        13.1638192795        5.4070380768       13.1509387195
  H         9.3760350360        3.0595968417       11.8923508943
  H         8.6164265111        2.9038552355       13.3017942824
  H         9.2394077966        3.0454198825       15.2699575658
  H         5.7528304521       -0.8063562158       15.6622832600
  O         7.9373052573        5.6276593897       13.8161440719
  H         5.1477940393        5.3385037135       14.7496312896
  H         8.2903582882        4.8825633560       13.2749991446
  H         2.5288197775       10.6600154355       16.5507283360
  H         4.1731560437       -0.0229059294       12.9280438085
  H         9.4426249874        7.1622068154       16.0215932740
  H         5.1172082939        6.2196033266       16.5746334311
  H         6.9383963766        5.4807892558       13.7334135379
  H         8.1999711492        6.5421255935       15.2328112454
  O         6.2593714593       -0.1540081746       15.0286916025
  H         6.9407021576        0.2840569366       15.6890451008
  O         4.9862599107        5.3246402148       16.2446550873
  O         2.8056199573       10.3612653663       17.4441177675
  O         8.4439275486        7.0847366698       16.0467146112
  H         5.7348721505        4.8890708279       16.7332020239
  H         8.6944721529        9.0524839896       16.0493344548
 Cl         0.2710478163        4.1246066018       15.8963944379
  O         1.9830505975       11.1498292700       15.0184606508
  O         8.4846362348        9.9061305529       16.4392653943
  H         2.7713944295       10.9838564179       14.3933291188
  H         0.0335433608        6.1574433631       15.6854267270
  O        -0.1242879754        7.1011429624       15.8682773548
  H         3.5225143201       10.9379202890       17.7497438686
  H         7.6332645809        3.4904696997       17.9009546778
  H         7.3097453647        3.4688496361       16.3538055031
  H         1.5538712487       12.0726512930       15.0033838578
  H         0.2857216005        7.6561273386       15.1351006693
  H         1.8850320210        8.3610823343       13.5964578694
  O         6.8738320501        3.4865919671       17.2311861675
  H         8.9499698006        9.8650589947       17.3612686565
  H         7.6209050601        6.7631926133       17.3617897646
  H         9.2250338154        4.0639351366       19.1925962872
  O         1.0879627669        8.7069360452       14.0087840687
  O         9.1882747710        3.3330212973       18.5180052612
  O         0.9970800535       -0.0452595789       21.6496069825
  H        12.5270853932        9.6531895474       14.3548744675
  O         7.1703489912        6.5731838468       18.2509671779
  H         1.6729962845       -0.4473088153       22.2419201093
  H         9.8328714859        3.5709042871       17.8303328309
  H         1.2000538118        9.2958202504       20.6963864773
  H        10.5638193812        0.4416593461       18.9358476899
  H         1.6151324615        9.7623100932       18.3564482533
  H         5.4241642287        2.9796509259       18.0600050299
  O         9.6025395875        0.5681724298       18.9350633677
  H         7.0746435851        7.4866434941       18.5546230604
  O         0.9080876570        9.3844328616       18.9995549813
  O         4.4867586687        2.8015186099       18.4718509537
  H         4.3280904552        3.4942710933       19.1774305181
  H         9.4884041638        1.5837726387       19.0120063301
  O         0.1605919903        6.8487979890       18.7980618385
  H         0.5660618908        8.4740985574       18.7539566409
  H         0.9711046916        5.3043355426       19.1273169042
  H         3.7978853383        8.8081847035       17.1931079721
  O         5.5021836505        8.3334289418       19.8084453604
  H        11.2934796957        6.9117798792       17.8034025088
  H         1.3274066237        4.1051269614       18.2466007983
  O         1.4229480817        4.3836842344       19.1968198621
  H         6.3415757149        8.7468252602       20.1818574202
  H         4.3317308844        5.8816046012       21.1394541661
  H         4.9852559383        8.2082265012       18.0042068175
  H         5.1543753323        7.6569553202       20.5654339422
  H        10.3500153243        6.5832182600       19.0654914476
  O         4.5693448901        8.1771115697       17.1233636443
  O        -0.1790143483        2.3250900924       21.0017418840
  O         4.6134731445        6.7472577161       21.6694703628
  H         4.3948001302        0.1667507046       20.4045647321
  H         8.2021898004        6.0274617173       19.1819633851
  H         0.5716587282        1.6785960995       21.0344613860
  O        10.8003249082       12.8967192098       23.6276721322
  H         0.3337459948       12.7212874576       20.5826069807
  H        10.5923889422       12.5193319181       22.7294873191
  O         3.9768656476        1.0415821209       20.5003161020
  O         9.0593177554        5.7385893945       19.7050824184
  H         5.3947830998        6.5279355416       22.2494719879
  H        10.4982734867        2.4782306208       24.2144143540
  H         7.9063389067       10.1023023241       21.7783132706
  H         2.8864088700        4.5248486748       20.1828201357
  H         9.0247664122        5.9111951452       20.6849688255
  O         8.0250576250        9.4869826905       20.9953095178
  H         4.2863858528        1.6548594389       19.7173288586
  H         3.2556879282        7.3747836227       22.7417757261
  H         8.7668184209        9.7734787097       20.4403228338
  O         3.6561544788        4.4099840354       20.8244671615
  O        10.0919143190        9.8262108460       23.3951414647
  O         2.5350367733        7.8073687856       23.2682672741
  O         7.2533318880        1.5752662927       23.1047758310
  H         9.0024320913        4.0827449305       23.9618087190
  H         3.3190489929        3.8865147690       21.5477774403
  H         1.7261821709        7.2521374587       23.4392569463
  H        10.7482050684        9.7321605574       22.5368320988
  H         6.2728792232        1.5982014578       23.0003285173
  H         7.5561202273        2.4423833471       23.4524181550
  H         4.1576650476        1.3681791262       21.9822379925
  H        10.6856935565       -0.1818582085       24.1603679805
  H        -0.1242994867        5.6312000336       23.8382735017
  O        -2.6147851789        7.0821561140       22.0601619113
  H        -1.8656804817        7.3800972664       22.6276445858
  O        -0.1724009596        6.6020475108       23.6789983307
  O         4.5971322540        1.6710591794       22.8797869186
  O         8.0663611192        3.9967996793       24.1869643381
  O        13.7152970154        3.6257131681       23.3818305889
  O         6.5568748659        5.9652867038       23.4062337376
  H         7.2439355618       10.0045154912       23.9629538748
  H         3.5503530858        8.9692758017       24.2705011898
  H        12.8713441516        3.1033841867       23.3285011155
  H         7.3333016482        6.4840312872       22.8862110396
  H         8.3639656922        8.0248408243       21.6195259643
  H         7.4574730575        4.8464721657       23.7231877536
  H         4.6853079790        0.4005706627       23.8809700100
  H         8.5467215852        9.2485819003       23.8127163321
  H         3.9254237066        2.3816140954       23.2170010503
  H        -0.6980637811        6.9551242613       24.4329054816
  O         7.6938904107        9.1122437965       24.2993223045
  O         4.5487619366       -0.4894626418       24.3293555365
  H         2.6747274602        3.8177126347       24.3532839745
  H         6.5105979421        6.4241816259       24.2698735586
 Pt         2.3280336056        9.1433316620       26.6922184483
 Pt         4.9811268989        9.0699495396       26.4309639914
 Pt         7.7507819528        9.2512313912       26.4072098967
 Pt        10.6831782608        9.2350023575       26.5734363274
 Pt         7.9212758359        4.3351291952       26.4609727989
 Pt         3.7009678032        6.7267381145       26.7425799843
 Pt         9.1932289972        6.7923931728       26.4935457417
 Pt         6.6075744688        6.7678485756       26.7349676582
 Pt        10.6012997247        4.4160200803       26.6529472067
 Pt         0.7909833520        6.7134189049       26.6678667038
 Pt         9.3922822571        2.0246950945       26.6898605079
 Pt         6.6180255019        2.0215949027       26.7028400158
 Pt         2.5217868505        4.2163845265       26.6631652337
 Pt         5.2058600208        4.3695971254       26.3573867511
 Pt         0.9179814005        1.9173946446       26.6583592842
 Pt         3.7328039654        1.9045628181       26.8276827675
