     246
Tv_1:  11.152900   0.000000   0.000000 Tv_2:   0.000000   9.658700   0.000000 Tv_3:   0.000000   0.000000  26.829700
 Pt         5.7919340632        7.8251772063        2.1402575128
 Pt         7.1240627115        0.5206568697        2.0960788392
 Pt        11.2847341253        7.8936122907        2.3249540435
 Pt         8.6130777794        7.8869745355        2.1850515753
 Pt         8.3426059786        3.0092997494        2.1328312286
 Pt         3.0026945159        7.8362052937        2.2034500162
 Pt         9.7776174536        5.4731752729        2.1121344064
 Pt         7.0893801627        5.3034088295        2.2296404812
 Pt         5.5964917623        2.8986386518        2.3408469962
 Pt         4.3441867139        5.4333685704        2.3585035016
 Pt         9.8095103364        0.7075596160        2.2877000571
 Pt         1.3202044197        5.4253888718        2.1768854632
 Pt         1.3580987937        0.5669117020        2.2240338829
 Pt         2.8281639018        3.0535641626        2.3302645894
 Pt         4.4288338491        0.4760248649        2.2002472570
 Pt        11.1209154729        3.0571345104        2.1321573258
 Pt         6.0067559286        6.4358389098        4.5447314717
 Pt         8.7180825445        6.4863723901        4.5273247130
 Pt         7.3366581250        8.7579556853        4.3711838040
 Pt         7.5196895640        4.0987551959        4.6053091296
 Pt         8.7571206830        1.6015164895        4.5719686193
 Pt         5.9253698048        1.4865847531        4.5557526226
 Pt        10.1654883528        4.0251545819        4.4782524900
 Pt        10.1427313906        8.8212262505        4.5964726264
 Pt         1.7489382019        8.7598820469        4.5517112862
 Pt         0.3298802806        6.4443995718        4.5295342950
 Pt         3.1420575162        1.6042898595        4.4517783963
 Pt         3.1524785076        6.3792040019        4.4721603499
 Pt         4.4715664381        8.8267599577        4.5459839474
 Pt         4.6649367899        3.9344844975        4.5989027169
 Pt         0.4204658892        1.6437086057        4.5109748155
 Pt         1.7885812774        4.0742204219        4.4802359106
 Pt         7.4821886149        2.5760728259        6.8534431690
 Pt        10.5802792241        7.4952227129        6.8585205064
 Pt         9.1408035952        5.0589171467        6.9888089157
 Pt         8.9590741413        0.1607259094        7.0619724008
 Pt         6.2893692056        0.1177643519        6.9125018959
 Pt         3.3585897883        4.8685245853        6.8203102157
 Pt         3.2381076805        0.0596780197        6.7674214051
 Pt         7.6495482687        7.4388197930        6.8394757672
 Pt         4.8358010882        2.5419309124        6.8469981661
 Pt         2.0460219856        2.4809504868        6.9196049348
 Pt         0.6207569060        5.0203640947        6.8191564157
 Pt        10.5091065305        2.6593426358        6.8356079326
 Pt         6.3123648919        5.1433048339        6.8591529182
 Pt         0.5670254651        0.2425387969        6.8948747493
 Pt         2.1106697077        7.2748304019        6.9374761994
 Pt         4.7925753471        7.4171045863        6.8944591880
  O         6.1423235847        4.9524376081        9.0773010952
  H         9.7379835081        3.3670842873        9.1172911648
  O         2.5793798619        8.1069866512       10.2002137179
  O         1.0898518169        5.1871193943        9.7757625226
  H         4.5137196324        2.3919737457       10.8821772060
  H         5.2947990958        8.5801690920        9.1373053131
  H         8.1313395221        5.3722259096        9.4611328594
  O         0.7097150415        0.2050925766        9.4109279796
  H         1.8816650887        8.7968688329       10.1131049069
  H         5.1937481146        5.1394835993        9.4948196493
  O         8.9530599125        0.2636017513        9.3423561681
  H        11.0184123948        9.5255560648        9.8927736455
  H        11.4785680912        5.2261163888       10.3764800571
  H         0.8283540154        1.1472992537        9.6288463508
  H         1.7223446855        5.9535789775        9.9088738162
  H         6.2208019534        3.1300698249        9.7966479391
  H         1.7401665450        3.6647862768        9.5723304201
  H         9.1744456903        1.2401904121        9.4491423133
  C         7.1144453197        5.7375518119        9.7660284092
  H         2.7981188842        8.0105345775       11.1922601147
  H        10.5567193046        2.6216070418       10.3747606555
  O         9.6348096014        2.8039508087       10.0052516133
  H         3.8165014142        7.9679647719        9.3270010886
  H         7.9868551471        9.7997172605        9.6752867370
  H         6.9757347401        5.6703175041       10.8544517986
  O         4.7840521666        7.7269591544        9.0056708226
  O         3.5425995465        2.3807875785       11.0197943701
  O         1.8475274366        2.6657335954        9.3073331418
  H         2.6566154260        2.3793129605        9.8777607858
  H        10.1908662930        6.6972592330       11.1910931887
  O        10.0338730547        5.7070330694       11.1504782403
  H         3.4665235753        1.7619792588       11.7161372328
  O         6.1583813705        2.4634881894       10.4815545073
  O         4.0213119646        5.1243151708       10.5143364686
  H         3.7271435832        4.3688393450       11.0179323992
  H         7.0887561836        6.8080792806        9.4209377557
  H         7.1863459105        8.8785936717       13.1358869949
  H         6.7391828010        2.8526739769       11.3024746479
  H         9.9397986622        5.4043877958       12.0251084593
  H         6.3538344848        8.9264778133       10.9035721113
  H         6.4032362437       10.4144582203       10.4780090919
  O         6.4445922044        9.5132062187       10.1291597050
  O         7.5027944115        8.3190238521       12.3621098482
  H         4.1008518156        5.8326400472       11.1294194108
  H        11.2738842765        2.6156235973       13.0474098506
  H         7.1617363037        7.3999389810       12.6274247632
  H         9.7018181021       11.4538860936       14.7023710793
  H         9.3139470042        8.4683018270       11.8027859725
  H        12.5183018138        3.2600541590       12.3716973380
  O        -0.8956662987        8.4028245060       11.4714127698
  O         9.6700394413        2.6980523422       14.1856523551
  O        11.7981846972        2.6318461637       12.1734641344
 Cl         3.5328327778       -2.2453756043       12.8881011344
  H         4.9801279598        0.7934131136       13.8348908611
  O        13.7988460520        4.3561104366       13.5079297445
  H        13.4729768834        4.3230650214       14.3901790023
  O         5.2867950008        4.0756784618       14.4153257960
  H         4.4840581615        3.9856978115       13.8625029434
  O         7.8281820497        3.2889057605       12.3256004123
  H        -0.3731383995        8.4581285673       12.3061868258
  O         4.0956855512        0.6334714636       13.3800984292
  H        13.8114281328        5.2657336841       13.2218980905
  H         8.4780085696        3.2265702083       11.5557694657
  H         8.3976918009        3.0377630114       13.1435243926
  H        10.2146430641        3.2359556881       14.7918808037
  H         5.9760708556       -0.5816291163       15.2639351528
  O         7.0911052219        5.8679954042       13.5786071825
  H         4.9326250397        4.5762490063       15.1543939056
  H         7.2579669861        5.0633720096       12.9756727358
  H         2.3429267920       10.3510050138       16.5951972335
  H         3.9036043182       -0.3444879094       13.2572886576
  H         9.3267001182        7.4575841784       15.7665786791
  H         4.4777522056        6.5035547735       16.6556583235
  H         6.1549685489        5.7182640185       13.9094461467
  H         7.9188555239        7.2537551385       15.1303105091
  O         6.6264328733       -0.0219776092       14.7720399664
  H         6.7653253995        0.8349929266       15.4157733430
  O         4.9153458739        5.5863683528       16.6036692738
  O         2.9441276626       10.4806082552       17.3869059302
  O         8.3583424805        7.6814055769       15.8929522373
  H         5.6839476651        5.7627247832       17.2658560693
  H         9.1713190543        9.5524400081       15.4379608955
 Cl         0.8594524164        4.1286020245       15.8803664393
  O         1.6890985982       10.9251981098       14.8296532650
  O         9.7843782744       10.2671832814       15.6097538209
  H         2.5536313713       10.9710356942       14.2841968749
  H        -0.1285333494        6.1500400479       15.5690473382
  O        -0.1593975370        7.0378491914       16.0442926034
  H         3.2719169504       11.4297365170       17.3386498325
  H         7.5915467749        2.6430099159       16.2990488940
  H         6.4022937232        3.0781626829       15.3522794886
  H         1.3647226103       11.9347884687       14.8398277412
  H         0.3854178918        7.6459907300       15.4549482654
  H         1.6786541445        8.1269883213       13.4440220291
  O         6.6895207462        2.4028731700       16.0177170930
  H         9.8944534769       10.4337671570       16.5267140596
  H         7.5382748039        6.9232403281       17.2071152546
  H         9.4421867306        4.4951566326       18.3028947732
  O         0.7925091634        8.5306721094       13.8028719548
  O         9.4576197370        3.7795101702       17.5701894522
  O         1.6585171253        0.5428671644       22.1541532787
  H        12.2185968300        9.4459808470       14.1172495971
  O         7.0037398941        6.6141714126       17.9943272309
  H         2.4320255472        0.0908955869       22.4850258536
  H        10.3220279744        3.8317563714       17.1229888236
  H         1.5532761995        9.8098608332       21.2186935368
  H        10.7029808376        1.2171578084       18.8127714288
  H         1.7973204876        9.8722473923       18.7777698157
  H         5.2269499569        2.7140135436       17.4616407454
  O         9.8281285886        1.3925304393       18.4785284209
  H         6.6878056932        7.4862373522       18.5010153629
  O         1.1531575371        9.6670786433       19.4534147301
  O         4.3052383407        2.9827804113       17.7013293144
  H         4.2585511727        3.9048556720       17.3002958622
  H         9.6989244602        2.3688138303       18.2968778451
  O         0.5817420515        6.9889190131       18.6682583103
  H         0.9252376809        8.6933123877       19.2301549845
  H         1.1838900909        5.3216939395       19.0546538857
  H         4.1640006291        9.2850013247       17.0514231420
  O         6.4378444164        8.6433579190       19.8923013687
  H        11.5545689339        7.0615495766       17.6693085215
  H         1.5030754033        4.1738306115       18.0924518393
  O         1.5815277807        4.4410826929       19.0115859094
  H         7.3267056342        8.9303193668       20.2065845366
  H         4.6328702223        5.6963507639       20.5849040672
  H         5.5919854545        8.8056020911       17.3013131968
  H         6.1918989277        7.8060584125       20.3901430245
  H        10.8371318932        6.6875754825       18.9948718022
  O         4.7815829275        8.5516381688       16.8328196970
  O         1.1005665813        3.4416969446       21.5737463806
  O         4.9800600780        6.5626615949       20.9808825242
  H         5.0282220406        0.3274621711       20.1081793329
  H         8.5894683601        6.3788430178       19.2363629788
  H         1.4046362635        2.4951357560       21.5456159232
  O        10.8545956566       13.8873115640       23.4628814057
  H         1.1851541984       13.3634332360       20.6387323175
  H        11.4474034685       13.4585760832       22.6914505373
  O         4.4118129606        0.9785843927       20.4463818540
  O         9.4196764693        5.9697291365       19.5704128226
  H         5.5813996657        6.3323378406       21.7121313876
  H        11.2044505443        3.8719293175       24.3646114960
  H         8.4016827793       10.5145521047       21.3418414049
  H         3.3366166637        3.9692777283       20.0004316629
  H         9.3288094979        6.2490546603       20.5357082570
  O         8.8612471648        9.8020573422       20.8451759199
  H         4.2055145186        1.6760363864       19.7939758691
  H         3.5892230403        7.1104919977       22.2952782906
  H         9.1762150489       10.2267415316       19.9752899387
  O         4.0516683033        3.9420297081       20.6474138698
  O        10.4836301689       10.5581985004       23.5026841699
  O         3.1987374682        7.5131469622       23.0850336791
  O         7.3960977061        1.6940837446       22.8650241516
  H         9.1311908750        4.3033880683       23.9428299847
  H         3.6626459362        4.1057986549       21.5869307823
  H         2.2914189256        7.3339235157       23.2031819598
  H        11.3373094890       10.2447872696       23.0194711785
  H         6.4831929472        1.9752262666       22.8959382483
  H         7.7716573611        2.4175330038       23.3656347318
  H         4.4503831318        1.5806454911       21.9716422570
  H        10.8250814911        1.5328751445       24.1790800240
  H         0.2686732121        6.0398013617       23.2623411531
  O        -1.8658885467        7.3304310663       21.9039786591
  H        -1.0456221041        7.3162210667       22.4502809220
  O         0.3879979417        6.9989917985       23.2972778571
  O         4.4595454751        1.6425794121       23.0306734678
  O         8.1537544652        4.1489579758       24.1919503821
  O        14.6236182836        4.3316830376       23.5410350783
  O         6.9894357641        6.2606508049       23.1507091202
  H         7.6470427213       10.0338235298       24.1321926257
  H         4.5055745024        8.5071242849       23.9766495321
  H        13.6657843848        4.2834272116       23.8675783900
  H         7.7502557779        6.8689684310       22.7761240794
  H         9.2792526537        8.2617706682       21.4976200148
  H         7.5720665903        4.9167664626       23.8115464556
  H         4.8681511957        0.3485269587       23.7503326560
  H         9.2425977487        9.8230670408       23.9549047881
  H         4.2463984999        2.5459487275       23.3190627546
  H         0.3476302457        7.2177974040       24.2714573564
  O         8.3627621906        9.4062051465       24.4084037040
  O         5.2338611679       -0.4891628143       24.1369238591
  H         3.9410580550        4.8684261131       24.2096807836
  H         6.9140295435        6.7772131084       23.9547087300
 Pt         2.7137264776        9.5020036476       26.7259774482
 Pt         5.4889666090        9.2339711318       26.5558499309
 Pt         8.2265369491        9.2080797477       26.5346627121
 Pt        11.1642944244        9.4243978860       26.7515524171
 Pt         8.2665581181        4.4614238296       26.4112541568
 Pt         4.0883773833        6.7910483406       26.7031982387
 Pt         9.7385963790        6.9067501850       26.7456439916
 Pt         6.8249021387        6.7236844388       26.8112533632
 Pt        11.1249168218        4.5116815339       26.5222396927
 Pt         1.2655310899        6.8851798349       26.7457652157
 Pt         9.6996840876        2.1042011226       26.7404646719
 Pt         6.7372351073        1.9162682977       26.6968740342
 Pt         2.6853744863        4.4833928401       26.8267556172
 Pt         5.4157477330        4.4084752391       26.6964800891
 Pt         1.2204923835        2.2980798528       26.6316976468
 Pt         4.0404012808        2.1224516115       26.7897339896
