     246
Tv_1:  11.152900   0.000000   0.000000 Tv_2:   0.000000   9.658700   0.000000 Tv_3:   0.000000   0.000000  26.829700
 Pt         5.7229703918        7.9254051104        2.2160069275
 Pt         7.1100045719        0.5451211943        2.1183081099
 Pt        11.3853213377        7.9043897336        2.1556726065
 Pt         8.5353915348        7.8750025956        2.0638579238
 Pt         8.5837542039        3.0331485342        2.2459676420
 Pt         2.9461349833        7.9074572873        2.2589707330
 Pt        10.2209054682        5.4026941015        2.2142415448
 Pt         7.2840543802        5.4685086136        2.3124593850
 Pt         5.7655792118        3.0146431378        2.3392765441
 Pt         4.4356506519        5.5202572606        2.2715622214
 Pt         9.8532479022        0.6368819949        2.1060354475
 Pt         1.6794392598        5.5345728607        2.2727593722
 Pt         1.4591862285        0.7458086521        2.2541812891
 Pt         2.9220370129        3.1039229710        2.3364689996
 Pt         4.2966358005        0.7033447838        2.2924823236
 Pt        11.3694100500        3.0731913932        2.2913347508
 Pt         5.8228492847        6.5026233081        4.6550053332
 Pt         8.6475647250        6.3809196438        4.5002313099
 Pt         7.2475717010        8.7397630824        4.4533883247
 Pt         7.2534804680        3.9897144242        4.5175737843
 Pt         8.5986037466        1.4008693259        4.5541453133
 Pt         5.8315395737        1.6271867523        4.5259126425
 Pt         9.9481449126        4.1091525619        4.5807162958
 Pt         9.9427298476        8.7292729594        4.4295223172
 Pt         1.5243096430        8.8965357270        4.4251563675
 Pt         0.3090953100        6.4586879380        4.5846028824
 Pt         2.9755181216        1.6265403427        4.5269652698
 Pt         3.1371643881        6.5616169065        4.4991833338
 Pt         4.3848258132        8.9300252115        4.6451673880
 Pt         4.5700962365        4.1024725471        4.5782989329
 Pt         0.2027204446        1.5469518908        4.6424927357
 Pt         1.7571636110        4.0423384535        4.5712330717
 Pt         7.4297414237        2.7898632801        6.8969660128
 Pt        10.1970390165        7.6698286340        6.8040555882
 Pt         8.8544572574        5.1560016867        7.0617590027
 Pt         8.8775413970        0.4133143866        7.0491030052
 Pt         6.1376652403        0.3849596629        6.8837165199
 Pt         3.2361001253        5.0495423581        6.8227321613
 Pt         3.3478478441        0.3235661306        6.8927081685
 Pt         7.4870861767        7.4980262277        6.8575171270
 Pt         4.6678809116        2.7037969188        7.0760982293
 Pt         2.0206047580        2.6131577268        6.9809584860
 Pt         0.4244048975        5.1679071897        6.9703222657
 Pt        10.1716475235        2.7572471694        6.8360496925
 Pt         6.0931625099        5.0320245387        6.8265754092
 Pt         0.5962061838        0.3649231671        6.9515546365
 Pt         1.9582904771        7.6127302311        6.7364172203
 Pt         4.7292721545        7.5327856092        6.9906499149
  O         5.9323301406        4.8728286546        9.0801325394
  H         9.9908756953        3.7306517945        9.2973218580
  O         2.0303061036        7.7238248110        9.9202480226
  O         0.8414079416        5.4690922154        9.1121023792
  H         4.5872462017        2.0739681252       10.4608858541
  H         5.2130343998        8.2316242814        9.5963375149
  H         7.9326687117        4.9967742353        9.9051210535
  O         0.2873602709        0.0558664273        9.2328424305
  H         1.3612889137        8.4722577308        9.7510595802
  H         5.0607830449        5.0598890913        9.6201922525
  O         8.7165809135        0.2977871311        9.2753792168
  H        10.5155325378        9.4349102886        9.2819199685
  H        11.2772949443        5.6917791327        9.7374583608
  H         0.3853782266        0.7992873049        9.9825935680
  H         1.4268811100        6.3304037175        9.1757153460
  H         6.5491119858        2.4400798238        9.2264135595
  H         1.7480496782        4.0010148633        9.3451137808
  H         8.7166811603        1.3118948195        9.4322771094
  C         6.9134494890        5.4625717043        9.9667532729
  H         2.1978604785        7.6286808542       10.9114496120
  H        10.6015941020        2.7246396562       10.3405962969
  O         9.7434918471        3.0792472395       10.0003752433
  H         3.5915288726        7.9433772036        9.4176659835
  H         7.9121526614        9.5775644218        9.7371952265
  H         6.5221428220        5.3882770263       10.9848307857
  O         4.5300997994        7.6983267436        9.1597889225
  O         3.6722451834        2.1065581870       10.6911464093
  O         1.7100581717        3.0290251457        9.2009550204
  H         2.5835960802        2.5925849692        9.6584152008
  H         9.9084151788        7.0762517136       11.3819808587
  O        10.2869274225        6.1459374591       11.0342261412
  H         3.4305144141        1.3665420754       11.2335373754
  O         6.4118842377        2.0635177533       10.1748963033
  O         3.8604704412        4.8980757509       10.5719783029
  H         3.8676698240        4.1450258967       11.1220734890
  H         6.9414482827        6.5672848043        9.6894361593
  H         6.3562589611        8.3857602722       13.4922950928
  H         6.9519709984        2.6611868544       10.8691837261
  H        10.3681859155        5.5410835072       11.7535361101
  H         6.5160748993        8.6775468241       11.3090251391
  H         6.3232315102       10.0041722944       10.4827089501
  O         6.5170314029        9.0700463434       10.3918497315
  O         6.6625967137        7.8762768269       12.7221039088
  H         3.6542602695        5.6990551063       11.0495943790
  H        10.9275268535        1.6212421833       12.3963157418
  H         6.2261376282        6.9689790362       12.7987186045
  H         9.3221219170       10.5274799733       14.0175518404
  H         8.3998015885        8.0089670344       12.4436127214
  H        12.3830295520        2.2336003126       11.9375359719
  O        -1.8800767074        8.3216020458       12.1132481543
  O         9.7225467352        1.6006670372       13.5119963343
  O        11.5734629671        1.8499125672       11.5899154434
 Cl         2.8414806221       -2.5751848479       12.7935543210
  H         4.3392539097        0.3782492870       13.6966615221
  O        13.4922680514        3.9450950939       13.2438285507
  H        12.7113240962        3.9536522153       13.8423080528
  O         4.6000542036        3.9792592175       14.7542571760
  H         3.8553792670        4.1577522055       14.2293118862
  O         7.9859210460        3.3227436696       12.2931379554
  H        -1.3016529262        8.3370794661       12.8613536861
  O         3.5144264524        0.3724670065       13.0945103092
  H        13.3656018505        4.8562019085       12.9260689415
  H         8.5509870784        3.6967432304       11.5982699032
  H         8.6249795509        2.6337747572       12.7030687391
  H         9.9489644045        2.3264540555       14.0923854588
  H         4.9767211365       -1.1259808362       15.3009667071
  O         6.6817128895        5.2786141813       13.7493843178
  H         4.3628055851        4.3878059416       15.6514432355
  H         7.2369540687        4.5744367803       13.2762492557
  H         2.0713528588       10.1954468589       16.4372033282
  H         3.4712894594       -0.5936735933       13.0203340390
  H         8.7794189892        6.6702656245       15.4503657125
  H         3.7708892388        6.2199822336       16.7871340833
  H         5.9235830188        4.8238924461       14.3170036436
  H         7.4545602795        6.3522959973       14.7833541689
  O         5.4886570565       -0.4159230072       14.7701255394
  H         5.7091227853        0.3330363079       15.4443144975
  O         4.1725783270        5.3365275946       16.9944828863
  O         2.2850804701        9.7537099763       17.2968400728
  O         7.8415525228        6.9137333080       15.4668362458
  H         4.9427557710        5.5704712133       17.5428834071
  H         8.0923671961        8.7830136218       15.0655192623
 Cl        -0.0168936805        3.6238566131       15.2561316936
  O         1.5490024684       10.5976182232       14.7990132795
  O         8.7048970028        9.5183151258       15.1311780593
  H         2.3735578313       10.5947468588       14.1800641059
  H        -0.3652675509        5.6801873705       15.6261396944
  O        -0.7501465086        6.5730437723       15.8300948402
  H         2.8058982354       10.5299664813       17.6908771736
  H         6.7752053158        2.2651994488       16.1390825767
  H         5.3629236230        2.4989559121       15.5235999194
  H         1.3066756778       11.5671963537       14.9641579304
  H        -0.2260198800        7.2638524501       15.1835167613
  H         1.0846526066        7.8374001499       13.6366419687
  O         5.8309851357        2.0244418278       16.2055872180
  H         8.7781219903        9.7739891968       16.1056246432
  H         7.1063371946        6.5463190072       16.8971524650
  H         8.7507669367        3.6576004611       17.9494746472
  O         0.2950232646        8.3876857343       13.9806812826
  O         9.0106852171        3.0680561602       17.2648212436
  O         1.3169035628        0.4209167644       21.1640284339
  H        11.7930483857        9.3232843060       14.3066704281
  O         6.6300506675        6.4621012477       17.7923656807
  H         2.3100145231        0.4161425335       21.0701487222
  H         9.7152017928        3.4832581463       16.6830866739
  H         0.9564703731        9.6007755770       20.3623911678
  H        10.0106966886        0.1869033401       17.9885798878
  H         1.0234693675        9.1967337810       18.3214133027
  H         4.4634711466        2.4329909854       17.9145198641
  O         9.0849541198        0.5007298369       17.8313202849
  H         6.5428568270        7.3907757877       18.0564565924
  O         0.2578357674        9.1684594152       18.9220043610
  O         3.6985434200        2.2524167322       18.4814344079
  H         3.3455497226        3.1744881165       18.6993794250
  H         9.1570760267        1.4522946580       17.6089524386
  O        -0.6041812995        6.5358845266       18.4912825952
  H        -0.0791325588        8.2212322476       18.9205453151
  H         0.6174105943        5.3490654574       18.4269320018
  H         3.4008782529        8.7763723636       16.7730601752
  O         5.5163499822        8.2807368157       19.5825329112
  H        10.3827040372        6.7250494179       17.5277361804
  H         1.6975547288        4.5059671401       17.5923602931
  O         1.2854561001        4.5882891222       18.4393135537
  H         6.2791473799        8.7966900352       19.9837848030
  H         4.1947955105        5.8780267126       21.1765825756
  H         4.6093109866        7.9605112540       17.3373181235
  H         5.2970412953        7.4892619713       20.0853817383
  H         9.8058512827        5.9812192156       18.7457724603
  O         4.0447011000        8.0285612996       16.5448120979
  O         1.0120350110        3.1410019139       21.2328787827
  O         4.8712713515        6.5027821119       21.6405740907
  H         4.3874622412       -0.1979806453       20.2568632712
  H         7.6036258687        5.5586506858       18.8441607297
  H         1.0734467565        2.1697208114       21.3146335773
  O        10.8959410103       13.3626022195       23.5512757408
  H         0.6840566258       12.9918264431       20.3117837180
  H        11.1214191195       13.5749918241       22.6114535201
  O         4.0168319032        0.6765991139       20.6202434323
  O         8.3730639439        4.8826033818       19.1504225337
  H         5.2864019116        5.9574257599       22.3750173157
  H        11.2026599708        2.7441359295       23.6865654817
  H         8.2057436676       10.6097098567       21.4186300118
  H         2.5838674885        4.9787431097       19.6348193140
  H         8.3259203768        4.9834492449       20.0986688894
  O         8.2479493821        9.8011898842       20.8720097894
  H         4.0373220120        1.2612140510       19.8079236430
  H         3.5838954935        7.0050359634       22.9670286045
  H         8.5999568647       10.0570222637       19.9802010839
  O         3.3314050604        4.6492230164       20.1718251275
  O        11.2222641628       10.6998587049       23.4039794272
  O         3.1313292315        7.6198603722       23.5916726588
  O         7.8536984997        1.8838497795       23.0514446577
  H         9.5544154947        4.0185281840       24.1788257905
  H         2.8293651859        3.9883222548       20.7190272721
  H         2.7517783355        7.0712270804       24.3476826882
  H        11.6829065284       10.1952843166       22.7074611477
  H         6.8631920344        1.7866287889       23.1246466618
  H         8.1569233201        2.6231935183       23.6066221133
  H         4.7378291399        1.4636909911       22.1964517591
  H        11.7232605951        0.7157307961       24.2142698296
  H        -0.2905561667        6.9312485096       24.3104663310
  O        -2.6208203168        7.2271325475       21.5880199361
  H        -1.7532721352        6.9361123909       21.9824960366
  O        -0.3053870591        7.1650180392       23.3204017845
  O         5.1726493590        1.8291065165       22.9952276734
  O         8.5455617539        4.0505265603       24.4754368059
  O        14.6600558755        4.5011768784       23.5777025150
  O         6.9776165936        5.8435186002       23.5675933859
  H         8.4304584361       10.3654644143       24.0036991642
  H         4.8365823677        8.4221918023       24.2589055410
  H        13.7796204404        4.2276920374       23.9824616143
  H         7.4368109904        6.6472111698       23.0693981518
  H         8.6196555758        8.2030175065       21.3188479381
  H         8.0692306095        4.7355701687       23.9839464812
  H         5.6377720196        0.0520230319       24.2347442027
  H         9.7907869371        9.5258524128       24.0707474046
  H         4.6172783151        2.6306406369       23.1300434975
  H         0.6367498555        7.1491760752       23.1654751043
  O         8.8405951268        9.4796934063       24.2962252482
  O         5.7340796874       -0.8773334191       24.5071457361
  H         3.9855195179        4.8532909801       24.3898110660
  H         6.8399854650        6.0590863425       24.5315487022
 Pt         3.0512343051        9.2934730197       26.8132870144
 Pt         5.8723981785        9.2188262276       26.7547786125
 Pt         8.6009895566        9.3246944680       26.3980560418
 Pt        11.5055298910        9.1840098373       26.5380668574
 Pt         8.6349398147        4.3365119949       26.6275701511
 Pt         4.4027415800        6.9839674135       26.8522805662
 Pt         9.9931387840        6.8731009352       26.7585421894
 Pt         7.1599190091        6.8094246291       26.7884540837
 Pt        11.4460761665        4.3708123504       26.6659421140
 Pt         1.6243868143        6.8142407739       26.6819484076
 Pt        10.2030274125        1.9669670182       26.6586188227
 Pt         7.1599431046        1.9777708583       26.6970237773
 Pt         3.0210023997        4.4816466523       26.7837630727
 Pt         5.8686019027        4.5113680778       26.8659608820
 Pt         1.6223217313        2.0757532414       26.6472640043
 Pt         4.4410021188        2.0240712981       26.8175863394
