   243
 Tv_1:  11.152900   0.000000   0.000000 Tv_2:   0.000000   9.658700   0.000000 Tv_3:   0.000000   0.000000  26.829700
Pt      5.35710487      7.67009693      2.34596694
Pt      6.68457410      0.43463777      2.40270409
Pt     10.93922101      7.67510713      2.56370664
Pt      8.19528099      7.65675391      2.48319732
Pt      8.08824267      2.80586340      2.47087382
Pt      2.50144778      7.63585727      2.45733532
Pt      9.59291709      5.20879930      2.50740986
Pt      6.78911598      5.28386849      2.39727252
Pt      5.27373106      2.88698844      2.33137721
Pt      3.89743823      5.23075995      2.50128741
Pt      9.53729810      0.34275507      2.58792601
Pt      1.04655443      5.14158831      2.49389017
Pt      1.18183430      0.37710888      2.39251173
Pt      2.61796752      2.78084464      2.54749448
Pt      3.89322383      0.37496835      2.41491513
Pt     -0.33484077      2.73008637      2.37307281
Pt      5.94178714      6.45792211      4.77705399
Pt      8.78131316      6.28525610      4.83945586
Pt      7.26733486      8.87451909      4.77426297
Pt      7.19338136      4.03227573      4.74026387
Pt      8.68462981      1.60136638      4.85186883
Pt      5.83228702      1.54698153      4.74088136
Pt     10.15131197      3.97145309      4.80288723
Pt     10.08295078      8.63857088      4.76689845
Pt      1.66307663      8.84578224      4.82410581
Pt      0.36206187      6.35664867      4.80674785
Pt      3.00775348      1.52489822      4.82250718
Pt      3.11710446      6.48049552      4.74529276
Pt      4.58805582      8.79235932      4.69472093
Pt      4.54397261      3.94811918      4.78961475
Pt      0.19646378      1.52316127      4.78303321
Pt      1.72270346      3.91692307      4.79722679
Pt      8.01477753      2.73727275      7.37650007
Pt     10.66268664      7.55887770      7.23100510
Pt      9.27391228      5.16221024      7.32179632
Pt      9.39120296      0.36649235      6.99829726
Pt      6.70017299      0.31222380      7.21881552
Pt      3.73670914      5.22175450      7.07445298
Pt      3.82919587      0.40612035      7.04550815
Pt      8.01761250      7.58542774      7.10195737
Pt      5.24756249      2.81090596      7.10862395
Pt      2.50914150      2.76115045      7.11760885
Pt      0.91379288      5.09544559      7.08735460
Pt     10.74033179      2.73184070      7.23032824
Pt      6.55412915      5.20210301      7.06156662
Pt      1.03401018      9.99902919      7.26783774
Pt      2.23791375      7.53395151      7.06148375
Pt      5.13274859      7.66176627      7.15091780
O       6.53962239      5.15048679      9.21480952
O       2.41034761      7.30558662      9.22816600
O       0.64867524      5.06282638      9.33683973
H       5.67290203      3.52547016      9.57681278
H       8.92427554      5.16112008      9.04913827
O       1.02232613      0.21550113      9.58602587
H       1.52961494      7.11197012      9.61347355
O      10.50878573      2.77147491      9.27295857
H      11.13391416      2.16175617      9.70165014
H      11.24111464      4.27222941      9.54026236
H       7.39779239      1.61097835      9.51856746
H       2.28812365      3.49369627     10.36428899
H       2.38937396      1.98137750      9.95406479
C       7.73106262      5.42187013      9.85336746
H       2.91915542      6.28816400      9.27014794
O       7.81216694      2.53282736      9.62295964
H       7.87009336      9.00210760     10.16898980
H       7.95000326      4.62826187     10.65665917
O       5.11633233      2.72103333      9.30566229
O       2.57723161      2.88041571      9.66660715
H       1.80942326     -0.16900746     10.16671676
H      11.61665598      9.07127333      9.50900830
O      10.76213489      7.66309414      9.27162225
H       4.12523269      2.90454493      9.61014067
O       6.63513900      0.88207998     12.81035237
O       3.75772207      5.32147099      9.11805128
H       8.08565668      6.44938134     10.12407996
H       7.15263754      9.67457495     15.79381258
H       6.53096708      0.44402236     13.73318958
H      11.15315311      5.76229490      9.54675655
H       8.79033996      8.24651198     11.33888667
H       6.63465780      0.12244932     12.21871916
O       8.74321209      8.69330614     10.47650559
O       6.53883946      9.24594524     15.12345206
H       4.61649540      5.70435327      9.45141741
H       7.36544501      2.59556632     13.02279573
H       6.95525314      8.31742742     14.96010157
H       9.50457752      6.18693197     12.33591134
H       1.58293231      7.83451093     12.11745902
H       7.08921072      4.10916076     13.14674389
O       0.80436097      7.21699328     12.28372066
O       9.40584282      7.15223364     12.42257013
O       7.75193497      3.45023886     13.32563674
Cl      5.24815069      7.15021958     11.17690419
H       3.67463351      2.03297445     13.39760345
O       9.96018552      4.59495306     12.09235055
H       9.28823576      4.03820096     12.64367546
Cl      1.92733363      4.53287915     12.26962046
O       4.62524244      3.53689341     15.21397701
H       1.14575916      6.27171299     12.43619684
O       3.86115112      1.55179736     12.58348937
H      10.88611088      4.27100689     12.09630761
H       4.88044194      4.25953847     14.52857784
H       3.63133322      3.55731124     15.19711755
H      10.37085567      7.37686015     12.47616713
H       1.91627008      3.90012851     14.15231246
O       5.58414615      5.26344761     13.32039140
H       6.13783562      5.90285675     13.85183958
H       3.90192058      8.27446912      9.39028573
H       4.85428214      1.56271828     12.47997944
H       4.71628122      9.16812382     15.46720184
H       0.15983686      2.41852400     17.53512909
H       5.25383723      5.81440095     12.52949031
H       8.32307106      3.10124719     15.06454082
H       3.11343571      9.18917353     15.07513853
O       1.80164151      3.79333158     15.13854338
H       1.22821380      3.02443962     15.29857953
O       0.78202248      2.96912594     18.09540957
O       4.47824133      8.88439185      8.79208810
O       3.77822053      9.16162991     15.84026538
H       0.52343461      3.81478006     17.80986031
H       0.87352709      8.46991124     15.58527510
O       8.68659768      2.85254500     15.94152164
O       0.02473420      1.71326186     15.69052021
O       1.14384216      8.80721547     14.72397893
H      -0.92403858      2.03824664     15.60954301
H       8.26511873      4.44300367     16.40881785
O       7.86155975      5.33022902     16.68272542
H       5.83781552      9.62242630      9.39057211
H       8.13012675      2.13463382     16.36632985
H       3.37122933     10.03731801     17.27419877
H       2.25514494      1.43821071     17.78298529
H       0.25460885      0.96653347     15.05553664
H       6.89753715      5.10334336     16.80440164
H       7.87808051      6.47651352     15.17638072
O       3.08556163      0.98914585     18.04440637
H       1.02754105      8.06928927     14.12284536
H       5.00045622      4.14367369     16.71184226
H       4.56459555      1.88848581     18.28738908
O       7.60988062      6.97042082     14.40015875
O       5.37463703      2.19253846     18.69200699
O       2.72155733     -0.60641830     11.30082049
H       8.38996287      7.11643562     13.77381086
O       5.33483190      4.57797580     17.56232256
H       2.91477207      0.20106207     11.81579161
H       5.38459228      3.17140681     18.39540764
H       3.60744338      8.62003051     11.20454514
H       6.70899913      1.28521519     17.71747559
H      -1.85084503      6.77908357     17.57111079
H       3.04734912      9.34464280     19.15506698
O       7.52464739      0.86981070     17.26949674
H       4.65266221      5.19227790     17.90006720
O      -1.15210351      7.49395206     17.46902148
O       2.92822851      8.53239158     19.70683715
H       3.31141807      8.82414959     20.55855653
H       8.12051740      0.61331591     18.01683858
O       8.32415337      2.60873942     20.85100794
H      -0.93218385      7.65591269     18.41139940
H       1.57386951      3.46160405     19.83077970
H       0.27932567      6.34279987     16.83827572
O       8.49121085      5.05110426     19.37972553
H       8.32663176      3.40917353     20.26972427
H       2.54681932      4.58178539     19.77877927
O       2.03817663      4.02610969     20.44064320
H       7.71255088      5.47508273     19.80302922
H       6.15131109      0.70574475     21.48767431
H       1.18928510      5.36396048     16.21000331
H       8.17319151      5.00665825     18.44065715
H       7.33783552      2.49454705     21.12480330
O       0.82351488      5.57498848     17.05145637
O       9.21172311      0.46177376     19.28661239
O       5.93447667      1.66442148     21.25032307
H       1.15767169      8.61502341     19.77235941
H      -1.05975777      5.32245870     20.69223167
H       9.99037226      9.58311744     19.58974669
O       7.60924302      8.90205211     21.29363781
H       9.24981855      1.35609157     19.69365748
H       8.14919603      9.28089271     20.57441196
O       0.20862376      8.36603054     19.82009764
O      -0.22916971      5.72976477     21.00602573
H       5.57233482      1.78405780     20.27424484
H       8.22766322      8.81243556     22.01218882
H       7.16436488      7.16572108     21.23745407
H       2.63359654      3.65989668     21.98919388
H       0.52160602      5.12054291     20.73885932
O       6.74220569      6.21824882     21.25066446
H       0.06964511      7.51733058     20.32891037
H       4.92725129      7.04430511     21.95236798
H       7.06760740      5.79201022     22.04999436
O       2.50590390      3.58735807     23.01167615
O       9.98578169      9.40472571     22.88860766
O       4.14211726      7.45936972     22.43600241
O       6.95577878      1.70277841     24.47441137
H       8.91653197      3.00459832     22.37274521
H       1.69215147      2.93139773     23.01273631
H       3.61191034      6.68839253     22.78558545
H      -0.66519829      8.53799555     22.96419805
H       5.99752828      1.90346029     24.11702187
H       7.57555678      2.48250335     24.10899861
H       3.80702794      2.14568279     23.67818712
H      -0.49220942      0.49323806     22.98465803
H       2.63272852      4.91462971     23.75203252
O      -0.16205971      6.85614411     23.43679424
H       0.64245304      6.80659900     23.94353423
O       2.66699431      5.94757159     24.02056851
O       4.54663643      1.58274234     23.50834796
O       8.96249351      3.18629467     23.42304600
O       0.24640007      2.08596858     23.39494607
O       8.38203115      5.78161826     23.42233373
H       7.70982360      0.23650894     24.47944499
H       4.75962697      8.17689347     23.86136587
H      10.64498338      2.72778169     23.33945906
H       7.72094358      5.99330241     24.18295755
H      -0.02014396      6.42951544     22.57942480
H       8.72658708      4.11054236     23.65778443
H       4.86092011      0.05224467     24.13655447
H       9.20052407      9.26165179     24.24638513
H       4.80620168      1.84867689     22.61379734
H       3.10482608      5.96789005     24.90466776
O       8.23591800      9.05927603     24.59323461
O       5.14973572      8.87431120     24.49635222
H      11.44617070      2.13114606     24.39681392
H       9.28838583      6.18328654     23.55463097
Pt      2.38502449      8.86558939     26.98232991
Pt      5.12430388      8.72626259     26.71441187
Pt      8.02955257      8.74743366      0.00871171
Pt     10.77268048      8.85310095     26.88003702
Pt      8.01971735      3.95797768      0.04525744
Pt      3.74982833      6.38949115      0.11596431
Pt      9.28378677      6.35941853      0.06276215
Pt      6.53841020      6.36015174     26.82684250
Pt     -0.31853219      4.02478382      0.03200891
Pt      0.90344371      6.54985171      0.14229315
Pt      9.46105253      1.59150020      0.12179096
Pt      6.60501069      1.61092513     26.81566038
Pt      2.49920504      4.05193068      0.11212168
Pt      5.18174920      4.11154308     -0.14948132
Pt      1.12219458      1.66585190      0.09488197
Pt      3.81279341      1.65735590      0.13649402
H       8.85852415      2.45735385      9.64757333
O       3.12819871      5.85206521     18.66945636
H       2.45681200      5.85855611     17.88025216
H       3.19958269      6.80000386     18.84649511
O       6.77802552      0.36169818      9.24939472
H       9.95373454      8.02383864      9.79940920
