   243
 Tv_1:  11.152900   0.000000   0.000000 Tv_2:   0.000000   9.658700   0.000000 Tv_3:   0.000000   0.000000  26.829700
Pt      5.50809107      7.70844576      2.29572703
Pt      6.75906478      0.54735611      2.20125958
Pt     11.04944147      7.63430277      2.28913866
Pt      8.21923222      7.56337120      2.25791010
Pt      8.15920778      2.84132199      2.47034600
Pt      2.66296354      7.56426434      2.49587143
Pt      9.50787264      5.21625035      2.41153334
Pt      6.76649059      5.26614725      2.49601510
Pt      5.33224512      2.80354476      2.51781012
Pt      4.07079870      5.15336253      2.56077813
Pt      9.66841570      0.44400057      2.34649568
Pt      1.19984797      5.14692420      2.41757034
Pt      1.40782783      0.25137524      2.36882548
Pt      2.56959163      2.77834343      2.47324372
Pt      4.09715095      0.39386191      2.33568536
Pt     -0.26504492      2.79276517      2.40946781
Pt      5.81091814      6.44699933      4.79089580
Pt      8.61515468      6.41601850      4.78814122
Pt      7.25157697      8.74319322      4.43968441
Pt      7.23668023      3.92995577      4.74363372
Pt      8.63147552      1.44982042      4.69493249
Pt      5.87995372      1.50045216      4.78249536
Pt     10.07098340      3.86866655      4.74058417
Pt     10.08203616      8.65283261      4.59813837
Pt      1.64800141      8.77991514      4.78905808
Pt      0.23645845      6.29208918      4.67218887
Pt      2.93265656      1.46407836      4.80133559
Pt      3.09434656      6.20765813      4.73962407
Pt      4.48879609      8.78561169      4.55644072
Pt      4.53570694      3.91856643      4.91584291
Pt      0.26327817      1.39171397      4.61669930
Pt      1.74263001      3.86614097      4.82021806
Pt      7.93601739      2.76758023      6.97729185
Pt     10.74923336      7.58162341      7.03849938
Pt      9.06038426      5.15602624      7.17553431
Pt      9.27928718      0.27073292      7.02409344
Pt      6.62154623      0.32602972      7.08734744
Pt      3.76576824      5.14585344      7.21102214
Pt      3.95367596      0.39358841      6.97838167
Pt      7.90166814      7.64180547      7.03915180
Pt      5.16744585      2.80223678      7.14040515
Pt      2.36876849      2.65828113      7.18291533
Pt      0.87766982      5.11620305      7.01935333
Pt     10.71084311      2.60959067      7.09638763
Pt      6.48997534      5.26971883      7.17062986
Pt      1.01937671      9.94731333      7.11591921
Pt      2.31131937      7.65319388      6.94237043
Pt      5.14498711      7.59012988      7.06981985
O       6.59363047      5.28236501      9.21303984
O       2.59446404      7.65110625      9.44049511
O       0.51379391      5.40609024      9.22540763
H       6.06424011      3.31222221      9.60689175
H       8.80865133      5.39743729      8.95338358
O       0.91703354      0.31063864      9.24237255
H       2.02707579      7.85120334     10.35348193
O      10.77241294      2.57789925      9.14854672
H      11.27865561      1.77067139      9.41366996
H      11.14408181      4.62540845      9.46400259
H       7.88293911      1.60683928      9.29963317
H       2.79405802      3.89288783      9.20146392
H       1.46827874      3.08346805      9.69478939
C       7.87503602      5.73090796      9.65014109
H       2.76278040      6.66246323      9.43211882
O       8.14483241      2.56272869      9.23472850
H       7.80336450      9.13427290      9.94861898
H       8.24542124      5.30690255     10.59541546
O       5.39963178      2.71140763      9.33496647
O       2.32094602      3.00992724      9.23325593
H       1.82670554      0.42673032      9.60337857
H      11.28970058      8.40159302      9.50805323
O      10.71663069      7.70237730      9.10115735
H       4.65917969      2.72414227      9.96084045
O       7.49233215     -0.71123499     13.62438850
O       3.60439053      5.23643949      9.37618308
H       7.94647745      6.84451277      9.61713094
H       7.08795852      7.95204247     18.42854656
H       7.13867505     -0.98381148     14.43937640
H      11.07467304      6.20006754      9.25338406
H       9.70092960      8.26478377     10.03267981
H       6.87800569     -0.98637410     12.87354609
O       9.01133368      8.58340281     10.74325288
O       6.74109209      7.04463711     18.52988231
H       4.52143762      5.43396464      9.69298840
H       7.04490801      1.12653613     13.74153244
H       7.42528319      6.58336085     17.88780098
H       8.68133027      5.43240053     13.60343656
H       1.63566549      8.53850194     12.12893666
H       6.63733694      2.75554140     13.84082386
O       1.08135750      7.90653551     11.60188665
O       8.12709494      5.97615814     14.24786933
O       7.29343740      2.08630549     13.49375239
Cl      5.44730844      7.99182809     11.49468247
H       3.24871331      3.52948825     11.88590901
O       9.30904826      4.15966885     12.73600009
H       9.05151308      3.29111375     12.51499535
Cl      1.40688477      4.79877105     12.32814371
O       4.83204360      3.42397614     14.23441293
H       1.21092289      7.05378590     12.03354270
O       4.11386320      3.12054529     11.63538989
H      10.27079449      4.25898351     12.72119182
H       4.55685797      4.36846824     14.02107688
H       3.89735212      2.99646393     14.38135097
H       7.94831347      6.81530967     13.70364313
H       1.87063977      3.27238953     13.78665919
O       3.95378542      5.99951337     13.29563736
H       4.39920048      6.50989249     12.59549927
H       3.88681474      8.44699435      9.15746042
H       4.65916265      2.95423790     12.43462910
H       5.97096287      7.25384273     16.51042055
H       1.73623282      0.47681807     19.58023468
H       3.09193885      5.67804246     12.98772688
H       8.27004169      1.87179070     15.03340436
H       5.16274833      6.99234844     15.23379982
O       2.32649205      2.53760761     14.26890327
H       1.80532258      2.01875127     14.90244691
O       1.24333430      1.08600332     18.96697474
O       4.58991724      9.03788121      8.67425742
O       5.40162151      7.73016699     15.85844619
H       1.47951135      0.79604781     18.05777435
H       3.20000795      7.86539914     14.03393158
O       8.70768592      1.79955497     15.92478859
O       0.54078906      0.73438904     15.83823845
O       2.78020879      8.78773356     14.06307122
H      -0.34260450      1.17801400     15.74465613
H       7.86055298      3.10430629     16.82402607
O       7.69591540      3.86669564     17.43144143
H       6.14530948      9.31995174      9.63876116
H       8.33377051      1.02254052     16.42170224
H       4.21172393      9.14069266     16.69932402
H       3.05741415      0.01519473     15.94313158
H       0.62841672      0.02474055     15.18449165
H       6.71528454      3.90603931     17.33382589
H       8.57973958      5.27988094     16.97582347
O       3.34052451     -0.03439006     16.86217148
H       3.24569277      9.33613176     13.45786764
H       5.10660823      3.50818061     15.94721612
H       4.82717643      0.79518824     17.97518872
O       8.81296863      6.27911028     17.01488128
O       5.56432335      1.23373267     18.45387705
O       3.21835044      0.32057239     11.22379504
H       8.49916290      6.47095782     16.07294784
O       5.23311062      3.71934010     16.93673907
H       3.60073183      1.22322261     11.21943226
H       5.68962356      2.16048780     18.03356603
H       4.02659179      9.42387573     11.29461400
H       7.09518630      0.47288998     18.00660660
H      -1.17738069      7.13232731     17.78288694
H       5.49655493      6.61833482     19.67916216
O       7.72237996     -0.14907353     17.59940626
H       4.47249265      4.07822806     17.37605254
O      -0.50447666      7.67271664     18.25995737
O       4.57027795      6.41326549     20.02675266
H       4.69529284      6.13326535     20.94042648
H       8.56357225      0.19825374     18.02059253
O       8.52935665      2.15385013     21.17386800
H      -0.30670047      7.18866150     19.07405033
H       1.58459566      2.70815895     19.72773629
H       2.35003888      7.94118376     17.01008168
O       8.40441390      4.50840840     19.88976965
H       8.25306739      2.98864396     20.62738546
H       2.31222952      4.05098603     19.28628248
O       1.74676830      3.64606217     20.00236402
H       7.77066552      5.28302463     20.11723931
H       6.65478822     -0.11925238     21.21308424
H       0.89347733      7.40007088     17.27262661
H       8.11764364      4.20373820     19.01263149
H       7.64943835      1.57900686     21.22232206
O       1.82608124      7.13361107     16.98788717
O       9.62319002      1.50059044     18.85960730
O       6.26007875      0.72650777     21.01060669
H       3.52437124      8.23183496     20.22673234
H      -1.17619454      5.40452036     20.14221871
H      10.56857138     11.12714337     18.71983407
O       9.02474540      8.71568456     20.82967534
H       9.50638165      1.64636977     19.81749749
H       9.71079578      8.84651383     20.17446749
O       3.05638206      9.02122118     20.60789923
O      -0.34372634      5.89200847     20.50786607
H       6.02208445      0.81049713     20.07066031
H       9.06715431      9.45466078     21.47290723
H       7.72419891      7.39064155     21.38942409
H       2.11904326      3.45622885     21.62203368
H       0.35374579      5.19518848     20.34713910
O       7.33158632      6.62728197     21.83957779
H       3.07346388      8.85289649     21.56903966
H       6.21885500      6.93205413     23.22241124
H       8.05868771      6.15371431     22.37442029
O       2.28357164      3.20403298     22.56063844
O      10.38127182      9.23143204     24.48778370
O       5.50032863      6.79346960     23.92348275
O       6.80929795      2.20516601     24.48885738
H       8.62635560      2.92306253     22.60122861
H       1.53475639      2.77944354     22.98287490
H       4.68188809      6.27350468     23.65255701
H      -0.19112756      8.64883511     23.99707228
H       6.00574448      2.59148884     24.06516177
H       7.68522254      2.82710334     24.13827622
H       3.99693866      2.27869978     22.85170150
H      -0.44319488      0.52733013     24.22224240
H       2.69095539      4.82094186     23.33686468
O       0.31685462      7.15282083     22.85070222
H       1.12989723      6.53888744     22.87579093
O       2.89400791      5.75915190     23.73675563
O       4.59903329      1.52801531     23.08157329
O       8.80268795      3.30606172     23.53976133
O       0.36469875      2.02647871     23.99885767
O       9.30083429      5.76321172     23.66879579
H       8.37480614     -1.01527169     23.88431817
H       5.00736383      8.05897277     24.28081723
H      10.76280514      2.65516229     23.95860116
H       8.94256376      6.17743139     24.55602449
H       0.01590706      7.14903331     21.90650681
H       9.00900864      4.29942325     23.53636966
H       4.80552453      0.26238807     24.22215817
H       7.38477325      9.83704217     24.04936285
H       5.07642143      1.20592535     22.18678145
H       2.69003930      5.75835799     24.68926995
O       7.62012724      9.05774211     23.44628770
O       4.69938193      9.02843131     24.67983064
H      11.93778299      2.37786558     24.79475570
H      10.08594582      6.26240555     23.48309166
Pt      2.25584536      9.16470524     26.84091621
Pt      5.15326049      9.01334344     26.76758820
Pt      8.02684105      8.99544272      0.07456350
Pt     10.78634677      9.03603027     26.68208344
Pt      8.00025497      4.25674672      0.05679083
Pt      3.71327513      6.72389935      0.13357650
Pt      9.45019759      6.61168706     -0.07108356
Pt      6.44795867      6.65552907     26.89567449
Pt     -0.44028921      4.28282371     -0.00516003
Pt      1.04822599      6.62240720      0.10685586
Pt      9.36437675      1.87852083      0.08346564
Pt      6.68192732      1.78294925     26.70746994
Pt      2.42790544      4.21721799     -0.02732254
Pt      5.26998613      4.23817808      0.08834069
Pt      1.08155644      2.01028542      0.06172191
Pt      3.82646480      1.91568231      0.10897380
H       9.18567887      2.51860904      9.34506140
O       3.17778838      5.05391594     18.25616063
H       2.51492070      5.55851462     17.74536221
H       3.73813862      5.70660258     18.72838948
O       7.06762147      0.00849564      9.40123666
H       9.46847365      8.76072677     11.54455921
