   243
 Tv_1:  11.152900   0.000000   0.000000 Tv_2:   0.000000   9.658700   0.000000 Tv_3:   0.000000   0.000000  26.829700
Pt      5.36792725      7.63317808      2.23100827
Pt      6.93137103      0.49959567      2.50700342
Pt     11.05467979      7.85572562      2.43912968
Pt      8.14121712      7.82656852      2.35633389
Pt      8.24667872      2.83995906      2.41097231
Pt      2.59490020      7.65035645      2.45389224
Pt      9.54222805      5.26609332      2.41282590
Pt      6.86203355      5.26397581      2.47920632
Pt      5.33193191      2.92140853      2.38420696
Pt      4.00242387      5.25475637      2.56935712
Pt      9.65540533      0.46186076      2.37940038
Pt      1.23142339      5.24940172      2.51840244
Pt      1.40252213      0.52961188      2.53902801
Pt      2.70190092      2.85529131      2.54670607
Pt      4.19643466      0.43897364      2.54213059
Pt     -0.11585995      2.83601888      2.45155168
Pt      5.86095628      6.40206284      4.80961374
Pt      8.60974578      6.42295410      4.65849530
Pt      7.32887593      8.81437011      4.69289718
Pt      7.45366486      4.02902176      4.83667187
Pt      8.76888410      1.56825002      4.87527498
Pt      6.07388466      1.62905352      4.83326824
Pt     10.15950203      3.92768389      4.82628607
Pt     10.06499993      8.75957711      4.70319312
Pt      1.68733434      8.74447422      4.91530081
Pt      0.30042928      6.43159035      4.82695946
Pt      3.28398026      1.57164110      4.91854010
Pt      3.12492289      6.39297355      4.84967635
Pt      4.58923423      8.70780913      4.70416543
Pt      4.58411957      3.96951373      4.85674957
Pt      0.49068595      1.42431695      4.90598208
Pt      1.74445186      3.95328926      4.84713727
Pt      7.90489068      2.76300199      7.23177071
Pt     10.70652871      7.51933971      7.25057604
Pt      9.23023060      5.12536093      7.06816921
Pt      9.42675794      0.26806041      7.09528256
Pt      6.72580355      0.35532248      7.22042665
Pt      3.79603350      5.05499694      7.15265766
Pt      3.89802670      0.31389113      7.11205587
Pt      7.94580401      7.62009479      7.16485052
Pt      5.28575892      2.78506017      7.17137345
Pt      2.50192529      2.73331221      7.23290529
Pt      0.84430934      5.11900529      7.12059453
Pt     10.71804425      2.61332906      7.17397116
Pt      6.49278263      5.33446934      7.21392305
Pt      1.06433702      9.82437944      7.26550260
Pt      2.34459929      7.41308348      7.18567921
Pt      5.08407195      7.63830951      7.13729575
O       6.74799495      5.11189854      9.24377189
O       2.57909272      7.25766887      9.65288402
O       0.49549365      5.25803325      9.25094941
H       6.01977925      3.70684446      9.51788339
H       8.83633353      5.26094554      9.05210782
O       0.90092025      0.18041034      9.30982300
H       1.79529665      7.27047151     10.27087433
O      10.53743607      2.63150375      9.38732078
H      10.84249471      1.66632015      9.52901177
H      11.28857017      4.44311450      9.59893467
H       7.36952878      2.00953079      9.65897361
H       2.89896654      3.70323800      9.52777244
H       1.82808916      2.67552167      9.93865547
C       7.99603737      5.36883716      9.79564565
H       3.05969577      6.29940281      9.56113879
O       8.12131351      2.62150472      9.35175237
H       7.86623223      9.39370078      9.78660129
H       8.24939992      4.69917696     10.64407848
O       5.52203991      2.81997730      9.37827208
O       2.61707344      2.70992302      9.40032020
H       1.83627823      0.04308442      9.66720491
H      11.26342958      8.27673470      9.58989853
O      10.65425117      7.48069414      9.37754241
H       4.79199681      3.02494489      9.99570528
O       5.49761508      0.96671414     13.20637166
O       3.82994442      5.18921673      9.35911543
H       8.08245177      6.42620018     10.17916854
H       8.22854657      9.51086860     17.26884376
H       5.40663527      0.67472908     14.14416367
H      11.12673972      6.11976261      9.52560133
H       8.70484982      8.46399378     11.17495639
H       5.79837642      0.12066291     12.77484711
O       9.01755706      9.07158684     10.43131912
O       7.58075054      8.77859100     16.83879995
H       4.70162850      5.56266008      9.58258208
H       6.84507176      2.29607288     13.94535146
H       8.19156132      8.46689836     16.10973422
H       9.47147775      6.42431683     13.12605733
H       1.71647173      6.92347669     12.42643799
H       6.71300864      3.76603797     14.50635622
O       1.01314533      6.64201716     11.78516636
O       9.76645288      7.44219072     13.03798577
O       7.34290922      3.06131749     14.42845138
Cl      5.79492309      7.90390686     11.58791334
H       3.11815564      2.89016532     12.31096233
O       9.08590990      4.69536108     13.06916812
H       8.34865702      4.06813100     13.28899472
Cl      0.79630376      3.69170708     12.06810217
O       5.25369575      4.64831882     14.67073452
H       0.88194899      5.64845528     11.82677565
O       3.82246053      2.49360499     11.70707158
H       9.93996053      4.12540414     13.00875662
H       5.25819008      5.68317093     14.57341123
H       4.31428901      4.32979061     14.49405822
H      10.69252517      7.35668267     12.59271318
H       1.92101768      4.02021589     13.81746816
O       4.79700848      7.20726360     14.37539883
H       5.26465678      7.34506497     13.52017500
H       3.74745397      8.31641855      9.30138065
H       4.60502507      2.19039144     12.21901479
H       6.22846310      9.19491636     16.27789852
H       1.74220395      2.27712942     17.35485222
H       3.85400644      7.42657960     14.10005065
H       9.15201584      2.82432184     14.98260544
H       4.92792708      8.51951451     15.60169484
O       2.45205475      3.82774596     14.58665797
H       1.89568785      3.01218886     14.84805786
O       1.95095370      3.09421522     17.91944726
O       4.48037453      8.73138631      8.79740852
O       5.22400084      9.37389476     15.92012052
H       1.81393875      3.94317925     17.40106519
H       1.95142830      8.37202743     14.77060104
O       9.91916323      2.70636608     15.65612193
O       1.16135065      1.67259477     16.05147647
O       2.33129451      8.17796048     13.91085818
H       0.28736286      1.97247845     15.64456702
H       9.40592930      4.62719273     16.63293586
O       8.93328770      5.46563326     16.83893953
H       6.19144366      9.12967387      9.59205094
H       9.53620552      2.06756709     16.32823697
H       4.52076103     10.36994670     17.06719867
H       3.58222863      1.98159252     17.39819345
H       1.17072659      0.66342673     15.96133218
H       7.97734235      5.46434223     17.00482566
H       9.66132048      6.94472949     15.96551084
O       4.28182399      1.36602910     17.83296888
H       2.31016068      8.94311638     13.21039004
H       5.95391814      4.43964760     16.27151358
H       5.89741025      2.23811931     18.36206728
O       9.94278108      7.82103507     15.60038813
O       6.74044989      2.67712808     18.73049662
O       2.56013877     -0.12149526     11.63369210
H       9.96135018      7.79856962     14.58622927
O       6.29077120      4.80116016     17.17080597
H       2.77028697      0.84228923     11.61765897
H       6.59252081      3.49959343     18.26389495
H       3.48822504      9.21503499     11.61422503
H       8.06770232      1.45796216     18.26190277
H      -0.02187759      8.25763488     16.26759271
H       4.64543509      9.48753415     19.06269732
O       8.87459674      1.13060700     17.71265540
H       5.50631362      5.25579017     17.61759921
O       1.01568149      8.40434494     16.47532469
O       4.12563591      8.74794852     19.47601556
H       4.30426794      9.01935308     20.43721368
H       9.53091844      0.96494643     18.38577084
O       9.10182327      3.34244399     20.44969629
H       1.08742782      8.70730570     17.42186926
H       2.11048200      3.77628406     19.42180932
H       1.74219005      6.66874938     16.48168408
O       9.10046036      5.97756826     19.52795738
H       9.29610480      4.21848478     20.11422233
H       3.09220602      4.93304761     19.89079904
O       2.40481439      4.31604035     20.26076416
H       8.21649364      6.40088819     19.73817610
H       6.64038082      0.94211444     21.11547936
H       2.31914081      5.41902318     15.64181710
H       9.13757762      5.95654799     18.53369702
H       8.45927810      3.03706192     19.79838273
O       2.10267975      5.74635261     16.54952964
O      10.61384298      0.97414072     20.08201372
O       5.69307199      1.20555083     20.92664506
H       2.26925802      8.96144365     19.22996720
H      -0.41824716      6.10717081     20.60349185
H      11.41378535     10.11800205     19.88123282
O       8.27874442      9.99841856     21.61834141
H      10.65458645      1.92964014     20.06371562
H       9.00692165     10.26474872     21.00801316
O       1.23472273      8.86204853     19.29267061
O       0.43114956      6.10842331     21.06528544
H       5.73597943      1.85070528     20.21397642
H       8.49884002     10.44130167     22.50897804
H       7.57592910      8.07563793     21.64225801
H       2.47798241      3.97156575     21.94044559
H       0.99929056      5.35540091     20.69240199
O       7.31962171      7.14688411     21.52980878
H       1.19567529      8.05782258     19.86838389
H       5.51943160      7.22738606     21.97285504
H       7.63553233      6.70463137     22.33702254
O       2.58749730      3.75644488     22.93350320
O      10.94795354      9.40599903     24.55731068
O       4.76486741      7.68195254     22.36739607
O       7.18935509      2.13131498     24.10655260
H       9.23224236      3.27273236     22.29832767
H       1.72715929      3.29783640     23.18913043
H       4.18891197      6.94383947     22.63316283
H       0.21958336      8.63363176     24.01576314
H       6.21697319      2.35076313     23.91474365
H       7.82382539      2.82375069     23.87252202
H       3.90598493      2.71619574     23.28548523
H       0.29104988      0.66275413     24.34946116
H       2.89558144      5.20049480     23.63141077
O       0.69151755      7.33215074     23.27070938
H       1.54922884      6.92504414     23.56492711
O       3.14582141      6.20467198     23.69471402
O       4.76368419      2.25907433     23.28086278
O       9.27103471      3.29176697     23.26032965
O       0.52399695      2.36671240     23.93689881
O       8.76907774      5.90216693     23.83135365
H       7.66572611      0.64257526     24.36316624
H       5.28027128      8.62163189     23.68115193
H      10.74718497      2.63473660     23.73770068
H       8.53268219      5.78592141     24.75221253
H       0.43178518      6.99719209     22.37968590
H       9.38404271      4.26420902     23.48910087
H       4.76510394      0.48573717     24.20494577
H       9.07796909      9.48760778     24.49362048
H       4.95786345      1.87688037     22.37927823
H       3.63006077      6.21848540     24.55726641
O       8.13155943      9.36753907     24.39862507
O       5.14965069      9.24975590     24.49476721
H      11.85210435      2.75586827     24.85921401
H       9.54185455      6.52262589     23.74199803
Pt      2.50565742      9.01558077     26.96344156
Pt      5.16748344      8.94411474     26.71462494
Pt      8.05914233      8.93922513     -0.08919835
Pt     10.86949858      8.95009155     26.73377174
Pt      7.89459528      4.26213539      0.02431513
Pt      3.87704544      6.48234494      0.17927322
Pt      9.48726445      6.60831638      0.13834572
Pt      6.68442054      6.62815396     26.90230899
Pt     -0.42448596      4.16573988      0.06435665
Pt      1.07914355      6.56009991      0.09600714
Pt      9.37093705      1.77770613     -0.04453776
Pt      6.75319996      1.76071748     26.95904057
Pt      2.43708100      4.15556900      0.02911255
Pt      5.24823159      4.23976079     -0.07570223
Pt      1.00665729      1.77158527      0.02794767
Pt      3.79292485      1.77238052      0.11420755
H       9.32201585      2.58741308      9.44768572
O       4.05651218      6.12051935     18.63494502
H       3.35751556      6.09503585     17.90623531
H       4.16145466      7.04055492     18.94199386
O       6.85581534      0.18140623      9.41049534
H       9.62615690      8.49838845      9.88104321
