   243
 Tv_1:  11.152900   0.000000   0.000000 Tv_2:   0.000000   9.658700   0.000000 Tv_3:   0.000000   0.000000  26.829700
Pt      5.62059751      7.75143031      2.34951821
Pt      7.00347228      0.60766404      2.27161252
Pt     11.03585880      7.84968767      2.33364183
Pt      8.40816987      7.84061377      2.19956133
Pt      8.54592434      2.91775715      2.40684630
Pt      2.81411016      7.76407173      2.47283661
Pt      9.76414872      5.31910977      2.56186078
Pt      7.01161754      5.30068522      2.49147792
Pt      5.41400677      2.82244033      2.48432123
Pt      4.27882361      5.31069994      2.48869092
Pt      9.75359662      0.51573286      2.32626149
Pt      1.41561971      5.40165318      2.39347218
Pt      1.38186270      0.45167480      2.45284136
Pt      2.78316252      2.89186440      2.53577297
Pt      4.23637332      0.41441204      2.35940847
Pt      0.10535051      2.93880552      2.46186449
Pt      5.71486541      6.35812689      4.80609434
Pt      8.56520550      6.42699865      4.64943836
Pt      7.31865996      8.75751692      4.54660677
Pt      7.42364659      3.96307803      4.87135533
Pt      8.70978779      1.52588997      4.74389980
Pt      5.89877384      1.55308988      4.71000227
Pt     10.12994902      3.84522335      4.93752691
Pt      9.96458715      8.78667966      4.70649060
Pt      1.65457874      8.74952686      4.84234805
Pt      0.26395237      6.38383606      4.69689096
Pt      3.10000914      1.55892793      4.78130542
Pt      2.98529607      6.33928079      4.78354164
Pt      4.56256203      8.83370142      4.67319251
Pt      4.56698109      3.91610210      4.93913733
Pt      0.41024849      1.53189464      4.82965715
Pt      1.66825267      3.93773326      4.79227235
Pt      7.76843889      2.77924014      7.17535111
Pt     10.45172680      7.29999854      6.99843459
Pt      8.84250908      5.12249289      7.04563288
Pt      9.26095202      0.14590813      7.15441579
Pt      6.53544306      0.36024105      7.00042846
Pt      3.44168357      5.01587798      7.11892086
Pt      3.76062880      0.30439857      7.10062023
Pt      7.72021197      7.59719600      6.92593875
Pt      4.92316826      2.64750901      7.22328274
Pt      2.07853446      2.57617002      7.05994834
Pt      0.59571655      4.96256197      7.09762497
Pt     10.40788185      2.62360328      7.24210981
Pt      6.06491232      5.16080645      7.25863609
Pt      0.97579127      9.91985308      7.16607257
Pt      2.14889377      7.42467223      7.10212860
Pt      5.02153215      7.57702738      7.05745179
O       6.05170722      4.99560229      9.30418423
O       2.36714493      7.27201403      9.28971632
O       0.20508590      5.22813953      9.13855068
H       5.76136777      3.54831816      9.43309805
H       8.08580992      5.49378292      9.16723635
O       0.76816099      0.03053769      9.26248526
H       1.75392798      7.49849267     10.02721130
O      10.45639182      2.41198950      9.36209405
H      10.89483462      1.52267504      9.55311513
H      10.77680353      4.44569058      9.40952959
H       7.42278160      1.59888114      9.43010506
H       2.65393552      3.64640752      9.36446314
H       1.23363318      2.78691164      9.36427360
C       7.28122619      5.48108050      9.89191978
H       2.60000947      6.17520273      9.43175036
O       7.89863516      2.49706811      9.30458005
H       7.61733099      9.29019899      9.95729517
H       7.50611996      4.90258325     10.79133782
O       5.34204110      2.58110490      9.43850683
O       2.21380444      2.67569829      9.26637056
H       1.58714805      0.20379335      9.78538593
H      11.46555734      8.73185898      9.37428606
O      10.54283523      7.67900097      9.14700483
H       4.55625343      2.65501880     10.12412634
O       6.40008516      1.16967116     13.06884440
O       3.46816316      4.95148432      9.31538180
H       6.99620177      6.51186080     10.25303663
H       7.23271088      9.33363452     16.08970224
H       6.52825651      0.62413115     13.86113996
H      10.60172736      6.70329615      9.27030141
H       8.48253437      8.25086899     11.46316073
H       6.25342088      0.58632485     12.30262691
O       8.65671225      8.81536771     10.71488116
O       6.53653236      9.20563556     15.38870639
H       4.36906582      5.03434163      9.64013924
H       7.19432295      2.61260227     13.06343991
H       6.74751089      8.30884377     14.83690829
H       9.79392433      6.18095275     12.57539699
H       0.03657675      7.31041484     11.12489577
H       7.01757300      4.04645474     13.73441138
O       0.99142676      7.42824097     11.45241050
O       9.29966038      7.01761827     12.71682537
O       7.73577808      3.38467796     13.45700262
Cl      5.26319964      8.24845430     11.62941055
H       3.38240904      3.57343543     11.97490724
O      10.22661772      4.50645300     12.22646695
H       9.77075678      4.04760404     12.94064914
Cl      2.04242671      4.78635076     13.13546661
O       5.14510457      4.52552114     14.97264553
H       1.17913174      6.59338585     11.99349716
O       3.95807299      2.80429879     11.75514703
H      11.12102817      4.35584675     12.61673557
H       4.70949693      5.31569129     14.65409278
H       4.57107387      3.79184967     14.55340837
H       9.76516738      7.59926893     13.30519900
H       2.58752237      2.78959632     14.29795313
O       3.73454956      7.25315638     14.24405541
H       4.10983433      7.55664289     13.39413976
H       3.70169255      8.40997127      9.24592167
H       4.46358567      2.59466306     12.54348385
H       4.86103031      9.22982547     16.00959544
H       0.68299483      1.79138869     17.12597728
H       3.08724672      6.55331444     13.86603666
H       8.39558826      2.91256270     14.92025054
H       3.60017170      8.74600063     15.20135873
O       3.41316954      2.42011005     14.56983407
H       3.31579843      1.45595879     14.89442171
O       1.09740772      2.11008767     17.99592056
O       4.49606413      8.86747860      8.77108904
O       3.89431817      9.40916784     15.86025715
H       1.60092682      2.86234220     17.55205742
H       0.05589408      7.64004122     14.95063397
O       9.01490707      2.81089491     15.76144242
O       0.19555453      1.48700317     15.66284275
O      -0.04494494      8.28398087     14.20103280
H      -0.76252444      1.92129107     15.56697513
H       8.56333915      4.60175345     16.41942185
O       8.52256577      5.56947534     16.68601877
H       6.00822349      9.28011784      9.53611057
H       8.54031797      2.25130957     16.43074529
H       3.14954547      9.37829007     17.29590091
H       2.20258593      0.71878364     18.07943235
H       0.14310627      0.58385539     15.24828468
H       8.08545783      6.03863592     15.97575798
H       6.38125849      6.97297684     13.22139192
O       2.82677940     -0.07793578     18.21622922
H       0.70337778      8.25672318     13.62344938
H       5.39816320      4.15845816     16.70943407
H       4.52952064      0.89161704     18.45438385
O       7.03155781      6.83262261     13.95963437
O       5.30415724      1.47813277     18.63049386
O       2.59762527      0.41653950     11.06709285
H       7.84238129      7.01851358     13.47145576
O       5.69614374      3.91495791     17.63172106
H       2.84497376      1.37646333     11.27865662
H       5.21856612      2.42548137     18.37768100
H       3.37584486      9.52434744     11.31881449
H       7.11399828      1.11142174     17.97273563
H      -0.93205175      6.15623189     16.52794046
H       3.32120400      8.80966310     19.63310361
O       7.94643181      0.97849300     17.45472528
H       5.53049104      4.75402253     18.09959101
O      -0.04800376      6.53934571     16.19922098
O       3.75669155      7.98519728     20.00767948
H       4.10875545      8.16915984     20.90681703
H       8.69994718      0.78975133     18.05925816
O       8.88276342      2.97508519     20.95265677
H       0.17397987      7.13514806     16.92430809
H       1.55817938      3.48503828     19.41957687
H       1.39331586      5.20131653     16.67847699
O       8.26557694      5.21425572     19.74214920
H       8.60636756      3.82014817     20.45055680
H       2.64097603      4.58070771     20.05113122
O       1.77000952      4.01656764     20.28484725
H       7.77581624      5.88734417     20.28863984
H       6.92013095      0.51127038     20.99155527
H       2.49719973      4.03039398     16.24476760
H       8.09447055      5.37314825     18.77260933
H       8.20362903      2.24084631     20.86865707
O       1.99877948      4.36519980     16.97362949
O      10.18440475      0.31343624     19.04756770
O       6.39111031      1.33835204     21.05425636
H       1.56100992      8.48674221     18.43821208
H      -0.85015526      5.73904701     20.08178712
H      10.87040945      9.26764320     18.84754322
O       8.43612181      9.16065536     21.09229700
H      10.75726286      1.19970383     19.13796253
H       8.92621536      9.28906185     20.21433063
O       0.62549025      8.09838152     18.40153469
O       0.06105659      6.13856201     20.27478104
H       5.87117405      1.40875146     20.17716015
H       9.09264030      9.24766002     21.80900764
H       7.82608240      7.72678061     21.66317180
H       2.39481326      3.31532736     21.88589362
H       0.68790570      5.34658158     20.25044841
O       7.39879959      6.78731200     21.76993269
H       0.48640185      7.33743203     19.12266774
H       5.58053771      7.14162379     22.39056147
H       7.93032995      6.51472439     22.52111092
O       2.49350373      3.20893046     22.86697120
O      10.45064366      9.44162583     23.24814460
O       4.72509231      7.53641738     22.77377552
O       7.06979027      1.94171676     24.53301361
H       8.68196695      3.34357869     22.24738864
H       1.59208788      2.85315709     23.23494224
H       4.03435457      6.84636566     22.88813167
H      -0.01762401      8.65894227     23.22334324
H       6.32593294      2.39784089     24.15093392
H       7.89199058      2.51939598     24.24530662
H       3.88858617      2.32322803     23.10701730
H      -0.25785344      0.67506830     23.35605445
H       2.55433684      4.75163623     23.68499537
O       0.45940217      7.15599619     22.87601612
H       1.20731411      6.64954657     23.25303381
O       2.61028411      5.72534393     23.86789873
O       4.67308259      1.72337583     23.16226644
O       8.84905400      3.42510515     23.39911098
O       0.12675331      2.29990204     23.83097028
O       9.15899927      6.01342078     23.88065445
H       7.68413677      0.07143414     24.30854199
H       5.30620753      8.57941934     23.96926029
H      10.46046909      2.81462269     23.68801277
H       9.09125510      6.23877103     24.84069829
H       0.34520625      6.88686095     21.94781068
H       8.95981418      4.43312610     23.61467836
H       5.36851676      0.55875211     24.21536275
H       9.29198253      9.28253701     24.18055214
H       5.07938447      1.66072605     22.27943743
H       2.72425599      5.96020104     24.75904726
O       8.34156930      9.07703599     24.60772062
O       5.73663966      9.29163694     24.52701803
H      11.45089480      2.44423568     24.81224283
H      10.11368827      6.34247025     23.65744878
Pt      2.76869778      9.14558357     26.84035922
Pt      5.46985721      9.03695066     26.66076315
Pt      8.28038875      9.08971300     -0.13048242
Pt     11.22036330      9.19153536     26.80456156
Pt      8.29533802      4.22776810      0.11408284
Pt      4.18266263      6.62580026      0.11479818
Pt      9.64105905      6.66479613      0.01790322
Pt      7.00969054      6.55522892     26.84739186
Pt     -0.05991150      4.31240317      0.01947926
Pt      1.27942381      6.69896478      0.08012615
Pt      9.80953383      1.98035708      0.06756710
Pt      6.96036252      1.79578026     26.81331890
Pt      2.70737517      4.24610362      0.18801619
Pt      5.48265266      4.25006404      0.04801246
Pt      1.39220928      1.98730787      0.16058334
Pt      4.07711002      1.79694866      0.01781289
H       8.86698308      2.34184040      9.49573219
O       3.69332027      5.44751320     19.01875107
H       3.12483062      5.22700726     18.24990984
H       3.68425848      6.41295992     19.23592560
O       6.92893954      0.09237036      9.25612362
H       9.22808668      8.21255789     10.10494739
