   243
 Tv_1:  11.152900   0.000000   0.000000 Tv_2:   0.000000   9.658700   0.000000 Tv_3:   0.000000   0.000000  26.829700
Pt      5.68536142      7.80055686      2.43223048
Pt      6.94527503      0.61583471      2.31879536
Pt     11.02907834      7.87471128      2.43216186
Pt      8.42852090      7.81822334      2.39966618
Pt      8.41463298      2.99792331      2.52697672
Pt      2.80467021      7.82823240      2.56065486
Pt      9.93885269      5.33580118      2.65216999
Pt      7.08004544      5.38306162      2.49322602
Pt      5.52542048      2.94707099      2.65787916
Pt      4.29694422      5.33111066      2.52021406
Pt      9.79493652      0.63758102      2.33059304
Pt      1.62211658      5.28029435      2.74024255
Pt      1.35102180      0.51759863      2.62595665
Pt      2.82674907      2.83911663      2.62329061
Pt      4.16073678      0.45010528      2.41378467
Pt      0.07392244      2.90771264      2.56986266
Pt      5.94237699      6.39549807      4.92458327
Pt      8.62061224      6.46604389      4.81165301
Pt      7.17665316      8.88978201      4.53350824
Pt      7.40339909      3.99521765      4.96253970
Pt      8.61849023      1.53785469      4.75119699
Pt      5.88606438      1.61264878      4.91765218
Pt     10.10948595      3.94276932      4.99076788
Pt     10.02763422      8.77427189      4.65970600
Pt      1.70784611      8.94784025      4.93158712
Pt      0.48212444      6.47326875      4.77811502
Pt      3.16890947      1.64775918      5.02092339
Pt      3.26566513      6.48088759      4.92910578
Pt      4.52344295      8.94775033      4.65140165
Pt      4.52158619      4.08690101      4.97785808
Pt      0.31058042      1.54834853      4.90660891
Pt      1.72771618      4.01561855      5.01612397
Pt      7.89132969      2.77991383      7.24720425
Pt     10.29642935      7.55838323      7.14103135
Pt      8.88058832      5.18141032      7.28938055
Pt      9.18201884      0.37277639      7.13897241
Pt      6.55909960      0.37929698      7.18016332
Pt      3.53545825      5.13625266      7.30762003
Pt      3.79848261      0.35857745      7.25437978
Pt      7.59532494      7.71581109      7.06279512
Pt      5.07132492      2.73324186      7.30893467
Pt      2.23282968      2.62715891      7.31679378
Pt      0.62886290      4.93692125      7.32891200
Pt     10.58681702      2.59591788      7.27108831
Pt      6.17866650      5.26736112      7.33903322
Pt      0.87219399      9.88594123      7.34550649
Pt      1.97711465      7.40442479      7.08931929
Pt      4.98137223      7.58597328      7.11553340
O       6.09959292      5.11785373      9.44491644
O       2.24577949      7.37811559      9.51716176
O       0.29927154      5.40031804      9.37714157
H       5.52485283      3.64556237      9.63128258
H       8.06771593      5.80183724      9.68499711
O       0.51077356      0.16075770      9.42984733
H       1.54339039      7.55443907     10.13167794
O      10.32614096      2.52137844      9.32108429
H      10.68639712      1.62640985      9.55925957
H      11.24996299      4.73915228     10.06459954
H       7.26928428      2.22703715      9.64562402
H       2.46806544      3.62798059      9.45831881
H       1.03063487      2.96470434      9.46768101
C       7.10393165      5.83381752     10.22402248
H       2.61154395      6.44870654      9.71313051
O       7.85901206      2.99719498      9.43174231
H       7.39848153      9.46289162      9.88415858
H       7.27414376      5.28513412     11.15584156
O       5.26138135      2.72840714      9.35009468
O       1.98832397      2.74538972      9.38567401
H       1.18708958      0.62412572      9.97302234
H      10.94553064      8.42371715      9.52386679
O      10.43046782      7.59835641      9.24650698
H       4.60387525      2.26533838     10.09060469
O       7.20619782     -0.77348498     13.06431566
O       3.29736442      5.07902142      9.39071264
H       6.92880283      6.88735665     10.30161842
H       6.99374236      8.65237267     16.07318764
H       7.27583702     -1.33761273     13.86550905
H      11.04071609      6.45542254      9.48292748
H       8.16681457      8.59207756     11.70687342
H       6.23279973     -0.96642941     12.82487952
O       8.54232189      8.80997784     10.78054556
O       6.62669306      7.85352296     15.76007799
H       4.27978813      5.23592366      9.64275754
H       7.22981563      0.91016345     13.53378169
H       7.41391732      7.30815685     15.75847420
H       9.30978805      5.66974860     12.79970983
H       1.39703460      8.12898963     12.44202036
H       6.49065851      2.25372195     14.01933505
O       0.81873088      7.38223155     12.11611375
O       9.28044148      6.59896502     13.06358019
O       7.36378773      1.87422200     13.71056064
Cl      4.34674679      8.11868308     12.07527023
H       3.15741844      1.38713278     11.33290422
O       9.10437265      4.02320472     12.60927945
H       8.73133843      3.18098307     12.71700534
Cl      1.00968297      4.02919435     12.11547580
O       5.31483933      3.44187913     14.66464829
H       1.23826758      6.53193858     12.31133778
O       4.14362199      1.62090164     11.35620202
H      10.09944591      3.77752893     12.65890300
H       5.21500249      4.17567645     13.96811315
H       4.39177466      3.07071348     14.80118403
H      10.10147114      6.95352658     12.68320679
H       2.33256437      3.83422054     13.82487351
O       4.50853847      5.06472435     12.76500558
H       4.61896344      6.04078977     12.80208510
H       3.79066991      8.25285342      9.35433730
H       4.60528647      0.82283657     11.73821130
H       4.80109063      7.62265618     16.00533673
H       1.22824336      1.64505243     17.22661623
H       3.79531723      4.91936744     12.14573953
H       8.75803600      2.04921221     14.75316402
H       3.51124145      7.03241413     16.53200265
O       2.56058742      3.59899234     14.76276297
H       1.77320707      3.04669250     15.03704916
O       1.54971035      1.53155582     18.22696935
O       4.58929268      8.68108946      8.97454458
O       3.86361561      7.86981198     16.20819035
H       0.73568419      1.21837745     18.74614493
H       1.01288865      8.84914364     15.13050490
O       9.25746545      2.01480664     15.62772846
O       0.73982868      1.88712897     15.67959574
O       1.62707490      9.47201255     14.64119340
H      -0.22898138      1.83772719     15.58883124
H       8.71380789      3.36863969     16.48753181
O       8.44994190      4.26329978     16.96236515
H       5.80009402      9.55909208      9.61896038
H       8.83570160      1.28589508     16.14296199
H       3.78185694      9.07183346     17.54172616
H       2.94266007      0.48661487     18.16220808
H       1.13734827      1.07380913     15.23864824
H       7.43684455      4.26238536     17.01042396
H       8.96102829      5.86867132     16.21441639
O       3.81883535      0.11152123     18.26986467
H       2.55715196      9.11451972     14.72548470
H       5.63541769      3.69370544     16.13356488
H       5.27957560      1.21120180     17.99207518
O       9.04426718      6.70544919     15.68962988
O       6.08173514      1.57878507     18.38151689
O       1.58140889      1.03559564     11.97311945
H       9.09196220      6.53267790     14.66982122
O       5.88494860      3.83715756     17.09386419
H       1.46857248      2.00693291     12.10271642
H       6.12305766      2.52959118     18.11184661
H       1.68644163     10.39911370     12.93066355
H       7.44256845      0.80108095     17.80586551
H      -0.67592562      7.42391019     16.03515370
H       3.71870147      8.44368352     19.59177105
O       8.17220527      0.26446938     17.40028286
H       5.35070768      4.55632674     17.46415216
O       0.16495686      7.89548596     16.19858123
O       3.25166909      7.77184167     20.13493013
H       3.83457871      7.64790274     20.90258740
H       8.84348548      0.24425630     18.04932079
O       9.19310134      1.67804690     21.19093311
H       0.12324341      8.27216121     17.11202032
H       2.04884821      2.98683209     19.43741340
H       1.30478403      6.19727204     16.45891908
O       9.42808180      3.71536164     19.52127756
H       9.36158418      2.44065707     20.52134706
H       3.18729785      4.26147433     19.74900516
O       2.41857308      3.66373137     20.14355209
H       9.00165842      4.41317869     20.14754259
H       7.13307545     -0.07599304     20.52797428
H       2.03687622      4.86318831     15.91122335
H       9.08581873      3.94713525     18.58621369
H       8.24097185      1.37105950     20.99860987
O       2.01797445      5.55374959     16.64285425
O      10.32464405      0.11042973     19.23084275
O       6.70458960      0.80251271     20.76674584
H       1.46888372      7.56896153     19.79961580
H      -0.29818433      4.71612901     20.95764194
H      10.81201399      8.90857473     19.42347213
O       8.00219542      8.12349180     20.81607273
H      10.05303998      0.50893092     20.10824507
H       8.66639189      8.02509852     20.12460156
O       0.49517586      7.57173241     19.84711007
O       0.53489320      5.07266076     21.35688868
H       6.47387726      1.28115154     19.86803148
H       8.52605188      8.32948495     21.66806393
H       7.75873214      6.27111922     21.31666531
H       2.80847532      2.89342977     21.52478895
H       1.24297110      4.57045937     20.85316350
O       7.41412416      5.43429749     21.61618001
H       0.38729179      6.63042582     20.03119664
H       5.74947348      6.34360282     22.00871305
H       7.86501082      5.24838469     22.43617252
O       2.96385148      2.45247729     22.41572170
O      11.02740755      8.99593576     24.51703004
O       4.96104005      6.67571680     22.49360690
O       6.83559999      2.18965263     24.62267753
H       9.53534615      2.11834951     22.89361905
H       2.08671624      2.08017380     22.70124432
H       4.51560569      5.90480743     22.95438318
H       0.33952592      8.14431333     24.47661058
H       6.18438189      1.70303308     24.04150027
H       7.72018783      2.02970343     24.27778795
H       4.40225760      1.55711835     22.77271183
H       0.56653172      0.04263161     24.35010129
H       3.43385770      3.95998948     23.49640385
O       0.96619761      6.60058142     23.90188758
H       1.64848009      5.94432918     24.00870336
O       3.52636355      4.89462783     23.86587878
O       5.22158966      0.97136358     22.86793767
O       9.60622352      2.39330021     23.87928147
O       0.96370195      1.55653047     23.83484454
O       9.41051150      5.36773455     23.80450171
H       7.82487569     -1.02635040     23.89105040
H       5.47447889      7.84697508     23.78789925
H      11.20492383      1.90074813     23.79221038
H       8.94187199      5.41683084     24.64489746
H       0.77518806      6.44644875     22.95238463
H       9.61646760      3.39877737     23.82278822
H       5.38357590     -0.21218261     23.88701756
H       9.34630542      8.98495292     23.81240089
H       5.78153098      0.92388414     22.04462357
H       3.59568086      4.74835630     24.80278309
O       8.51266351      9.09793081     23.31953307
O       5.82860662      8.57717675     24.38190518
H      12.42994805      1.81597754     24.79105902
H      10.32076382      5.61343558     24.04294554
Pt      2.61637537      9.00991673     27.03527082
Pt      5.44227133      8.92145863     26.69753809
Pt      8.18443399      9.09058229     -0.05948612
Pt     10.98555374      9.12630150     26.80189378
Pt      8.15698863      4.30221782      0.11909704
Pt      4.08846657      6.64063172      0.22404524
Pt      9.67319798      6.63948623      0.25717071
Pt      6.82577989      6.70161207     27.12279291
Pt     -0.09357336      4.33151816      0.19121453
Pt      1.21707951      6.71598795      0.40169007
Pt      9.56138298      1.80499011     -0.05772448
Pt      6.78093253      1.76877537     26.72521493
Pt      2.63437245      4.31907129      0.31385033
Pt      5.43900626      4.15306527      0.09938946
Pt      1.28738720      1.94332422      0.13365800
Pt      3.96560083      1.92067432      0.10456895
H       8.90740280      2.67367929      9.72003228
O       3.90277741      5.39472826     18.72106728
H       3.17226237      5.52426793     18.09175536
H       3.97314352      6.28464666     19.15153697
O       6.71559901      0.33780890      9.43413287
H       9.06479792      8.07718987     10.35138073
