   243
 Tv_1:  11.152900   0.000000   0.000000 Tv_2:   0.000000   9.658700   0.000000 Tv_3:   0.000000   0.000000  26.829700
Pt      5.88899584      8.10258619      2.33102477
Pt      7.21797466      0.79767474      2.30490510
Pt     11.51181257      8.06025097      2.44472781
Pt      8.71216037      7.98191286      2.37527176
Pt      8.75291358      3.21901005      2.21789883
Pt      3.05438467      8.10359806      2.38593268
Pt     10.11910127      5.57855552      2.24587987
Pt      7.44382144      5.54800784      2.26789230
Pt      5.83178851      3.14987914      2.27643685
Pt      4.62351033      5.58586953      2.40236569
Pt      9.91679859      0.82760120      2.39371740
Pt      1.83348585      5.66349688      2.32670192
Pt      1.67653942      0.87632212      2.42693820
Pt      3.18329982      3.18421395      2.31000758
Pt      4.56219363      0.75158363      2.33006246
Pt      0.41410265      3.23950403      2.32257811
Pt      6.05437468      6.66767788      4.62775216
Pt      8.73167769      6.62213814      4.63727283
Pt      7.33546949      8.98491158      4.61833105
Pt      7.23982635      4.13317651      4.44736494
Pt      8.38433987      1.81437931      4.60276487
Pt      5.64182838      1.73734627      4.79361650
Pt     10.04452508      4.23100518      4.65452668
Pt     10.07336313      9.05777116      4.60579910
Pt      1.59575213      9.00546083      4.79998377
Pt      0.17559745      6.54423460      4.70542962
Pt      2.91303015      1.80807706      4.76274579
Pt      3.33509715      6.52992517      4.61710854
Pt      4.38751787      9.01467738      4.75680393
Pt      4.39660708      4.10660892      4.62789546
Pt     -0.03090109      1.89839170      4.65781251
Pt      1.66051680      4.19022201      4.62780167
Pt      7.51424110      1.90919891      7.10795368
Pt      8.76179961      6.59287879      7.22776730
Pt      7.27504167      4.46443747      7.02334615
Pt      8.87949859     -0.48481778      7.03481886
Pt      6.08270599     -0.36743131      7.09543123
Pt      1.72446130      4.23231926      7.12842091
Pt      3.14047295     -0.59846237      7.09803490
Pt      6.01668026      6.75505726      7.16606052
Pt      4.60593309      1.81775501      7.17640255
Pt      1.73309883      1.68851531      7.11298206
Pt     -1.01743842      4.20122673      7.19663672
Pt     10.23838313      1.77271030      7.12407460
Pt      4.55805388      4.33969162      7.11093394
Pt      0.41844035      9.05863980      7.20298757
Pt      0.42331917      6.51586605      7.24486768
Pt      3.27932729      6.56681142      7.15942754
O       4.69581034      4.56315296      9.28570262
O       1.00912752      6.41235994      9.35708209
O      -1.36635326      4.36174024      9.30302264
H       4.61454830      3.09971611      9.37704457
H       6.64667305      5.05677415      9.80285689
O      -0.35869755     -0.94373462      9.37596554
H       0.22948336      6.32251153      9.95020882
O      10.08313872      1.73886816      9.16941382
H      10.04167581      0.77564914      9.41212283
H       9.74412121      3.78287920     10.07991629
H       6.76200099      1.35709855      9.51154134
H       1.69601025      3.00835263      9.42990345
H       0.52089789      1.84219694      9.30292249
C       5.62693340      5.48759451      9.89162801
H       1.53007012      5.41895967      9.52724360
O       7.32178296      2.09923446      9.29839975
H       6.78364344      8.48513981     10.38927505
H       5.39759176      5.61859663     10.98228536
O       4.54315287      2.09301335      9.19302740
O       1.49771879      1.87424703      9.29359733
H       0.39919750     -0.85607615     10.08815359
H      10.18824945      7.89600709      9.50750346
O       9.13541541      6.72607183      9.40864829
H       3.92145422      1.62599684      9.83897522
O       6.91369751     -0.31030606     13.45208356
O       2.16638595      4.26764215      9.24855745
H       5.62274097      6.48555044      9.47688255
H       7.87036682      9.08259008     16.40545373
H       7.08868582     -0.78234036     14.36453418
H       9.44436162      5.38644489      9.47068381
H       7.36509038      8.10762381     11.88343048
H       5.95871538     -0.38814565     13.28626087
O       7.30121657      7.83514343     10.93989604
O       7.32585704      8.45079097     15.90746800
H       3.14228932      4.46426716      9.37724253
H       7.30913726      1.37022416     13.30793513
H       7.98592734      7.65316074     15.62636492
H       8.72296723      5.14528947     12.53984495
H       0.30552545      7.69444377     13.01680360
H       6.71515416      2.91615632     13.49524961
O       0.06469064      7.08086216     12.23959063
O       8.59529571      6.04721316     12.90841605
O       7.54599309      2.33149295     13.47613416
Cl      3.56278648      9.21891291     13.42012861
H       2.68777875      2.54595687     11.79804069
O       9.65642867      3.39311979     11.80639059
H       9.14445954      2.75752941     12.30896638
Cl      1.33724670      4.11609197     12.40687856
O       5.12744798      3.73093909     14.40665283
H       0.54547030      6.19788545     12.29379310
O       3.53192433      2.09987516     11.53593211
H      10.55145914      3.59640924     12.17645696
H       4.68383480      4.55311092     14.06774839
H       4.33854109      3.16721342     14.53260564
H       9.52709844      6.39265200     12.67587861
H       2.05937195      3.45951674     14.17530413
O       3.67944725      6.05504685     13.78688650
H       3.69866525      6.99993778     13.53166172
H       2.88454666      8.66570639      9.62862044
H       3.74111544      1.42927875     12.20807387
H       5.77657761      7.80288261     16.15898670
H       0.73294782      1.86845253     17.81964271
H       3.10622680      5.60163571     13.14112918
H       8.47433844      2.53744930     14.75759972
H       4.49426754      6.99617064     15.48254394
O       2.59968333      3.05443068     14.90842020
H       1.96813432      2.21383574     15.24559027
O       1.03585910      2.41367914     18.58279056
O       3.57090243      9.07078980      9.06685463
O       4.83449638      7.45419222     16.30470700
H       1.29421230      3.25658526     17.99745634
H       0.80144923      8.04939816     15.15523438
O       9.21612456      2.32931018     15.49530156
O       0.74388157      1.37319994     15.93855512
O       0.72888121      8.77701628     14.47020274
H      -0.03179788      1.84820710     15.64184080
H       8.94260739      3.70884991     16.59077587
O       8.50339016      4.48484743     17.00741027
H       5.23015836      9.14498331      9.36205436
H       8.83093272      1.67464593     16.12218841
H       4.12417855      9.15495046     16.74679457
H       4.15428966      0.83613615     15.95435596
H       0.55524473      0.50510653     15.43152309
H       7.55626782      4.38095536     17.22389814
H       8.56831178      5.72048532     16.04248018
O       3.90189196      0.50346663     16.79951331
H       1.67024266      9.08657803     14.21123835
H       5.72302785      3.88217009     16.03932071
H       5.03334438      1.09212152     18.25143521
O       8.85903181      6.45718855     15.32049847
O       5.78415129      1.56739958     18.71299343
O       1.59554706     -0.15747032     10.81225144
H       8.65933792      6.09412061     14.45603449
O       5.92356623      3.75356161     17.01807136
H       1.79573353      0.72491002     10.34305125
H       5.88988481      2.36309598     18.16568860
H       1.98997231      9.50825352     11.74368967
H       7.48167766      0.79918794     17.95310402
H      -0.57807893      6.59063566     16.00797398
H       4.20496560      7.18872232     19.75499312
O       8.36075789      0.56007968     17.53680734
H       5.39736612      4.46532808     17.44398219
O       0.38065968      6.82842254     16.16643839
O       3.83546000      8.06850344     19.83518984
H       3.98839729      8.23312542     20.83638015
H       8.97692621      0.28256169     18.24796384
O       9.17328428      2.41630299     20.60210362
H       0.52355701      7.07491631     17.11575707
H       2.39482406      2.62311953     19.78785676
H       1.24995639      4.92482275     16.60268272
O       9.94126331      4.83855286     19.33525368
H       9.40059844      3.14055664     19.92672262
H       3.83733284      3.28076925     19.84594207
O       2.95093489      3.29580182     20.31758067
H       9.30295669      5.24787091     19.98160367
H       7.53836197      0.21939224     21.14998573
H       2.46060694      3.96281968     16.13916681
H       9.56321132      4.73730669     18.42530517
H       8.22953629      2.28508915     20.63954208
O       1.94645888      4.32107997     16.99046836
O      10.41710667      0.05596791     19.46512537
O       6.92085070      0.99127642     21.02512057
H       1.77424753      9.14215907     17.88055691
H       0.42751334      5.43730545     19.74630845
H      11.36752311      9.47186349     19.24695218
O       8.82772300      8.40844925     21.26612090
H      10.44828078      0.91096422     19.94178652
H       9.44886704      8.73641462     20.57676381
O       1.36076582      8.46019172     18.51522699
O       1.33238664      5.78549153     20.14360149
H       6.55356069      1.15353347     20.07801766
H       9.35223234      8.46715781     22.07181840
H       8.38343729      6.82808498     21.36171201
H       2.94427637      2.89140056     21.88329579
H       1.94176783      5.03274997     20.05630638
O       8.28500280      5.83761444     21.45373667
H       2.14022324      8.12796864     18.98226098
H       5.30558193      7.04709503     22.48752618
H       8.60644509      5.62730121     22.34874396
O       3.11744765      2.84252109     22.86679877
O      10.69190132      8.65745048     23.24488571
O       4.47471493      7.36156939     22.75205317
O       7.40585335      2.74115623     24.64071419
H       9.65764820      2.56687575     22.28385026
H       2.41183724      2.15879778     23.18561150
H       3.98743587      6.57218467     23.09231116
H       0.04106993      7.87445442     22.93260673
H       6.62387111      2.41739378     24.16422502
H       8.24245590      2.17402780     24.43419347
H       4.56796671      2.37444183     23.10521147
H       0.11287149     -0.23510790     23.15528370
H       3.12745819      4.36633364     23.47500057
O       0.97446870      6.49343002     22.57109988
H       1.76354980      6.16992528     23.11227492
O       3.01203045      5.35996562     23.71464619
O       5.51389800      1.94019509     23.22443720
O       9.95306556      2.63507918     23.23333135
O       1.05452170      1.19130688     23.54989196
O       9.88163254      5.44337370     23.58657272
H       7.78234642     -0.07787879     24.36119053
H       5.52245159      8.61581492     24.02120130
H      11.38529370      1.78338200     23.29189251
H      10.03860645      5.93591972     24.46440163
H       1.11065187      6.14606485     21.59507007
H      10.00236074      3.63719469     23.32580169
H       5.60056602      0.57411717     24.11777736
H       9.43629634      9.36022786     23.99635174
H       5.88323202      1.56200422     22.33768766
H       2.61125645      5.35846113     24.57304216
O       8.71537256      9.85808252     24.52973926
O       6.02007510      9.33079361     24.55017895
H      12.21082679      1.19726091     24.61197346
H      10.73981229      5.67915502     23.09620702
Pt      3.19101330      9.40432290     26.75313636
Pt      5.93259674      9.41037746     26.75998469
Pt      8.81133638      9.47172078     -0.06916457
Pt     11.58070247      9.49522698     26.83516554
Pt      8.83597760      4.60469549     -0.21539184
Pt      4.49202156      6.99579747      0.09786386
Pt     10.15906267      7.10016565     -0.05766724
Pt      7.46433371      7.11025360     26.88434558
Pt      0.42417291      4.61516571     -0.02176547
Pt      1.68510435      7.07930124     -0.08252727
Pt     10.17461753      2.20074751      0.01712910
Pt      7.31067329      2.29623622     26.84421518
Pt      3.22683618      4.62231945      0.04292844
Pt      5.97688003      4.72539349      0.07787663
Pt      1.75235697      2.18823051     -0.08946564
Pt      4.56509139      2.29941912     -0.10679114
H       8.24512621      1.89351641      9.53786627
O       4.26597169      5.67194206     18.28748204
H       3.46819129      5.29061189     17.90759945
H       4.51905831      6.44414922     17.69868263
O       6.18274061     -0.27092833      9.06757069
H       8.45384329      7.19157034      9.96581458
