   243
 Tv_1:  11.152900   0.000000   0.000000 Tv_2:   0.000000   9.658700   0.000000 Tv_3:   0.000000   0.000000  26.829700
Pt      5.49659535      7.61620764      2.43756897
Pt      6.86867044      0.47130068      2.22440304
Pt     11.04827118      7.58433361      2.33004308
Pt      8.27856371      7.68809404      2.36719603
Pt      8.43710482      2.74629805      2.43914557
Pt      2.59196906      7.52027745      2.55474422
Pt      9.68719675      5.18229315      2.41926460
Pt      6.96053597      5.27865757      2.49560824
Pt      5.57943355      2.84140441      2.40701274
Pt      4.15045749      5.15629508      2.53209490
Pt      9.61336663      0.34796485      2.31735895
Pt      1.30672816      5.16976761      2.53723488
Pt      1.30852489      0.25119745      2.53029883
Pt      2.64995591      2.69660328      2.49148320
Pt      4.17323713      0.41212833      2.43091746
Pt      0.00091157      2.61899124      2.39028306
Pt      5.90994342      6.33613861      4.77652675
Pt      8.61012535      6.22083905      4.73460116
Pt      7.28341584      8.76171998      4.70470828
Pt      7.13493112      3.80801002      4.64720468
Pt      8.63550805      1.42346583      4.74178669
Pt      5.79760540      1.42564195      4.77399870
Pt     10.01718537      3.75449157      4.69027356
Pt     10.11607859      8.56966879      4.64732617
Pt      1.82106906      8.54931838      4.93701514
Pt      0.25652343      6.22140452      4.77310265
Pt      3.02704856      1.39740079      4.81873569
Pt      3.10606816      6.17203747      4.87973951
Pt      4.50347633      8.74514421      4.80530294
Pt      4.39118100      3.80183703      4.85398870
Pt      0.24307544      1.26720856      4.75938838
Pt      1.57772495      3.76946315      4.88321725
Pt      7.65033413      2.65019168      7.03324984
Pt     10.73563284      7.42810599      7.18736625
Pt      9.14805960      5.06276044      7.04800108
Pt      9.13999999      0.09044447      7.06366357
Pt      6.56215915      0.10438864      7.16798580
Pt      3.65553217      5.00370384      7.21018971
Pt      3.73561133      0.16230229      7.27686667
Pt      7.88618939      7.36774638      7.10136880
Pt      4.97531958      2.60780587      7.22345829
Pt      2.22750078      2.57245864      7.28262423
Pt      0.65257476      4.97414373      7.18121647
Pt     10.58122643      2.55026046      7.10433035
Pt      6.46980335      5.05217456      7.11968712
Pt      0.83224442      9.82909457      7.19102836
Pt      2.44637921      7.48747815      7.36485574
Pt      5.13853708      7.54255299      7.18361944
O       6.39043767      5.20433953      9.60758982
O       2.48835882      7.11907017      9.50399887
O       0.34194128      4.97992422      9.30614885
H       5.52399625      2.81500373     10.09117925
H       8.78674456      5.16867276      8.67413689
O       0.70121167      0.36956310      9.42289205
H       1.52777188      6.90348943      9.59455618
O      10.30402353      2.57683869      9.13696880
H      10.77889778      1.80304628      9.54749313
H      10.93724022      4.14693286      9.33704321
H       7.42947836      1.77783894      9.50396559
H       3.18959818      3.40094687      9.61109483
H       1.68709319      3.71328076      9.94431004
C       7.63603339      5.59192811      9.80674632
H       2.91213177      6.27277617      9.76315859
O       7.89879365      2.64428882      9.14618798
H       8.03777390      9.07195101     10.12321546
H       8.29616926      5.06130594     10.42532987
O       4.83260251      2.44530343      9.45683294
O       2.20623654      2.98464411      9.61382521
H       1.62499602      0.63516982      9.82859398
H      11.78423709      9.09300098      9.71953658
O      10.73264528      7.38512829      9.37461041
H       4.37414443      1.49117523      9.60148500
O       6.27860701      0.95447189     13.48761321
O       3.82963794      4.88941402      9.17323232
H       7.88554760      6.70258797      9.60949648
H       7.59005399      9.07671113     17.64752589
H       5.89705806      0.69301354     14.37885382
H      10.96665371      5.70803387      9.64446267
H       8.70283509      8.82166873     11.48112838
H       5.95790824      0.25058845     12.81008852
O       8.81403993      8.55901655     10.50209872
O       7.25021195      8.28756409     17.18960586
H       4.71582164      5.28906562      9.43045655
H       7.46292681      2.31026215     13.75200358
H       8.08617375      7.88951155     16.72953670
H       9.55406112      6.79270419     12.83372808
H       1.73808577      8.74856547     12.35893268
H       7.14710150      3.77409277     14.21936752
O       1.01219163      8.17256398     12.02095774
O       9.85869905      7.54805741     13.39577083
O       7.91067280      3.19339297     13.97143288
Cl      5.11939917      8.49843689     11.44871235
H       5.64416929      3.92340528     11.70075191
O       9.43162777      5.01079236     12.20374299
H       8.96306126      4.33100229     12.78542560
Cl      1.85290986      5.00992928     12.12435686
O       5.58562179      4.36811633     14.87086433
H       1.46941391      7.31616138     11.76482674
O       6.05348956      3.11107372     11.65961626
H      10.38978991      4.84283078     12.29211042
H       5.36546639      4.93777920     14.07224582
H       4.70630020      3.98604308     15.12300613
H      10.79970674      7.76847798     13.10444530
H       2.62542215      4.34143018     14.02285597
O       4.78258967      5.47021407     12.48412340
H       4.83228497      6.47033900     12.35368085
H       3.85168299      9.17025829      9.85445897
H       5.75735388      2.47936920     12.43870746
H       5.99345342      9.19253090     16.46339563
H       1.68395118      2.99060298     17.68302159
H       3.81897751      5.28745758     12.23855115
H       8.82310233      3.12932423     15.34976777
H       4.45351264      9.66092977     15.95288405
O       2.77850515      4.12443373     14.98070787
H       1.95279758      3.66089968     15.27692195
O       2.20773020      3.63579010     18.23467890
O       3.44806930      9.94565478      9.33813074
O       5.42018990      9.90821759     16.01517392
H       2.45421982      4.50125757     17.69152459
H       1.99455585      9.19199078     15.39273788
O       9.33598992      2.88450434     16.14714655
O       0.90619440      2.54227622     16.05946667
O       2.68127831      9.84641144     15.13802910
H      -0.09132630      2.54945304     16.09769304
H       9.16416230      4.26824866     16.90607740
O       8.97180945      5.08644926     17.39074088
H       6.12637294      9.50637113      9.79950117
H       8.86011676      2.17372251     16.71206508
H       4.84801498     10.76012134     17.37279989
H       3.83325781      2.29665679     18.07505491
H       1.26821652      1.81464300     15.58642424
H       7.97166246      5.21933498     17.36739070
H       9.61320979      6.43472309     16.32345895
O       4.59335819      1.67582409     18.20417143
H       2.88291719      9.90050257     14.15686976
H       5.76698843      5.19384320     16.82330629
H       5.78952348      2.36813369     18.62441749
O       9.75779772      7.28622225     15.92298168
O       6.55764845      2.91467401     19.22109572
O       2.94831783      0.80589623     12.61068382
H       9.85343365      7.20610366     14.92944765
O       6.25882287      5.15529124     17.65766378
H       2.75737906      1.73740164     12.54918527
H       6.62599380      3.78329876     18.73300435
H       3.67936711     10.20688448     12.02456203
H       7.59538466      1.85863521     18.49543149
H       0.20598038      7.94806103     16.22467966
H       4.71925199      9.74444445     20.44149527
O       8.06770195      1.12781774     17.98190917
H       5.89699448      5.91123590     18.20931580
O       1.16931246      8.10020115     16.50912250
O       3.90084173      9.12372541     20.41903836
H       3.89572220      8.72589678     21.28763554
H       8.94165451      1.05153980     18.55399397
O       8.91087421      3.20691347     20.73672432
H       1.21909883      8.62439005     17.28480608
H       2.98669580      4.25133113     19.62454568
H       2.32974768      6.52936435     16.83997300
O       9.62712466      5.53532937     19.98104382
H       9.08072558      4.22462405     20.44658189
H       3.94486189      5.43773676     20.31904544
O       3.11749639      4.84125459     20.41628142
H       9.16453600      6.35328450     20.31710804
H       6.87181184      0.56896409     21.37057656
H       2.83611970      5.39114441     15.96263276
H       9.56526693      5.59768680     18.99911731
H       8.18282460      2.94051110     20.11642103
O       2.94737817      5.76478899     16.85447241
O      10.00437255      0.86818518     19.81695406
O       5.90415626      0.92258822     21.23836419
H       2.13015417      9.30391543     19.72310671
H       0.18647068      5.98275321     20.14026518
H      10.84839337      9.98770762     19.57051795
O       8.33206828      9.39478646     21.55014356
H      10.29316029      1.60974518     20.37475713
H       8.92866880      9.69800022     20.75400279
O       1.28456424      9.02284024     19.30533446
O       0.96959907      6.55374106     20.32384506
H       5.99250926      1.67721702     20.52676615
H       8.91336947      9.54769716     22.31819114
H       7.41432066      7.75845457     21.66330014
H       2.88597163      3.94148390     22.00271255
H       1.74619283      5.96541244     20.39946462
O       7.10750519      6.80380160     21.65749004
H       1.18153159      8.08194889     19.58415655
H       5.49478962      7.15657092     22.32755588
H       7.59848971      6.42357687     22.44343199
O       2.67866029      3.66407191     22.92812490
O      10.43039497      9.61910301     23.35305759
O       4.70286392      7.38894174     22.90741900
O       7.02360356      1.99297856     24.45411003
H       8.61279089      3.13349449     22.06750151
H       1.72080081      3.47410831     23.06274750
H       4.18312712      6.63583449     23.35640809
H      -0.05917196      8.81212171     23.31770162
H       6.15423761      2.18922602     24.01962795
H       7.73071908      2.62784087     24.10593054
H       3.82183920      2.36978580     23.12996600
H      -0.20596250      0.86314867     23.41142878
H       2.65301845      5.22230869     23.75081521
O       0.15802379      6.85896270     22.93181215
H       0.84873769      6.51726060     23.57250393
O       2.74978853      6.15379304     24.13622873
O       4.64614597      1.83443500     23.47692501
O       8.80324033      3.32462706     23.18909729
O       0.11108002      2.37239220     23.62950611
O       8.83629353      6.14813211     23.81492896
H       7.56683529      0.19043493     24.55439300
H       5.05867344      8.44834677     23.99446374
H      10.28664686      2.68200571     23.38483574
H       8.39424598      6.83206507     24.36154370
H       0.47720704      6.93244681     22.00874819
H       8.75150855      4.29757992     23.44643645
H       4.72635331      0.22183841     24.47071888
H       9.10183447      9.50548958     24.32912898
H       5.06098133      1.47270369     22.67020468
H       2.81067287      6.00529095     25.15158541
O       8.23338840      9.12327605     24.67441683
O       5.30964402      9.13877120     24.72271778
H      11.23435688      2.19683847     24.61532856
H       9.75786398      6.51494186     23.52279918
Pt      2.72097037      8.96124563     26.88436045
Pt      5.46524761      8.83603178     26.90495653
Pt      8.33137745      8.74624995      0.01063432
Pt     11.15022219      8.89860507     26.82052079
Pt      8.06939013      4.14711880      0.14995270
Pt      3.99208759      6.56532275      0.15816556
Pt      9.57262560      6.38554584      0.01417507
Pt      6.67574095      6.37747570     26.91459913
Pt     -0.18086170      4.16578642      0.04689858
Pt      1.32108724      6.47131329      0.17483935
Pt      9.70778779      1.75721079     -0.00507482
Pt      6.87700618      1.77418624     26.71871125
Pt      2.62242654      4.09968038      0.04961971
Pt      5.35409113      4.21609578      0.02945527
Pt      1.29976076      1.73278209      0.05742530
Pt      3.96818120      1.80990999      0.20009780
H       9.02238429      2.52603536      9.24150235
O       4.53414958      6.68753592     18.83804399
H       3.96309372      6.67867190     18.02916255
H       4.45663047      7.56614128     19.25023049
O       6.82337054      0.22856303      9.25457340
H       9.92810824      7.87736663      9.74226600
