   243
 Tv_1:  11.152900   0.000000   0.000000 Tv_2:   0.000000   9.658700   0.000000 Tv_3:   0.000000   0.000000  26.829700
Pt      5.42336882      7.78886432      2.53698561
Pt      6.93884095      0.44954023      2.35663160
Pt     11.15305416      7.66395154      2.47096734
Pt      8.33378443      7.78723929      2.43285216
Pt      8.25814145      2.85582548      2.41170549
Pt      2.70180588      7.65336681      2.43203816
Pt      9.76163355      5.20282444      2.42474985
Pt      6.97834965      5.35795719      2.67965097
Pt      5.49203807      2.86566114      2.50300599
Pt      4.17428854      5.29780206      2.45325722
Pt      9.76800431      0.48808617      2.35674845
Pt      1.38669903      5.28845541      2.42476066
Pt      1.37058435      0.48273429      2.45108579
Pt      2.82448468      2.88166619      2.45757662
Pt      4.17039038      0.49507414      2.39556854
Pt      0.14672319      2.89598648      2.42683274
Pt      5.86105352      6.44000057      4.87445164
Pt      8.71959352      6.24260142      4.85913816
Pt      7.25649679      8.82688120      4.71011405
Pt      7.39388328      3.84098717      4.83882831
Pt      8.84001411      1.49249025      4.79104816
Pt      6.00007236      1.44612482      4.76915460
Pt     10.31996420      3.97311639      4.78834873
Pt     10.07519822      8.64685533      4.68813962
Pt      1.73861955      8.78209697      4.79566085
Pt      0.36313182      6.41396593      4.71613746
Pt      3.16970997      1.49155482      4.87457302
Pt      3.15457400      6.35144585      4.77360044
Pt      4.55673563      8.86466335      4.74582377
Pt      4.56647386      4.02882311      4.90376921
Pt      0.35842277      1.42662973      4.76207921
Pt      1.86989962      3.95708608      4.86287145
Pt      7.92389954      2.41926960      7.21757429
Pt     10.32591153      7.20720654      7.06209104
Pt      9.17666977      4.81774427      7.08084174
Pt      9.26739040      0.08953976      7.08526148
Pt      6.49347150      0.21571227      7.06911665
Pt      3.69953036      4.91293341      7.34778605
Pt      3.57854345      0.22624084      7.15180608
Pt      7.66101962      7.57316700      7.03712173
Pt      5.26553903      2.57269019      7.12729019
Pt      2.47700280      2.55848061      7.26951152
Pt      0.81249584      4.77453781      7.09663860
Pt     10.71634711      2.38771763      7.23408573
Pt      6.43065939      5.10170287      7.14714836
Pt      0.82516241      9.67678688      7.09697215
Pt      2.15385392      7.30956425      7.11869621
Pt      4.91382601      7.46386978      7.05566580
O       6.51410732      4.93500989      9.20581034
O       2.19488255      7.22656642      9.17844230
O       0.45247794      4.96754148      9.26809603
H       5.56871615      3.38293985      9.69513493
H       9.02786998      4.61441282      8.70899949
O       0.65303859     -0.04894523      9.15970358
H       1.34851648      7.34493556      9.70267241
O      10.42484630      2.24997433      9.35228662
H      10.78130254      1.31652493      9.57781979
H      11.00365898      4.23631394      9.60435496
H       7.46654867      1.53838595      9.62532465
H       2.44160880      3.46606443      9.84261626
H       1.17426144      2.54309724      9.78581329
C       7.59021081      5.30423469      9.82629926
H       2.85618486      5.91257414      9.51574070
O       8.05703938      2.31821537      9.33051268
H       7.27528661      9.02673450      9.69344275
H       7.90017655      4.83259637     10.83391837
O       5.20895889      2.55689589      9.28355232
O       2.15855113      2.54026211      9.55499559
H       1.60036026     -0.16495518      9.36683578
H      10.68568752      8.00187361      9.48283082
O      10.26520973      7.23515380      9.11137361
H       4.43407360      2.16136850      9.70345360
O       5.97589485      1.02271304     13.54608619
O       3.43613539      5.06782226      9.40935719
H       8.17093524      6.20121712      9.48458562
H       8.09908404      9.38058208     16.61011830
H       5.69977339      0.70989587     14.44739174
H      11.07468375      5.81461460      9.31991214
H       8.05852084      8.09462979     11.26955068
H       6.42698742      0.24805126     13.18511229
O       8.33078402      8.54175143     10.41726594
O       7.80782470      8.53842164     16.26054090
H       4.24730511      5.21665561     10.14391407
H       6.79227254      2.58077776     14.06969533
H       8.59708680      8.00409936     16.11188943
H       9.34482967      5.53097601     12.78207780
H       1.50866176      7.91713110     12.14774181
H       6.75860607      4.12582642     14.43633452
O       0.93132718      7.23848624     11.74849400
O       9.53450500      6.48402026     12.88884517
O       7.39784837      3.38152479     14.15345157
Cl      6.13829224      7.46252947     12.30139158
H       2.95729520      2.27425127     11.73340821
O       8.93687460      3.91224975     12.14703741
H       8.28059827      3.71116912     12.88432143
Cl      1.77598614      4.34236652     12.06548920
O       5.65493704      5.24951508     14.73182652
H       1.38314754      6.33262746     11.83825287
O       3.69671223      1.53115522     11.70987702
H       9.76879249      3.53804286     12.41952128
H       5.90249421      6.03635551     14.16736203
H       4.73346393      5.01447524     14.60050475
H      10.48780061      6.63345701     12.50210986
H       2.53891218      4.65611320     14.14720047
O       4.89427441      5.04157730     11.41174760
H       5.33151170      5.87270301     11.67893803
H       3.42389648      8.25493762      9.10834587
H       4.41973337      1.90475478     12.30451116
H       6.05415442      8.39472600     15.88367407
H       0.87248423      2.77475423     17.84909619
H       3.95380224      4.98189904     11.80629666
H       8.68957577      2.91919305     15.14213584
H       4.46592369      8.10342650     15.72456509
O       3.03560305      4.56990989     15.01517228
H       2.41218255      4.04307352     15.55271174
O       0.94684382      2.29593140     18.75633095
O       4.23193975      8.71505126      8.82847460
O       5.15619601      8.82595707     15.84021007
H       1.42943457      1.49927879     18.46055956
H       1.63980356     10.07448019     15.85743553
O       9.47694730      3.07379560     15.79640986
O       0.90558960      3.55524117     16.23428501
O       2.01758981     10.85534955     15.29330183
H      -0.02145169      3.62285863     15.86597824
H       8.90033161      4.35477155     16.69112818
O       8.82761413      5.25765849     17.11443610
H       5.59371269      9.27460563      9.22195897
H       9.14850601      2.44576084     16.51908638
H       4.52636662      9.88775428     16.91102558
H       3.21302314      1.17410713     16.59991791
H       1.24804664      2.68623229     15.83693497
H       7.81929252      5.43370445     17.21309137
H       9.66498875      6.43322477     16.12547429
O       3.82144117      0.79093267     17.35240160
H       2.37946204     10.46127374     14.45997819
H       5.83810760      5.60351334     16.57619005
H       5.25331533      1.84280696     17.85838640
O       9.90192108      7.12933904     15.48829529
O       5.97341739      2.41988258     18.39345530
O       2.93521669     -0.66366323     13.33525317
H       9.91368316      6.84004536     14.49312613
O       6.12092156      5.24877536     17.50679272
H       2.97298556     -0.00355308     12.62707726
H       5.92662381      3.29081781     17.99033059
H       3.91172310      8.61791315     13.41189526
H       7.54823097      1.76764441     17.91432343
H       0.02470064      8.31244377     16.31995248
H       3.70965909      9.66566788     19.38287432
O       8.47298630      1.55220385     17.65246919
H       5.41540554      5.59816266     18.14511192
O       0.89584244      8.87679182     16.55952550
O       3.42466634      8.86758440     19.90349636
H       3.86441039      8.88207977     20.79414009
H       8.82372643      1.06241027     18.47201876
O       8.82587148      2.51173119     20.87050729
H       0.89031616      8.77782079     17.55363486
H       1.73575135      3.57247167     19.59087423
H       2.36771931      7.39732229     16.07019833
O       9.28167720      4.91270566     19.67900122
H       9.02034157      3.37543914     20.35692892
H       2.77697226      4.75457699     19.72607545
O       2.06564001      4.25203260     20.22617709
H       8.45050271      5.47715900     19.70789410
H       6.56821013      0.15764986     20.92840028
H       3.14237122      5.98237013     15.77394798
H       9.39385304      4.84347603     18.67196212
H       7.83596009      2.39328310     20.74721846
O       3.26474422      6.93118178     16.16118374
O       9.63797007      0.15044255     20.00309618
O       6.05188808      0.97223706     20.72497125
H       1.78206607      8.84886317     19.61299070
H      -0.68452951      5.89757946     20.41492871
H      10.52486130      9.53525898     19.68913857
O       7.52372208      8.74877440     21.82641766
H       9.57212646      1.05437453     20.37200748
H       8.35135440      9.01217237     21.35914637
O       0.81747061      8.72765657     19.32967539
O       0.19439623      6.36590105     20.60139350
H       6.07541396      1.25374078     19.78004315
H       7.74741835      8.68603061     22.76820084
H       6.80686853      6.75808534     21.56250993
H       2.36476753      3.60438974     21.71091949
H       0.88603550      5.66386027     20.56366356
O       7.06029137      5.85118183     21.40465082
H       0.49819177      7.91860064     19.74136009
H       4.90198943      6.58663813     22.00315843
H       7.91009005      5.89168371     21.97896252
O       2.56006664      3.35132420     22.65084721
O      10.56153916      9.23916722     23.64439368
O       4.35324536      7.33940900     22.45715477
O       6.98853555      2.00388828     24.55294151
H       8.80338066      2.95827377     22.44658150
H       1.74628425      2.84379932     22.98695490
H       3.66108127      6.75030432     22.92788591
H      -0.15229875      8.37924901     23.54857826
H       6.17784672      2.14118607     23.98395583
H       7.72810792      2.65478307     24.28959221
H       3.95102505      2.31831856     22.94291127
H       0.09207310      0.32051693     23.53807151
H       2.55552354      4.83639168     23.06103232
O       0.14014781      6.69813265     23.45817235
H       1.07347464      6.21419258     23.66579224
O       2.70281766      5.74094789     23.60329652
O       4.83395535      1.79428203     23.04003167
O       9.00051643      3.28530141     23.42860800
O       0.33874463      2.03418319     23.68797450
O       8.90442033      5.88932634     23.71920470
H       7.70619030      0.48894196     24.42657268
H       4.99886901      8.18555570     23.82387187
H      10.58599679      2.44046430     23.62469534
H       8.18047109      6.34797880     24.24390331
H       0.13436491      6.67962876     22.48598174
H       8.93676907      4.26049466     23.56134005
H       5.28336780      0.04355865     23.92806934
H       9.25071364      9.33408336     24.33826452
H       5.25779262      1.66114263     22.20354032
H       2.93955519      5.43342538     24.52820934
O       8.21056326      9.26227096     24.61237199
O       5.50427086      8.90736664     24.38937386
H      11.68044331      2.18625891     24.66778740
H       9.77024680      6.29726470     23.98753122
Pt      2.44746204      9.06914580     26.95312540
Pt      5.16649169      8.93017023     26.76826943
Pt      8.12658611      9.09472328     -0.04743758
Pt     10.96733068      9.01140394     26.98826300
Pt      8.11454829      4.27386014      0.06961898
Pt      3.98588491      6.57453739      0.00411162
Pt      9.49747045      6.65122606      0.14294040
Pt      6.70132812      6.64999206     27.12999137
Pt     -0.18849553      4.27963155      0.13208168
Pt      1.25748538      6.62337190      0.01553389
Pt      9.35824222      1.88777442      0.00399671
Pt      6.64465561      1.96254231     26.84480945
Pt      2.54137981      4.36554866      0.00226802
Pt      5.26649533      4.27329338     -0.10650846
Pt      1.08616906      1.92780563      0.09786976
Pt      3.77280463      1.79631707     -0.00537238
H       9.09298941      2.27081321      9.48658279
O       3.62966604      6.11075332     18.80489504
H       3.28309494      6.33881477     17.91441433
H       3.67439996      7.00539859     19.24591853
O       6.49497474      0.07342861      9.25686982
H       8.84365810      7.90191142      9.89242578
