   243
 Tv_1:  11.152900   0.000000   0.000000 Tv_2:   0.000000   9.658700   0.000000 Tv_3:   0.000000   0.000000  26.829700
Pt      5.46554218      7.90268378      2.32348937
Pt      7.05337931      0.48256112      2.35451513
Pt     11.14685217      7.78084880      2.37830261
Pt      8.43669984      7.80974678      2.27067197
Pt      8.48853767      2.89211169      2.49902368
Pt      2.67075088      7.74002340      2.51355830
Pt      9.82172780      5.18980110      2.35508045
Pt      7.00225618      5.37053654      2.39693504
Pt      5.61692564      2.91289239      2.39896573
Pt      4.36919693      5.31993716      2.53350502
Pt      9.79537107      0.48303597      2.36034296
Pt      1.52906657      5.25303112      2.54158159
Pt      1.41822816      0.46644061      2.61307942
Pt      2.87902374      2.88679428      2.60488318
Pt      4.20939248      0.59896571      2.50018948
Pt      0.07777770      2.88990730      2.59443337
Pt      5.83951402      6.28849877      4.83067949
Pt      8.55907472      6.33312771      4.64483599
Pt      7.18192936      8.75004191      4.66895012
Pt      7.28524825      3.85994892      4.76374293
Pt      8.54651031      1.47267884      4.72803010
Pt      5.83368105      1.49035907      4.91180940
Pt     10.05899098      3.83628201      4.85816648
Pt     10.04658002      8.74586958      4.63702901
Pt      1.63408451      8.63843813      4.84524104
Pt      0.16628682      6.31659204      4.69758066
Pt      3.08538996      1.40074682      5.03516116
Pt      2.91551409      6.19683053      4.74488498
Pt      4.24979179      8.61136456      4.73006787
Pt      4.51358063      3.74516333      4.93246537
Pt      0.35830109      1.48107466      4.96929173
Pt      1.65436928      3.87386403      4.91173494
Pt      7.44816355      2.65517871      7.23567500
Pt     10.45182642      7.37136008      7.10578507
Pt      8.77395598      5.08530473      7.02802831
Pt      9.23537735      0.22530121      6.97079166
Pt      6.64551839      0.19325907      7.26476677
Pt      3.39021509      4.96913998      7.11444176
Pt      3.66453551      0.00970907      7.21216584
Pt      7.73927976      7.42018838      6.92861278
Pt      4.78591410      2.50399712      7.32474895
Pt      2.11396230      2.44276395      7.18623276
Pt      0.46028862      4.96047930      7.08687309
Pt     10.28208196      2.58138550      7.15824319
Pt      6.02665573      4.90448420      7.15380698
Pt      0.72793781      9.63377827      7.23553621
Pt      2.18579448      7.28205339      7.12887776
Pt      5.08235430      7.37833554      7.18833732
O       5.91644493      5.11746392      9.34484824
O       2.45275170      7.24115126      9.29191471
O       0.16719335      4.99829338      9.19331737
H       4.86913028      3.14750482     10.39016643
H       8.31077795      5.08269848      8.59776995
O       0.58498138     -0.02254870      9.32609025
H       1.89854915      7.31093310     10.14328439
O      10.24700037      2.40883647      9.26949581
H      10.66047757      1.54177324      9.60550987
H      10.67042239      4.36269018      9.51412581
H       7.21327920      2.06740912      9.90402419
H       1.97983479      3.48146235      9.36665862
H       0.61326123      2.63558029      9.31591196
C       6.77156540      5.35011732     10.19771477
H       2.77792990      6.16881808      9.31384254
O       7.75091388      2.83131036      9.45246684
H       7.35428930      9.04402850      9.76702707
H       6.53833863      5.68234635     11.19035498
O       4.88140060      2.45323660      9.68019793
O       1.61157873      2.56524292      9.21121317
H       1.45867333      0.25325509      9.62853407
H      10.96174437      8.25537042      9.41340309
O      10.54169501      7.36378695      9.17815974
H       4.04535809      1.85865287      9.87702437
O       5.76314471      0.72270322     13.09287911
O       3.14774791      4.98532112      9.23187212
H       7.84959251      5.25735376      9.93118607
H       7.27009104      9.87854053     17.01993028
H       5.72170488      0.40911989     14.08312773
H      11.05814227      6.06024515      9.36890089
H       8.25371621      8.00924303     11.21343537
H       5.94298157     -0.06675769     12.58826192
O       8.06497252      7.83852768     10.27081145
O       6.79003890      9.01051563     16.66547766
H       4.08906925      4.88749291      9.53028556
H       6.62339099      2.19384828     13.14295630
H       7.58576421      8.61847256     16.14629910
H       9.24562478      6.49805010     12.62355136
H       1.50995275      7.39734742     12.19040027
H       6.42334446      3.66327356     13.55170193
O       0.84084351      6.99958845     11.57748367
O       9.45298264      7.45931846     12.72510220
O       7.11921294      3.06430881     13.27892505
Cl      5.37059459      7.19330508     12.73151305
H       2.64567944      1.79011543     11.76730381
O       9.27244474      4.47501952     11.71503891
H       8.54360607      3.99208495     12.12436046
Cl      1.26338758      4.05256291     12.07500856
O       5.43143474      4.93820049     14.72777360
H       0.83537146      6.02086222     11.79044979
O       3.26662342      1.03624657     11.62622835
H      10.14590416      4.39712049     12.23764946
H       5.37138162      5.77455161     14.15562083
H       4.48719780      4.66046648     14.69308932
H      10.37266379      7.39165127     12.34566704
H       2.25763599      3.95184602     14.00396738
O       4.38275143      4.13377785     11.61343319
H       4.70827958      4.78415265     12.23750429
H       3.59905745      8.04817819      9.24158111
H       4.11786356      1.24464082     12.06713001
H       5.25463292      9.10041244     15.96748610
H       0.63591511      2.43720951     17.18056610
H       3.39441570      4.20821609     11.55867096
H       8.25210570      2.82497036     14.87408670
H       3.90705178      8.78012107     15.22126205
O       2.70736542      4.04481167     14.93647049
H       2.33381609      3.40400404     15.47501085
O       1.09557328      2.28925930     18.09023072
O       4.50173321      8.52242595      8.92080884
O       4.48439670      9.49340105     15.50407014
H       0.50797690      1.61517395     18.49475185
H       0.82405164      9.10723606     15.60938510
O       8.86107189      3.01710922     15.59277405
O       0.36547144      2.52437500     15.54819660
O       1.37426705      9.69645791     15.05366936
H      -0.53618546      2.86010650     15.49113661
H       8.63078646      4.53190425     16.37098330
O       8.51158936      5.31992736     17.01106279
H       5.69410330      9.28352803      9.39168730
H       8.61612241      2.30805080     16.29531186
H       3.97820716     10.59514193     16.63492547
H       2.94201216      1.59817156     17.68977992
H       0.37339519      1.52105312     15.24119848
H       7.49785184      5.28346430     17.21045008
H       8.80524158      6.73534604     15.84828298
O       3.89308440      1.25091010     17.62937168
H       1.77206156      9.14962270     14.27664551
H       5.61858871      5.10501634     16.15592601
H       5.23305445      2.36752950     17.86809639
O       8.86958913      7.59971869     15.43110154
O       5.99916258      2.74354917     18.41391163
O       2.73558747     -1.34954492     12.94539904
H       8.96371063      7.42602740     14.48873261
O       5.83196975      5.11723133     17.15449200
H       3.06260149     -0.46108375     12.52482858
H       5.95793611      3.67242743     17.90295236
H       3.56110313      7.74390042     13.05333131
H       7.33336852      1.88317049     17.99565120
H      -0.93566309      8.13054533     16.51962719
H       3.58746781      9.81877624     18.63604865
O       8.19431299      1.55043736     17.66451405
H       5.02265106      5.38857902     17.66008546
O      -0.00295051      8.04279029     16.91999363
O       3.27423544      9.17648410     19.32814929
H       3.75969696      9.48762315     20.12920292
H       8.83921351      1.53779834     18.40823968
O       8.70339783      3.60017867     20.88057582
H      -0.08020080      8.36262771     17.80655204
H       1.45409602      3.63280583     19.20459398
H       1.37790212      7.08315662     16.08577625
O       9.02198131      5.93428762     19.45508857
H       8.96986873      4.34255073     20.27060528
H       2.54782355      4.86158097     19.24358408
O       1.83885171      4.38284955     19.80298226
H       8.21666721      6.43292606     19.66401358
H       6.82427334      0.84233904     21.01994759
H       2.14508877      5.74153492     15.65373786
H       9.04684897      5.85161212     18.45570502
H       7.78489036      3.28556191     20.83938621
O       2.20111781      6.60677296     16.05867061
O       9.64186755      1.20687836     19.88159323
O       6.30006842      1.66318119     21.01490270
H       1.65132804      9.40688649     19.53345934
H      -0.50392759      6.40182872     19.93323399
H      10.50595357     10.33860768     19.72267558
O       8.23347233      9.29765776     21.61188654
H       9.63444730      2.07952994     20.38652298
H       8.72912472      9.86077339     20.99366459
O       0.55622506      9.32893692     19.47910890
O       0.36096573      6.75472002     20.35573650
H       6.09156530      1.90747066     20.05082369
H       8.37747017      9.45095491     22.55361280
H       7.21022651      7.68905724     21.34653253
H       2.56561703      3.87698294     21.39669891
H       0.93463168      5.91210514     20.24047009
O       6.93097971      6.76799392     21.54994964
H       0.50086868      8.39709036     19.79960267
H       5.52415245      7.08190083     22.52811383
H       7.69881272      6.41285349     22.06660114
O       2.72629592      3.84363828     22.37325090
O      11.02059455      9.64240223     24.40401207
O       4.79484513      7.64228008     22.85184428
O       7.22304336      2.21271051     24.38048182
H       9.10160172      3.73691108     22.29878532
H       1.98179476      3.25851366     22.66971794
H       4.00766854      7.13398712     23.05897458
H       0.04441267      8.82840785     23.74124858
H       6.25373130      2.41058610     24.16733222
H       7.79292775      2.94294467     24.13611588
H       4.14597628      2.86779907     23.17075513
H       0.28417310      0.84535769     24.07684852
H       2.43658467      5.32159965     23.12452900
O       0.09201979      7.33072151     23.05138288
H       0.90229314      6.82297010     23.36121765
O       2.41234297      6.25076705     23.56007994
O       4.70597829      2.03781659     23.33196702
O       9.31688738      3.65323716     23.25219481
O       0.51273435      2.46312161     23.58661657
O       8.96113934      6.14810775     23.69108918
H       7.98064613      0.75367039     24.43177322
H       5.21278477      8.59463697     23.96235827
H      10.79217344      2.98795980     23.55133198
H       9.04352840      6.23511309     24.71046524
H       0.24741852      7.30699003     22.10010096
H       9.11830322      4.63491070     23.59139783
H       4.84934851      0.40791829     24.25450302
H       9.43974794      9.79716204     24.38551014
H       5.12816173      1.70350256     22.49160310
H       2.47404436      6.10599607     24.57975889
O       8.46852168      9.54926452     24.46428416
O       5.53508574      9.39180823     24.56333094
H      12.21672561      2.76825760     24.33432596
H       9.86963649      6.50757451     23.40720961
Pt      2.81583313      9.12070748     26.92471263
Pt      5.61525344      8.96468777     26.60721301
Pt      8.43009824      8.95951345     -0.19559637
Pt     11.22765205      9.04516168     26.54536732
Pt      8.55136382      4.32270170      0.02589927
Pt      4.30384354      6.64115296      0.26406778
Pt      9.87471625      6.66541096      0.02297452
Pt      7.11649558      6.55427326     26.81314633
Pt      0.12621080      4.26668217      0.09675604
Pt      1.57793835      6.68150807      0.02920152
Pt      9.79046305      1.88325775      0.15328301
Pt      7.07800463      1.84291623     26.89964101
Pt      2.90937903      4.21815461      0.19458049
Pt      5.79669066      4.16151325     -0.02738036
Pt      1.42536642      1.87556645      0.16198725
Pt      4.12386695      1.80993183      0.07587891
H       8.72127814      2.61673648      9.42178153
O       3.65938095      6.32442406     18.39975505
H       3.18117260      6.52325670     17.56438313
H       3.64771965      7.19705099     18.86611431
O       6.64231960      0.13248999      9.47946620
H       8.94146870      7.73062434      9.78028980
