   243
 Tv_1:  11.152900   0.000000   0.000000 Tv_2:   0.000000   9.658700   0.000000 Tv_3:   0.000000   0.000000  26.829700
Pt      5.77446571      7.78100569      2.19054832
Pt      7.03303591      0.60576534      2.27060001
Pt     11.30188870      7.94765628      2.27544205
Pt      8.53662337      7.88392545      2.29121113
Pt      8.57113464      3.00621532      2.49098602
Pt      2.98922710      7.83436681      2.30942787
Pt     10.02428716      5.54076345      2.42510995
Pt      7.24211052      5.38437816      2.44583222
Pt      5.81442122      2.96148024      2.48059431
Pt      4.49050839      5.44770044      2.56012085
Pt     10.02588708      0.75519312      2.37625175
Pt      1.61627198      5.55311240      2.47428398
Pt      1.60098233      0.54403309      2.51132587
Pt      2.95284102      3.02120798      2.54739264
Pt      4.34993489      0.52668693      2.39796252
Pt      0.29903553      3.08823951      2.51687472
Pt      5.82968457      6.24266902      4.78602285
Pt      8.68235060      6.39983922      4.66467609
Pt      7.34657697      8.79981835      4.57512872
Pt      7.34301574      3.84066763      4.77475508
Pt      8.71864124      1.61879708      4.79792636
Pt      5.90583352      1.40232084      4.70628479
Pt     10.12006935      4.02523961      4.75172869
Pt     10.01017569      8.80924818      4.52145282
Pt      1.59601875      8.72903366      4.67930153
Pt      0.27721666      6.45127096      4.70521630
Pt      3.07957803      1.43090981      4.88559394
Pt      3.05685658      6.38390370      4.67303437
Pt      4.55564771      8.72572537      4.62805704
Pt      4.52155624      3.75107310      4.92037194
Pt      0.32069857      1.46131507      4.82291127
Pt      1.75887855      4.00566981      4.88369236
Pt      7.55676159      2.55492747      7.11527157
Pt     10.15480083      7.50365760      6.97558343
Pt      8.80259163      5.04992530      7.08327010
Pt      8.74410892      0.08183525      7.10193137
Pt      6.16540325      0.20013589      7.04063995
Pt      3.33286106      4.86227044      7.13093284
Pt      3.21656044      0.11499096      7.14983522
Pt      7.34063394      7.34428181      7.02960581
Pt      4.67307562      2.52281198      7.27843598
Pt      1.90056249      2.50642950      7.22949007
Pt      0.35750705      4.97772038      7.04845972
Pt     10.27063928      2.57087565      7.13290489
Pt      6.14140041      5.04430400      7.11301355
Pt      0.37924961      9.81255422      7.22546395
Pt      1.86960698      7.41306228      7.06020718
Pt      4.47119671      7.49029859      6.92167548
O       6.12092112      5.11316579      9.31019083
O       2.29063422      7.16305636      9.29578584
O      -0.08338246      4.96521761      9.14869573
H       4.80693104      2.84301127     10.25832630
H       8.72096121      4.62157982      8.57064908
O       0.25516897     -0.03320196      9.32459740
H       1.59359319      6.97979895     10.05152951
O      10.19455079      2.29311728      9.33494147
H      10.60573773      1.38889560      9.43873932
H      10.38421919      4.28624022      9.21697919
H       6.98191671      1.80525635      9.54082308
H       2.45805629      3.63124478      9.39265521
H       1.29628968      2.76354284      9.90185998
C       7.01496001      5.18039989     10.23719629
H       2.77733238      6.24004536      9.38467561
O       7.73213513      2.23664994      9.16723495
H       6.49030968      8.41198966      9.40238289
H       6.71164439      5.32078596     11.28659574
O       4.96032742      2.22209103      9.51391240
O       2.09846958      2.69492289      9.32553960
H       1.12232350      0.18259607      9.75301865
H      10.88723433      8.11319921      9.40857564
O      10.31392642      7.35543313      9.02271242
H       4.33020737      1.46167033      9.77964578
O       5.38581399      0.29682353     13.62730725
O       3.22113429      4.90582671      9.22067875
H       8.04112262      4.92059384      9.95085429
H       7.38964706      8.31753207     17.48046605
H       5.30112140     -0.29972182     14.47423013
H      10.62759149      5.90165375      9.25570917
H       8.00227845      7.34819579     11.12862073
H       5.61409129     -0.31495361     12.92391837
O       7.74748181      7.37192442     10.14426002
O       6.79462172      7.55418064     17.34623680
H       4.04558051      4.94533723      9.65167191
H       6.66755509      1.66328068     13.78338411
H       7.41712386      7.24471196     16.64177230
H       9.02640184      6.00827469     12.71523099
H       1.39912673      6.95169254     12.37691453
H       6.12438189      3.11917202     14.17111690
O       0.90546090      6.57417128     11.55983638
O       9.35770460      6.92132632     12.56179868
O       6.97983145      2.61067027     14.03311665
Cl      5.23294415      6.49950165     12.88293712
H       2.22285910      1.71254382     13.38389978
O       8.79461638      4.17248477     12.82681285
H       8.18375465      3.43264571     13.13066101
Cl      1.43998906      3.37675296     12.19573157
O       5.07989965      4.18794876     14.75439787
H       1.06147234      5.58668741     11.55971815
O       2.67293904      0.96836264     13.93038700
H       9.71263790      3.75360768     12.65226612
H       5.31858532      4.96225477     14.14295209
H       4.12638096      3.95964216     14.80973600
H      10.20380966      7.01894923     12.06755439
H       1.90432176      3.73198682     14.31784111
O       4.39349578      3.58305927     11.68608829
H       4.56660516      4.55163547     11.74644363
H       3.05020577      8.62800154      9.48704102
H       3.62825469      0.97081864     13.66943507
H       5.33938036      8.09043753     16.60009025
H       0.99333411      2.22297131     18.53096839
H       3.41606580      3.44891751     12.01718230
H       8.38510176      2.64213646     15.19556704
H       3.94663080      7.56248247     16.04793064
O       2.41410986      4.06522816     15.09074840
H       1.99058405      3.43000150     15.71898819
O       1.34969606      1.94229894     19.42851217
O       3.38221497      9.50577378      9.23960407
O       4.47917205      8.35610366     16.13137583
H       0.74903986      1.22079732     19.71564722
H       0.82741850      9.18080232     16.33788736
O       9.12265254      2.40887100     15.85071219
O       0.65180041      2.73801449     16.56759983
O       1.46337197      9.95119873     16.39665496
H      -0.19519686      2.75070913     16.16015380
H       8.84428465      3.68570575     16.81313920
O       8.59743982      4.59695971     17.22471803
H       4.98611774      9.13585016      9.16626926
H       8.71903914      1.65646206     16.36700166
H       4.02312572      8.89885002     17.47580562
H       3.18927782      0.23483999     18.35497172
H       0.89423747      1.81136975     16.36289048
H       7.55763617      4.48900957     17.13061969
H       8.83810706      5.88138332     16.24046695
O       4.08180180     -0.17073149     18.33380929
H       1.97395550      9.82346539     15.55281107
H       5.55275218      4.18524622     16.38590406
H       5.23808008      1.13760874     18.49701620
O       8.78647762      6.78406857     15.74195404
O       6.12149391      1.54748324     18.60422483
O       2.38748970     -1.96993341     13.59342609
H       8.89910337      6.63042071     14.77875423
O       5.89779866      4.06049778     17.30561864
H       2.58195166     -0.98170325     13.62287916
H       6.04859204      2.33142170     18.08027798
H       3.24928240      7.23367067     13.65452455
H       7.75457872      0.74914308     18.37694712
H      -0.79714631      7.35454389     16.69788886
H       4.04667294      8.80144805     20.01078795
O       8.42527794      0.31058656     17.81805458
H       5.48661455      4.87352538     17.76681068
O       0.13761986      7.54745016     16.98272755
O       3.55016636      8.23621158     20.64511997
H       3.93913843      8.06711359     21.54406394
H       9.25284862      0.35454002     18.33825110
O       9.09459049      2.41660407     21.26378421
H       0.19009234      7.21525561     17.92010122
H       1.85491734      3.40403846     20.22736805
H       1.81960314      6.67064919     16.51464649
O       8.82063939      4.62193091     19.80456872
H       9.07788816      3.15552804     20.62773875
H       2.81651183      4.70886157     19.98941158
O       2.05976810      4.29680772     20.57489836
H       8.03842245      4.88571635     20.36754180
H       6.77918495      0.45220972     21.24335774
H       2.69144917      5.67436147     15.77390099
H       8.76493017      4.59757186     18.82832118
H       8.16963894      2.14050435     21.47206985
O       2.75362576      6.33959830     16.51766569
O      10.10695024     -0.28351226     20.36052818
O       6.52403852      1.42484493     21.27699527
H       1.84305571      8.12632523     20.05364692
H      -1.04942568      5.35530793     20.49976338
H      10.90296294      8.71489108     20.14817362
O       8.06844161      8.68524686     21.86825193
H      10.43760159      0.40183037     20.92995433
H       8.94372433      8.83867704     21.29172440
O       0.98433103      7.76424912     19.71432414
O      -0.15173457      5.64426786     20.93138496
H       6.16628751      1.51876357     20.31980299
H       8.36371553      8.71566677     22.77829032
H       7.47441662      6.86187841     21.60877293
H       2.74173298      3.82231211     21.98864476
H       0.56457145      4.96972567     20.73557128
O       7.04425217      5.95867527     21.84365712
H       0.84244741      6.94750445     20.22382468
H       5.60052341      6.75638344     22.58709286
H       7.57192167      5.77623258     22.72158658
O       2.91978943      3.59089992     22.93189624
O      11.19752678      9.23364195     24.40715246
O       4.89106967      7.44526152     22.92965293
O       7.28783956      2.02573005     24.68678381
H       9.58480281      3.02399978     22.63864949
H       2.16100336      2.95608088     23.15606350
H       4.19028625      6.93234760     23.32356705
H       0.17983383      8.40716245     23.86263658
H       6.33942628      2.27928713     24.17225093
H       7.89974813      2.76255364     24.42868892
H       4.23373281      2.84221216     23.31003067
H       0.28420086      0.39441317     23.93087577
H       2.78007665      5.08983393     23.74645041
O       0.23611696      6.95227588     23.09595372
H       1.15068671      6.63067410     23.35966606
O       2.85773522      6.10754180     23.86935802
O       5.01135094      2.17996811     23.50450126
O       9.87112839      3.25068196     23.64843965
O       0.96870112      2.03394136     23.47959748
O       9.00182543      5.91747984     23.84337386
H       8.01264965      0.47175679     24.42861731
H       5.32360418      8.60985804     23.75947203
H      11.23219913      2.44403829     23.68019588
H       8.84279526      5.94849977     24.82009023
H      -0.03220647      6.51016598     22.17602939
H       9.94219221      4.26829013     23.71899111
H       4.74213401      0.48390105     24.39991709
H       9.56747623      9.48037144     24.36648673
H       5.31029595      1.86726750     22.59952211
H       2.64523663      6.17598162     24.84719915
O       8.55838562      9.31149764     24.48076540
O       5.43553983      9.42715444     24.48984596
H      12.58139287      1.85841489     24.34634982
H       9.82570074      6.36034154     23.68152330
Pt      2.88629978      9.10479395     26.79004551
Pt      5.59720426      8.92782402     26.60877616
Pt      8.51274730      8.98742042     -0.12525770
Pt     11.26782618      9.13771019     26.75588562
Pt      8.52236842      4.21685733      0.09215571
Pt      4.38751012      6.46539781      0.03513704
Pt      9.98369777      6.64867709      0.00243897
Pt      7.03912083      6.62482259     26.83614228
Pt      0.14134053      4.18965895      0.03467217
Pt      1.59883322      6.56138858      0.10573753
Pt      9.84528236      1.85935506      0.00943953
Pt      7.00906359      1.84705733     26.82957830
Pt      2.98235916      4.18049337      0.09656314
Pt      5.70099805      4.16090097      0.05236996
Pt      1.49453945      1.92658103      0.19840112
Pt      4.19282220      1.85675793      0.09140419
H       9.04292094      2.17478020      9.50644301
O       3.78498090      5.60679724     19.21917519
H       3.62553544      5.92443146     18.30560012
H       3.83781479      6.44177724     19.76556014
O       5.99869352     -0.41357137      9.09767845
H       8.61398439      7.46384560      9.60536982
