   246
 Tv_1:  11.152900   0.000000   0.000000 Tv_2:   0.000000   9.658700   0.000000 Tv_3:   0.000000   0.000000  26.829700
Pt      5.72210687      7.91752615      2.37228207
Pt      7.17209540      0.60308923      2.46430795
Pt      0.15558296      7.78858251      2.42862444
Pt      8.50821282      7.86353402      2.37818461
Pt      8.58148738      2.99593557      2.51421119
Pt      2.97191326      7.73874361      2.42647807
Pt     10.09237074      5.36057850      2.48711319
Pt      7.24001656      5.40597439      2.58048055
Pt      5.76939517      2.99661167      2.43077082
Pt      4.34003951      5.44625117      2.47047878
Pt      9.86262100      0.55411962      2.40474601
Pt      1.63624196      5.35381741      2.39669710
Pt      1.53374681      0.52948993      2.39911177
Pt      3.02109755      2.91142194      2.51367459
Pt      4.35096935      0.51529165      2.47960087
Pt      0.21357804      2.90398474      2.42191702
Pt      5.91494052      6.39647407      4.64529426
Pt      8.80677596      6.42583652      4.69546580
Pt      7.33593150      8.74991292      4.63966002
Pt      7.28273217      3.98913969      4.87629797
Pt      8.61293855      1.55147698      4.73302738
Pt      5.77865208      1.47391762      4.69841706
Pt     10.04753608      3.94886291      4.79205272
Pt     10.14356255      8.79096239      4.75341795
Pt      1.68509166      8.61720238      4.68151435
Pt      0.28127614      6.20822601      4.78883315
Pt      3.04440711      1.40002857      4.69439261
Pt      3.00938701      6.18620418      4.75502773
Pt      4.39703083      8.75232759      4.64395277
Pt      4.55562506      3.90588169      4.70834405
Pt      0.31239273      1.51274559      4.73249078
Pt      1.73594889      3.83518001      4.81110180
Pt      7.41946673      2.62620053      7.16862754
Pt     10.05656993      7.34428231      6.99155152
Pt      8.89867585      5.00697349      7.07740656
Pt      8.83900784      0.16757845      6.95103868
Pt      6.11613883      0.13976139      7.03582053
Pt      3.20311288      4.95848682      7.07016254
Pt      3.34899281      9.62557066      6.95398994
Pt      7.26533365      7.46762390      6.95077038
Pt      4.75191610      2.63286503      7.07123573
Pt      2.02648193      2.35401836      7.08196761
Pt      0.46686039      5.00764960      7.23489690
Pt     10.27795500      2.52217633      7.17748134
Pt      6.15863138      5.06482911      7.22443332
Pt      0.35198552      0.08789417      6.99879554
Pt      1.78769834      7.34901507      7.12140727
Pt      4.66715406      7.28990382      6.99611257
O       5.78969345      5.13678642      9.32466224
O       1.99960344      7.35210585      9.47329877
O       0.18134615      5.00764960      9.41937108
H       3.98136224      2.58650327      9.88915912
H       8.84480735      5.23907205      8.62735833
O       0.43228640      0.27121630      9.01880366
H       1.11651682      7.21659429      9.97501416
O      10.28118934      2.47552481      9.22753872
H      10.66674509      1.55514729      9.43842016
H      10.87374291      4.18279662      9.82664592
H       7.44522992      1.42552753     10.91566345
H       2.39051259      3.85662232      9.36302871
H       1.10659074      2.81415883      9.56639783
C       6.62872612      5.07603320     10.27738488
H       2.41281839      6.44032457      9.41883448
O       8.31270249      1.63029197     11.32025532
H       6.43511177      9.62276964      9.82879230
H       6.17056498      5.25356010     11.30362091
O       4.52930422      2.09690377      9.19909924
O       2.00004956      2.98695298      9.18165993
H       1.42690203      0.32781628      9.18380631
H      10.69440428      8.33961134      9.15026919
O      10.17523679      7.46810684      9.06334096
H       4.07482354      1.14581158      9.14248857
O       6.33785848      9.13162474     13.82856397
O       3.13742230      5.10269121      9.23531933
H       7.70565014      4.94776566     10.12687027
H       7.34563453      8.43870960     18.14063336
H       5.82114463      8.91971286     14.59803977
H      10.65548066      5.72142753      9.45961563
H       4.15088632      7.96775139     10.23070120
H       7.02253501      8.48391232     13.73948937
O       5.08248806      8.32995264     10.20360321
O       7.03703378      7.63848631     17.67138190
H       4.15557054      5.03044413      9.51488481
H       7.01863150      1.34072415     14.15695950
H       7.78070916      7.56575630     17.10312886
H       8.51970031      6.14843866     12.82540149
H       0.78906768      7.52200239     12.19356206
H       6.32280207      2.79957420     14.20015532
O       0.19004542      6.87313092     11.76321367
O       8.74699641      7.11778579     12.67891133
O       7.18280219      2.33286581     13.97988348
Cl      4.89946897      5.87451793     13.05533202
H       4.51748215      0.99793688     11.71921296
O       8.59141346      4.42851395     12.80286454
H       8.17373735      3.58753094     13.16748017
Cl      0.69917530      3.51480093     12.25205080
O       5.00263330      3.47452415     14.77216452
H       0.65612511      6.03726702     11.94646052
O       4.97653551      0.13773306     11.52469763
H       9.50461291      4.15942257     12.47044456
H       4.93482366      4.42870712     14.33618190
H       4.11831985      3.05649562     14.71421237
H       9.75410328      7.18472058     12.57454380
H       1.56519799      3.80900493     14.16822798
O       3.64699830      2.78354075     11.62772368
H       4.24367845      3.41454362     12.10368256
H       3.06381316      8.93468385      9.29622275
H       5.61459292      9.56105054     12.27190478
H       5.63020698      8.08066159     16.84475885
H       0.98011685      1.42127771     17.35157188
H       2.74238658      3.17954745     11.69426134
H       8.49505240      2.04861027     15.26395292
H       4.46941315      7.48867987     15.98003762
O       2.02993933      4.02719497     15.02221733
H       1.61148252      3.73192851     15.84481593
O       1.40470776      1.50810942     18.22702499
O       3.09704880      0.18892417      8.97614443
O       4.90872588      8.36047413     16.17079678
H       1.09365337      0.79017825     18.80681481
H       2.45954904      0.18892417     13.34375130
O       9.21363375      2.06956965     15.95535429
O       0.56835178      1.13161329     15.67310585
O       2.35683083      1.12002285     13.74700169
H      10.87374291      1.51235925     15.38119871
H       8.83142387      3.96740761     16.65668265
O       8.29017363      4.73923433     16.83885631
H       5.22557977      0.82388711     10.48155890
H       8.77710924      1.89793455     16.81685596
H       4.29408956      9.43654990     17.19488643
H       3.03448103      0.67891002     17.90480030
H       1.22715359      1.15479417     14.92482552
H       7.38835013      4.40195253     17.03444483
H       8.93614960      6.14380248     15.80832754
O       3.91935212      0.35109375     17.97885027
H       2.01120246      1.72456089     13.03842931
H       5.18331028      3.93640319     16.40233710
H       5.10936655      1.62304795     18.89588941
O       9.04544802      7.09866156     15.64466637
O       5.80675739      2.38009685     18.90447492
O       2.54152285      8.16430594     12.49968893
H       8.79740752      7.18162980     14.65733341
O       5.46971675      4.21331811     17.30247353
H       3.22497256      8.22351377     11.74470117
H       5.61046635      3.09667581     18.24553749
H       2.98585439      7.63935559     13.21013939
H       6.96665899      1.24133612     18.43844303
H      10.68269374      7.61018632     15.33102717
H       3.79823162      8.75049244     19.06277015
O       7.68847467      0.56909060     18.36895411
H       4.89210806      5.02986461     17.54152616
O       0.41064978      7.87724937     15.59851928
O       3.58844558      8.09640528     19.78153781
H       4.24122481      8.12576772     20.56120889
H       8.25035778      0.76941204     19.16579619
O       9.22634805      3.05398435     20.79918833
H       0.50366496      8.81395010     15.76888788
H       1.58192734      3.23054539     19.29001771
H       1.72200776      7.09615030     15.50005428
O       8.74710794      5.31344404     19.51860675
H       8.95622482      3.83865714     20.16225125
H       2.45419565      4.62197771     19.15372283
O       1.91383764      4.02043388     19.74478112
H       7.98993756      5.81907699     19.81775791
H       7.16339614      0.80881954     21.41036890
H       2.55367951      5.68144051     15.09358433
H       8.63859022      5.24670243     18.48539500
H       8.35508351      2.71496398     21.08224167
O       2.70034015      6.57998938     15.49388345
O      10.33717689      0.85634034     21.43532052
O       6.83014749      1.78251309     21.32746512
H       2.09797202      8.81134225     19.97846781
H      10.33427714      6.15780760     20.00824877
H      10.84463384      0.25701801     20.81609104
O       8.06756174      9.03803194     22.09855070
H      10.10631186      1.68824417     20.96258120
H       8.91518214      9.44910621     21.86432742
O       1.10313334      8.91217908     19.95566256
O       0.15201403      6.42081400     19.93715007
H       6.40265683      1.94545535     20.45040223
H       8.22292164      9.02740737     23.12156716
H       7.65958866      7.46433995     21.88740096
H       2.34523181      3.88337692     21.47422358
H       0.59311122      5.59885863     19.69917063
O       7.27403291      6.56414911     21.67169018
H       0.80412409      8.01797663     19.80058690
H       5.70716199      7.01202303     22.26408995
H       7.80301496      5.89972713     22.15891753
O       2.60096781      3.88299057     22.41031182
O       0.33157572      0.03042491     24.46358876
O       4.94686880      7.57232421     22.43043409
O       7.42961586      2.05556453     24.66105535
H       9.08537540      3.47336511     22.59570504
H       1.76639630      3.62384765     22.83931872
H       4.23051803      7.08475304     22.90773445
H       0.64720279      8.98838622     23.84972522
H       6.51373972      2.18074129     24.26531727
H       8.07726477      2.76518922     24.21756041
H       4.19293276      2.80884655     22.98822355
H       0.59935685      0.91554817     24.08850955
H       2.83172131      5.16180245     23.20634902
O       0.60950599      7.26305264     23.00190670
H       1.53006635      6.83333708     23.11539633
O       2.87209481      6.03842607     23.57901355
O       5.02103558      2.20305288     23.22137365
O       9.19489688      3.57738931     23.61308727
O       0.72215028      3.00511133     23.62328255
O       9.42107769      6.11511614     23.76440678
H       8.16961078      0.64017864     24.59424940
H       5.23104469      8.46845840     23.75930913
H      10.88433817      3.17278636     23.61228238
H       9.38784205      6.22986150     24.77481328
H       0.48771632      7.57367643     22.11679490
H       9.16032289      4.59213233     23.80089517
H       5.00452929      0.38905244     24.02331338
H       9.74161203      9.64285973     24.36405057
H       5.44328437      2.16615665     22.31318830
H       3.02611636      5.98375782     24.54863891
O       8.77722077      9.47045194     24.61759123
O       5.41328307      9.22599024     24.43810054
H       0.91587615      3.15221333     24.58646878
H      10.28353145      6.43549522     23.41159622
Pt      2.86852588      9.12640904     26.67086818
Pt      5.63466814      9.07222374     26.70145403
Pt      8.64740102      9.02151556      0.02763459
Pt      0.20833617      9.08671179     26.82299258
Pt      8.65197370      4.33598360      0.10490413
Pt      4.41587923      6.61253919     26.77818698
Pt      9.99879791      6.69560401      0.06197661
Pt      7.15335853      6.64016308      0.07378167
Pt      0.29923231      4.25417441      0.11027007
Pt      1.64081465      6.74428386      0.04265922
Pt      9.91994691      1.98148230      0.11348963
Pt      7.11923066      1.82298304      0.16446606
Pt      2.97760124      4.18733621      0.11536771
Pt      5.77151422      4.28228123     26.79750436
Pt      1.57501254      1.82317621      0.07029381
Pt      4.25092783      1.85186255      0.22778415
H       8.88038510      2.45659376     10.89768755
O       3.39795404      5.75069339     18.00594826
H       3.11623179      6.20078881     17.13210493
H       3.54918737      6.54164434     18.62061669
O       5.88861967      0.76709395      9.71422948
H       5.31223780      8.41436968     11.19442403
O       7.18837864      7.58488052      8.98875439
H       6.23157135      7.97180805      9.39763902
H       8.03677974      8.26427348      9.21412387
