     243
Tv_1:  11.152900   0.000000   0.000000 Tv_2:   0.000000   9.658700   0.000000 Tv_3:   0.000000   0.000000  26.829700
 Pt         5.4487712200        8.0243308200        2.3051624800
 Pt         6.9078174800        0.8093613200        2.3910892100
 Pt        11.0492376300        7.9780781100        2.3718334300
 Pt         8.2113736200        8.0797632600        2.3033523000
 Pt         8.2662087800        3.1976333100        2.3927393200
 Pt         2.6894660700        7.9675610600        2.3912884700
 Pt         9.6657325900        5.5575814600        2.3454519700
 Pt         6.8881958300        5.6127652400        2.3763341100
 Pt         5.4945549400        3.2065090800        2.4440286300
 Pt         4.0679249600        5.6001446100        2.3966840100
 Pt         9.7253498900        0.7197357500        2.3518324800
 Pt         1.2499313500        5.5656903200        2.3769173800
 Pt         1.3188671800        0.7137224200        2.3935020100
 Pt         2.7378033100        3.1651535100        2.3992560400
 Pt         4.1408535500        0.7573119400        2.3601040100
 Pt        11.0955967800        3.1332805800        2.3814223200
 Pt         5.6916424700        6.6134999100        4.7185699300
 Pt         8.5135113900        6.5964128900        4.5844429700
 Pt         7.1244918300        8.9982826900        4.6412878000
 Pt         7.1064635500        4.2251710800        4.6871501600
 Pt         8.5348011700        1.7163832100        4.6381568000
 Pt         5.7742214300        1.8328990200        4.8221701500
 Pt         9.9098538200        4.1382163700        4.6116929800
 Pt         9.9166481200        8.9614060500        4.7158050400
 Pt         1.5649745000        8.9612324800        4.7112694600
 Pt         0.1506497800        6.5518760000        4.7205231000
 Pt         2.9745444700        1.7173993500        4.6450157500
 Pt         2.9144834800        6.5631046400        4.7218042100
 Pt         4.3759984400        8.9909084800        4.6426226700
 Pt         4.3120496900        4.1682953100        4.7234420400
 Pt         0.1681620900        1.7067795900        4.7071802200
 Pt         1.5201764700        4.1403919800        4.6513062700
 Pt         7.2753805600        2.6290583700        7.0115558000
 Pt        10.2319550300        7.5443548700        7.0536278700
 Pt         8.8974900500        5.1916598900        6.8865541500
 Pt         8.7586646300        0.2194606200        7.0115384000
 Pt         5.9468252100        0.2279403400        6.9817350600
 Pt         3.2785021000        5.0864378500        7.0273196700
 Pt         3.1547802400        0.3045780200        6.9618427100
 Pt         7.4258317100        7.5324384700        6.9760235700
 Pt         4.5469698200        2.6473879000        7.1698090000
 Pt         1.8112652300        2.6845541000        6.9542227300
 Pt         0.4881259800        5.0668198000        7.0200563000
 Pt        10.0826491300        2.6816483100        6.9350048600
 Pt         6.1609973100        5.1344508700        7.0608141800
 Pt         0.4251473600        0.3212076400        7.0328169800
 Pt         1.9458364400        7.5184720100        7.0346852200
 Pt         4.7131438500        7.5144869500        7.0724669200
  O         6.0790436700        5.0301958900        9.0354889000
  O         1.9197569100        7.7584695700        9.1627800900
  O         0.4267123000        4.9614053100        9.0865875300
  H         3.2400423300        2.3398672600        9.3858287100
  H         8.0629432400        4.9126148800        9.7023487800
  O         0.2798513600        0.2905444500        9.1808291000
  H         1.4147809800        8.5864279700        9.3947744500
  H         3.6878277700        4.2137192900        9.3612871700
  O         8.8666105800        0.3661101400        9.0540216700
  H        10.4135559900        0.2546880800        9.3293483300
  H         0.6482288000        1.2308378900        9.5507466500
  H         1.3111096200        5.2938189300        9.3807898000
  H         0.8039285300        3.2733520300        9.7011978700
  H         8.0984605400        9.5263428000        9.4815513600
  C         7.1562707600        5.5353386500        9.8028378500
  H         2.9364423200        7.8978281300        9.3419058100
  O         8.6831691200        2.9187197800        8.5641695000
  H         5.1597351700        8.2407533700        9.4566405700
  H         6.8308968100        5.5145923800       10.8589120600
  O         4.4245436300        7.6626625700        9.0861259300
  O         4.0992413000        2.7859029700        9.1878374800
  O         1.2778690400        2.4343749700        9.9662085300
  H         1.3971782900        2.4835384100       11.0008279900
  H        10.3106930300        7.6623010100        9.9462968900
  O        10.0626646000        7.0512981200        9.1450935000
  H         5.5186717400        2.3230301100        9.9834884300
  O         6.3820873000        1.9766499400       10.3281270000
  O         3.2565558600        5.1527626100        9.1651480100
  H         7.3895969200        6.5868163700        9.5302062300
  H         7.1252593200        6.9441591200       12.8292316900
  H         6.5161750000        2.4113920600       11.2216538400
  H        -0.5086272600        6.2074299500        9.2583530600
  H         6.3457994900        8.6703802100       10.9230877800
  H         6.3874338800        0.4484108900       10.2177854400
  O         6.5555848200        9.1008708500       10.0422821300
  O         7.8679081000        6.3150717700       13.0560161100
  H         3.8978566100        5.8603957300        9.4522856500
  H         9.7757033300        2.6824153500       12.1400364800
  H         8.6993087000        6.8120553700       12.9692014700
  H         8.6552800500        0.6032199800       13.0715675100
  H         0.4037580800        8.4066696900       11.5736700700
  H         8.5117668900        3.5673591300       12.2323738400
  O        10.5977668500        8.1165454800       11.4085855700
  O         9.6077592900        0.7626550600       12.8047302200
  O         9.4393329400        3.5689916000       11.8804461800
 Cl         5.3481185900        7.9681583900       12.5576119000
  H         1.9908920200        3.5859955100       12.5704678600
  O        10.7375084500        5.7524392400       12.6281298600
  H        10.2700983600        4.8986878300       12.3236860800
 Cl         2.6194873800        5.5490286700       12.2565909700
  O         6.8293974700        3.0468846800       12.7648720000
  H        10.5715959900        7.2093957800       11.8619615100
  O         1.5160461800        2.7105991200       12.4881751500
  H         0.5669428800        5.6045657600       12.5060132400
  H         6.1570877400        3.6447312900       13.1963698500
  H         6.8363585200        2.2054413500       13.2959232700
  H         9.8877080500        9.6047382300       12.3225636000
  H         6.4430290600        9.5849191100       13.2174799000
  O         4.9601390000        4.5573871800       14.1202101900
  H         4.4732046100        3.8600823000       14.6462272800
  H         2.0737063300        9.3494705500       12.7193030000
  H         1.9536404400        2.0621089800       13.0853523400
  H         7.4177975200        6.0656663900       14.6510952900
  H         3.0767068300        2.0962185800       15.2987660700
  H         4.2730941800        4.9872734200       13.5423557100
  H        10.3430100000        0.9941981500       14.3427492300
  H         6.0223704600        5.5430020400       15.0860712800
  O         7.0665367100        0.5162952900       13.7322649300
  H         7.0480421200        0.0610633800       14.6252619000
  O         3.7799976000        2.6718373000       15.7056856200
  O         1.9586492900        8.8173725500       11.8978811400
  O         6.8317412400        5.9942452500       15.4704291900
  H         3.3560650200        3.2920875700       16.3706788900
  H         6.7799189900        7.7556035100       15.7658129100
  O        10.7725374300        1.1153860200       15.2432947000
  O         2.1882013700        0.7556156500       14.4444735900
  O         6.8339237300        8.7182425700       16.0169194700
  H         1.2682471900        0.7513377200       14.8485707000
  H        10.4874837700        2.6522830800       16.1177255100
  O        10.4506270000        3.4142435400       16.7628282200
  H         2.4628926600        7.9845077100       12.0557024000
  H        10.2107477300        0.5879619600       15.8801088300
  H         5.5663160400        0.1138951000       16.7152530400
  H         4.7055124000        1.4768306700       16.5734343900
  H         2.6814482700       -0.0421493400       14.8093998600
  H         9.4997675800        3.7032951400       16.8563590100
  H        10.5523402000        4.9870034100       15.7409744500
  O         5.1611843400        0.8678389900       17.2240940400
  H         7.7084285800        8.8568538500       16.4846697000
  H         7.5727040100        5.0420364300       16.5953604200
  H         6.4983827100        1.6115337700       17.8234401600
  O        -0.6194931000        5.9025404200       15.3702982400
  O         7.4004571800        1.9816238200       18.0927845700
  O         3.5233848200        8.1680113300       15.2864722100
  H        10.6092400000        5.7964226500       14.3825932000
  O         7.9868059900        4.4557287400       17.3078361900
  H         3.9960396300        7.8607331800       14.4768498100
  H         7.4669980000        2.9011463600       17.6969439300
  H         2.7858463000        7.5157620500       15.4874650500
  H         8.5248737300        0.8352764800       17.4382149100
  H         0.7355356900        6.4567250400       16.0115104700
  H         3.9584376500        0.5300789800       18.4567607100
  O         9.0600454900        0.0541390000       17.1087136500
  H         8.0930125300        4.9987863600       18.1317332100
  O         1.6398835900        6.6516209200       16.4409369500
  O         3.2618148400        0.4404822200       19.1614360800
  H         2.9377132000        1.3576021900       19.3433457300
  H         9.5596207900        9.4176990800       17.9241893300
  O        -0.2668535000        2.4419364000       19.2691478400
  H         1.4930169700        7.2388299100       17.2263881700
  H         1.3542790500        2.9522809200       19.6696646600
  H         2.3093499400        5.1743354400       17.1216179900
  O         8.3028741900        5.4041503000       19.9261271300
  H        10.7330509800        2.7943945600       18.3356787900
  H         2.5901075300        3.6934316100       19.0097019500
  O         2.3413277600        3.0832535100       19.7644386100
  H         7.6399520100        5.9594632900       20.4203947200
  H         7.9278212200        2.4109994500       21.2616068500
  H         3.7573121100        5.1948617900       17.6006585500
  H         8.1290187600        4.4562882600       20.1934032400
  H        10.0815754200        2.6914031600       19.7875719200
  O         2.9913310700        4.5556533200       17.5234850700
  O        10.4427099300        9.3932285000       19.4171914500
  O         8.3091490800        2.7599331700       20.4242686000
  H         2.2726753700        8.9118231200       18.9197510600
  H         9.6850953700        5.4603702900       21.0273174500
  H        11.2831173100        8.8594436300       19.2943178900
  O         8.7023263500        9.0501828300       21.4866413900
  H        10.7196722100        0.6947206500       19.3745532800
  H         9.3525225900        9.1506161800       20.7307249900
  O         1.6077031300        8.1283643600       18.8379763700
  O        10.3834153600        5.2609981800       21.7156303600
  H         7.8239831400        2.3347752200       19.6441705200
  H         8.3830539100        0.2907480300       21.6787805200
  H         7.4240539900        7.8739693400       21.4296595700
  H         2.7365142600        3.3730736500       21.3601140400
  H        10.6096101900        6.1071965000       22.1610198800
  O         6.8768725200        7.0602918400       21.6455880100
  H         1.9654762900        7.4458698800       19.4327122800
  H         5.4119737400        7.5282138300       22.4762396500
  H         7.3702311400        6.7298389700       22.4467777800
  O         2.8669486100        3.4303604700       22.3670430500
  O        11.0156733300        9.4578021100       24.5387972400
  O         4.6591561300        7.8499649200       23.0559858000
  O         7.6335856000        1.9095193900       23.0741960300
  H         9.9041534900        4.2929614800       22.8147090800
  H         2.1043442200        2.9179815900       22.7485048600
  H         4.0663587900        7.0851424500       23.2642714000
  H         0.2100267900        8.5797944600       24.1372127700
  H         6.7192445100        2.2552455900       23.2700080800
  H         8.3009242700        2.6157987900       23.3327337900
  H         4.2562089900        2.8161066400       23.1237484600
  H         0.3386170200        0.6160266400       24.1588752100
  H         2.7891955600        4.9817367100       23.0911168300
  O         0.3650082000        7.0619454200       23.6511993500
  H         1.2765958900        6.6298482800       23.6507404800
  O         2.7797888600        5.8366597100       23.6281637000
  O         5.0179269400        2.5176536200       23.7185517700
  O         9.7054821200        3.5736704500       23.5427022700
  O         0.8156472300        2.1329442700       23.7371066400
  O         8.3801057900        6.7013342300       23.8795451400
  H         7.9527850900        0.6178509700       24.0775510900
  H         5.0574562000        8.8328462300       24.0403225500
  H        11.1128388400        2.6702001500       23.6363333400
  H         8.2987306500        7.6712610600       24.0530107200
  H        11.0113884400        6.5837228500       24.3439422900
  H         9.6341923600        4.0480674600       24.4022097300
  H         5.0853693800        0.8376270100       24.3120250700
  H         9.3747002300        9.5671586500       24.3921222000
  H         4.9791945900        3.0994881600       24.5117304200
  H         2.8994105900        5.5533363300       24.5682453000
  O         8.3832905700        9.4878704900       24.5523122100
  O         5.4536912300        9.6234406100       24.6272797300
  H         1.1401619600        2.4062557800       24.6399301700
  H         7.9514315000        6.2895772200       24.6639935200
 Pt         2.5334554800        9.4246277400       26.8734176100
 Pt         5.3479421900        9.4276281200       26.7461711600
 Pt         8.1795897900        9.3613900400       26.7368950100
 Pt        10.9696472600        9.4225968700       26.7985403600
 Pt         8.1469412800        4.5515797000       -0.0562383800
 Pt         3.9766546200        6.9905097600       26.8347640000
 Pt         9.5156297300        6.9530737800       26.9196556500
 Pt         6.6997765100        6.9645833600       26.8816106800
 Pt        10.9211414300        4.5785334400       26.7899660800
 Pt         1.2485839500        6.9884300400       26.8825865100
 Pt         9.4871666500        2.1890063500        0.0725211800
 Pt         6.6957635100        2.2264455300        0.0874477100
 Pt         2.4995043700        4.5803797200       26.8311673800
 Pt         5.3695984200        4.5980705700       26.8303044100
 Pt         1.2149051800        2.2047990200        0.0658547600
 Pt         3.9436058400        2.2350772100        0.0481142800
  H         8.6696989200        2.0078840500        9.0308623400
  O         4.6671498900        6.7209781300       17.5956121300
  H         4.3612250900        7.2898689200       16.8470150600
  H         5.6292317000        6.6649186000       17.4608605900
