     243
Tv_1:  11.152900   0.000000   0.000000 Tv_2:   0.000000   9.658700   0.000000 Tv_3:   0.000000   0.000000  26.829700
 Pt         5.7155790148        8.0479653731        2.3794933057
 Pt         7.1219686393        0.7750151358        2.2122251653
 Pt        11.3245250495        8.0481081662        2.5297805260
 Pt         8.5899565203        7.9850717017        2.3628425758
 Pt         8.5860401670        3.0721921618        2.3592196508
 Pt         2.9907412935        8.0805218342        2.4150836731
 Pt         9.8888577030        5.5141032939        2.4659237660
 Pt         7.0955081902        5.5015002376        2.2696745476
 Pt         5.7079590554        3.1418593231        2.3253496387
 Pt         4.3747424683        5.5709041495        2.3303417647
 Pt        10.0283040222        0.7621510735        2.2927083054
 Pt         1.5235039984        5.7065823741        2.3857709466
 Pt         1.5899069951        0.8608791316        2.4173688880
 Pt         2.8404667164        3.3215342124        2.2839566217
 Pt         4.3248187019        0.7349163076        2.3069488417
 Pt        11.2336580961        3.1668685915        2.3402449453
 Pt         5.5596692241        6.5785073191        4.6271168730
 Pt         8.3549966466        6.4555110879        4.6456678615
 Pt         6.9318114766        8.9795509328        4.5518372611
 Pt         6.9021925792        4.0772034440        4.6717731141
 Pt         8.3727802887        1.5576839413        4.5479230981
 Pt         5.5698698120        1.7064165331        4.7051038952
 Pt         9.7384938166        4.0440810961        4.7446829571
 Pt         9.7618040240        8.8514765235        4.8329117249
 Pt         1.3912413294        8.9847011790        4.7441868632
 Pt        -0.0506402671        6.4811022553        4.8481459372
 Pt         2.8469934816        1.7842728297        4.6342119899
 Pt         2.7573695950        6.6295156681        4.7492485825
 Pt         4.2344452179        9.0560029393        4.7073972870
 Pt         4.1959082957        4.1664707004        4.5570199897
 Pt        -0.1185272969        1.7292551860        4.7483692411
 Pt         1.3817855230        4.1743563261        4.6189044007
 Pt         6.8728068792        2.5099612435        6.9343618545
 Pt         9.5720209893        7.4218842344        7.1003248297
 Pt         8.1657995037        5.0380277474        6.9423249978
 Pt         8.2259893239        0.0102717202        6.9646054399
 Pt         5.5180788193        0.1571217007        7.1842062788
 Pt         2.5999495789        5.0027979700        7.0324210587
 Pt         2.7123401082        0.2965491619        7.0359525307
 Pt         6.7441240453        7.4715213895        6.8484100025
 Pt         4.1191382645        2.6304937587        6.9481529418
 Pt         1.1798840186        2.5996558111        6.9461494318
 Pt        -0.3253192589        4.9447714904        7.1444280365
 Pt         9.6025129922        2.4401752178        6.9541353491
 Pt         5.4512585479        5.1161173123        7.0504747278
 Pt         0.0372958883        0.1740267608        7.0016420469
 Pt         0.9750582705        7.3310078391        7.1746501131
 Pt         3.9167744042        7.4365738679        7.0089058813
  O         5.2570981186        5.2604010890        9.0843252958
  O         1.0871592946        7.5650191018        9.3435340134
  O        -0.2348826952        4.9107805954        9.2605144116
  H         3.3397976042        1.8301807054        9.3429955300
  H         7.2101501421        5.9920791490        9.6475251816
  O        -0.2739892534        0.0407674920        9.1487183270
  H         0.7168772729        8.4945402920        9.5270503836
  H         3.1405884342        3.8639153939        9.2848785078
  O         8.2068043244        0.2129588237        9.0518145914
  H         9.8788553889       -0.0292246989        9.2729399793
  H         0.0492332057        1.0152014032        9.6887543477
  H         0.7183791265        4.9549252879        9.5253447205
  H        -0.2368356749        2.7034417409       10.3980463144
  H         7.2276933385        9.6588902614        9.3119787367
  C         6.4816045224        5.1832703321        9.8797206104
  H         2.1058203733        7.6366481868        9.4063983202
  O         8.2902050883        2.6015581342        8.6097645956
  H         4.2576384537        6.7526474300        9.4532492615
  H         7.0303976599        4.2369452552        9.7000924305
  O         3.7787313472        7.5948989181        9.1155902071
  O         3.7854414415        2.6806437001        9.1069323942
  O         0.5406058322        2.1826728010       10.2108456981
  H         1.1877087963        2.1785950370       10.9736029021
  H         8.7230977898        7.8606370986        9.3918487133
  O         9.3622829833        7.1762979754        9.0921612117
  H         5.0700443872        2.6057624581       10.1890048266
  O         5.7735709001        2.1629230380       10.8336230456
  O         2.4609852952        4.7003862893        9.2241346578
  H         6.2287075012        5.1000729515       10.9489529935
  H         8.2513310996        7.6135012508       12.8294997725
  H         5.9527498452        2.5259568129       12.0470074280
  H        -0.7120811410        5.7701114599        9.4730863401
  H         5.2034831588        8.5932387392        9.5262148328
  H         5.8729170336        1.2002745613       10.6347667094
  O         5.6749475969        9.4390913720        9.1970130112
  O         8.8559394364        7.4139442460       13.5338256438
  H         2.8195949919        5.3894366489        9.7418375550
  H         9.1568377520        2.6352587251       11.9543722491
  H         9.4831053050        6.7237363331       13.2566644774
  H         8.4966511028        1.0340121954       13.5204310955
  H         1.3027375467        9.1047450991       11.9819928799
  H         8.8736132629        3.5328965437       10.5900974806
  O        11.4848199343        9.0720361645       11.9198764163
  O         9.3915435804        1.2895200319       13.0890798067
  O         9.4283990284        3.4787785259       11.4104070229
 Cl         5.8786474265        8.5047169112       12.3963456728
  H         2.3316145084        3.5884847047       12.0934877945
  O        10.9075793097        5.6939044291       12.6852202258
  H        10.4079011072        4.9712803877       12.2588837695
 Cl         2.6098226436        5.7426871760       11.9334607533
  O         6.0418897019        2.7379807907       13.1598468758
  H        11.3873321371        8.1081018765       12.0890892284
  O         2.4004017503        2.5852763056       12.1904152698
  H         0.6193149312        5.7059614856       12.1254841816
  H         5.4444682338        3.4818658955       13.5312434908
  H         6.0725872684        1.9649338890       13.8481522332
  H         9.8581037533       10.1004484192       12.8138428133
  H         6.8071921118        9.6039965630       13.5997431500
  O         4.5565480744        4.6896812046       14.1007463829
  H         4.0930159546        4.2985682711       14.8895495315
  H         3.2845112855       10.6584226623       11.5129590004
  H         2.0260048459        2.3858706370       13.1099950318
  H         7.7320359152        6.2376368512       14.2764513136
  H         2.9916631813        2.8097975142       15.6155571719
  H         3.9943390437        5.1947917887       13.4400845692
  H        10.0791922938        1.6278662131       14.5801219530
  H         6.2329312272        5.5573116515       14.5029350919
  O         7.0112577251        0.6692201561       14.3130722413
  H         6.7711852794        0.2579877259       15.1693882191
  O         3.7290409928        3.2467269660       16.0872133200
  O         3.0174297799        9.8804548338       10.9473559623
  O         7.1171041574        5.7097854344       14.8849218333
  H         3.4901506667        4.0103117372       16.6970133605
  H         7.0059107035        7.2127198192       15.8716414572
  O        10.5248024992        1.5719112678       15.5367877934
  O         2.0148746785        1.7401953251       14.7867199257
  O         6.8227524733        8.0089218700       16.5227335443
  H         1.1584156528        1.5572357201       15.1786691487
  H        10.3839904748        3.0644621092       16.2509245244
  O        10.3785515947        3.7965459347       16.9252408112
  H         3.7718284484        9.2992854218       11.1587255000
  H        10.0348930414        0.9483110820       16.0898464344
  H         4.6292989835        0.4847977143       16.4641827921
  H         4.4392714535        1.9451148997       16.8421403759
  H         2.4839877425        0.8751759218       14.9798957043
  H         9.3844868687        4.0863879369       17.0140192451
  H        11.4525201663        4.8262955754       15.7598840599
  O         4.8082335514        1.0620203206       17.2295876333
  H         7.6659109963        8.4003910342       16.7779926984
  H         7.5374532615        4.6099784358       15.8893543461
  H         6.3914463490        1.4826922771       17.7689795776
  O         0.9410003235        5.3172962487       15.1481975156
  O         7.2871774324        1.7596726428       18.0928422756
  O         3.8478854344        9.0876797878       15.0665862592
  H        11.6224165199        5.2185561428       14.3022839636
  O         7.8260083465        4.1963782617       16.7305263094
  H         4.1007024506        8.6068737362       14.2838523135
  H         7.3969928815        2.5199485370       17.4784120589
  H         3.4786248427        8.4200795267       15.6806973712
  H         8.6714095790        0.5767251927       17.3993282994
  H         1.7844030771        6.5598976526       15.6513490732
  H         3.9870017573        0.5563960021       18.7053166324
  O         9.1461222812       -0.2186673403       17.1599435759
  H         7.2844984301        4.7086242740       17.2984302009
  O         2.3048266176        7.1355004982       16.4072320319
  O         3.4317312030        0.3790304854       19.5082724105
  H         3.2109602129        1.3103700239       19.7904260732
  H         9.7629251323        9.2692153564       17.9615998879
  O        -0.0540147381        2.7280184471       19.1380839309
  H         1.6362589141        7.3515019338       17.0982979124
  H         1.6705352445        3.2136048314       19.8122962623
  H         3.1924533702        6.0194047110       17.6024162944
  O         8.0132470039        5.2268819332       20.3685601914
  H        11.0293658926        3.0876243553       18.1961633871
  H         2.9369685858        3.9411822403       19.3803092682
  O         2.6560654255        3.1582727429       19.9294921117
  H         7.4661076226        5.6084878881       21.1060864951
  H         8.4574311700        2.4042938750       21.2721670265
  H         4.4627786182        5.4204042857       18.2188380259
  H         8.0781847225        4.2416886164       20.5246306572
  H        10.2715389862        2.7836636290       19.6477203034
  O         3.4881662598        5.2634560597       18.1752911225
  O        10.6617781861        9.5876528223       19.4783953428
  O         8.6169474691        2.7741920435       20.3431102591
  H         2.3507880652        9.1711393706       19.1073810032
  H         9.6193273950        5.2338618275       20.7698920841
  H        11.5215988343        9.0648203432       19.3279945942
  O         8.4793409772        8.9691792277       21.0072754157
  H        10.8037190560        0.8753061360       19.2447285195
  H         9.1423194054        9.0215639545       20.2795740489
  O         1.6823212851        8.3708448831       18.8571428362
  O        10.4441375572        5.0322556709       21.2931275007
  H         8.0759202797        2.1757588676       19.7117310629
  H         8.7762058138       -0.0542554841       21.6790740867
  H         7.6204401035        7.6724005093       21.4668872870
  H         3.2441992793        3.5644792672       21.4377328958
  H        10.8482710635        5.8868936731       21.4587884544
  O         7.1704678264        6.9642852843       22.0979306171
  H         1.8565536920        7.6228096176       19.3430561150
  H         6.0611379193        7.4289320300       22.8681910368
  H         7.8340825740        6.7697797755       22.7871658757
  O         3.4014123823        3.9578053767       22.3142917006
  O        11.4875130295        9.8074130898       24.3956924653
  O         5.3365400278        7.6971255665       23.5852679032
  O         8.1493907163        1.9575023700       23.1443290612
  H        10.1626528243        4.5543272147       22.5652214841
  H         2.6378731421        3.5852100043       22.7987614688
  H         4.4397076613        7.2411239259       23.4113038402
  H         0.4666736035        9.0016451447       23.8339611350
  H         7.2153505263        2.4648590950       23.1920803502
  H         8.7447845106        2.6825159247       23.3268684991
  H         5.0530269878        3.5055272303       22.9385597587
  H         0.7289518916        0.9729045576       24.0789411403
  H         3.1124373468        5.4018922620       23.1680883578
  O         0.2027837857        7.3621803707       23.3610646177
  H         0.9112162177        6.7012845767       23.4446480916
  O         3.0168086206        6.3315701854       23.5243890137
  O         5.9558271501        3.4164214292       23.3691064559
  O        10.2113741649        3.9804696088       23.4660716275
  O         1.2238132250        2.5471716463       23.7872493431
  O         8.9161538335        6.6834757588       24.0640066638
  H         8.3982172229        0.6412672961       24.2390294590
  H         5.3348864782        8.7746058177       24.1297180765
  H        11.4992569715        3.1299920709       23.5732550285
  H         8.7971044730        7.7623910809       24.1532637312
  H        10.5402175655        6.9257062984       23.7801101388
  H         9.9349405017        4.5157304328       24.2198826092
  H         5.3128674443        0.8456204248       24.3870202217
  H         9.8496565178        9.6558603654       24.5098816315
  H         5.8116960518        3.6668112148       24.3281386728
  H         3.0390957503        6.2568521614       24.4539512137
  O         8.8092468780        9.4122501641       24.6046443635
  O         5.8448920540        9.6795762962       24.6992094637
  H         1.2942717322        2.7112467906       24.7802957615
  H         8.5243345718        6.3988114242       24.9844976305
 Pt         3.0045496769        9.6293631247       26.8932464999
 Pt         5.8369118324        9.4832686139       26.7083162900
 Pt         8.6546930682        9.4589530786       26.7539507681
 Pt        11.4369484934        9.4307839232       26.8146559324
 Pt         8.7205199459        4.6173791861        0.0146731863
 Pt         4.4357643325        7.0986997297       26.9144263623
 Pt        10.2388047762        7.0316949297       26.9823323459
 Pt         7.1553272249        7.0302846142       26.9610521691
 Pt        11.4446310933        4.6213803365       26.7996512710
 Pt         1.7540106970        7.1230224650       26.8264295348
 Pt        10.1007188439        2.2339335480       -0.0368366371
 Pt         7.1281150206        2.2417403676       -0.0837275499
 Pt         3.0335079419        4.6376700752       26.7740761601
 Pt         5.8909480873        4.6382252541       26.6898234973
 Pt         1.5489394130        2.2470090920        0.0794515828
 Pt         4.4162135930        2.2575144656        0.0715234431
  H         8.2367739732        1.5774719577        8.9052992028
  O         6.3196757444        6.1020692821       18.3842773506
  H         6.5050678296        6.8025741123       17.7060278031
  H         6.9616173040        5.9130631300       19.0804043297
