     243
Tv_1:  11.152900   0.000000   0.000000 Tv_2:   0.000000   9.658700   0.000000 Tv_3:   0.000000   0.000000  26.829700
 Pt         5.7251837835        8.0003086350        2.1467738141
 Pt         6.9999337975        0.6846552410        2.3796995390
 Pt        11.3613892767        7.9840091645        2.2756926676
 Pt         8.4520565840        7.9575616792        2.2230263946
 Pt         8.5146460446        3.1176851884        2.3629324516
 Pt         2.9720216082        8.0151329973        2.2319843431
 Pt         9.9856108155        5.5451014231        2.3198841047
 Pt         7.2850160989        5.5693633359        2.3225632049
 Pt         5.7288247315        3.0649639457        2.4955564394
 Pt         4.4265427985        5.5138537386        2.3298518239
 Pt         9.7898544589        0.7053611147        2.3736691779
 Pt         1.6266182742        5.5761814844        2.3282516450
 Pt         1.3463901504        0.6580292484        2.4443880736
 Pt         2.8665613537        3.0749558866        2.4476244148
 Pt         4.2551115477        0.6648031290        2.3027206258
 Pt        11.3060323956        3.0372114051        2.4351240361
 Pt         5.6248154590        6.4707072934        4.5183019689
 Pt         8.3686647043        6.4885324394        4.7359710993
 Pt         6.8735247480        8.8911957786        4.5940037978
 Pt         6.9968044946        4.0412257459        4.5555865943
 Pt         8.3336193549        1.5999208618        4.6344933427
 Pt         5.5546461905        1.6346966109        4.7232400268
 Pt         9.7561639859        4.1959315854        4.7009510530
 Pt         9.6749278804        8.9103611639        4.6395302800
 Pt         1.2667825576        8.8848950366        4.6643217464
 Pt         0.0917175321        6.5564267386        4.7661491147
 Pt         2.7274315716        1.6481831308        4.7253508742
 Pt         2.9036651875        6.4950148962        4.6902731695
 Pt         4.0324347590        8.9272721404        4.6128659732
 Pt         4.2054616068        4.0680319330        4.7611440285
 Pt        -0.1156921602        1.6975177174        4.6783537025
 Pt         1.3811173056        4.1129150282        4.7302441209
 Pt         6.8109986127        2.5600881572        6.9488390745
 Pt         9.5343622400        7.4984889004        7.0147936827
 Pt         8.1108018125        5.0473171982        6.9721090084
 Pt         8.1073738296        0.1651941207        7.1128787243
 Pt         5.3127732181        0.2895021532        7.0255731643
 Pt         2.6432426522        5.2468302722        7.0666741798
 Pt         2.5932670419        0.2966194390        7.0142131166
 Pt         6.7601966962        7.5774003114        6.8660158421
 Pt         3.9607720495        2.6424851889        7.0503970441
 Pt         1.2576082160        2.6763420772        7.0644120658
 Pt        -0.2836936808        5.0126904001        7.1520773526
 Pt         9.6510737681        2.5202020645        7.0392809322
 Pt         5.4604595151        4.9818982124        7.0157947078
 Pt        -0.1766113662        0.2818914304        7.0397638443
 Pt         1.0723843658        7.5140701553        7.1312375050
 Pt         4.0157203829        7.4396614119        7.0074516002
  O         5.3872395501        5.2241597173        9.2203082742
  O         1.5411754173        7.5790703095        9.0519094256
  O        -0.4370016249        5.0606005815        9.2636122747
  H         3.1270461011        1.7218248829        9.5200276811
  H         7.0748998216        6.3666211669        9.6359957679
  O        -0.4017537714        0.4302908825        9.1950245344
  H         1.2768750985        8.4529666847        9.4588649189
  H         3.0370914245        3.4772966515        9.2931518222
  O         8.0553409144        0.3573313619        9.1891594199
  H         9.7294167517        0.3963415103        9.3087423169
  H        -0.2973445200        1.4305764618        9.6179984028
  H         0.4134506342        5.2651104527        9.7103762738
  H        -0.6099271527        3.4849870308        9.9964510198
  H         6.6574701602        9.6751564347        9.2446314822
  C         6.5531762715        5.4638005387       10.0580939294
  H         3.3214276655        7.5446956387        9.3472297722
  O         8.1372498944        3.4488052737        8.1464366291
  H         4.9165943669        6.0899001603        9.1301010552
  H         7.1940578587        4.5859897523       10.1401611412
  O         4.3152077555        7.5115971030        8.9987234042
  O         3.6252864157        2.5533579597        9.1662939425
  O        -0.4823926607        2.5842364571       10.5081999656
  H         0.1553335067        2.6890396585       11.3102205256
  H        10.0194774121        7.7434137291        9.8117808612
  O         9.4446332581        7.1531177094        9.3414351101
  H         5.2101120253        2.6466830845       10.3317845090
  O         5.9318478444        2.2180453758       10.8436971703
  O         2.3212974505        4.7179266204        9.0557223719
  H         6.0644863884        5.7334647213       10.9767512470
  H         7.0445744664        8.4116227838       11.6814023800
  H         6.4946650527        2.8751312377       12.0792069238
  H        -1.1977382650        6.2255907147        9.3489846844
  H         5.0623597815        8.7713057664        9.2493947571
  H         5.5633154098        1.3407587325       11.0433186973
  O         5.6020109865        9.6367828698        9.1680001622
  O         7.9313355471        7.9695958359       11.8886936396
  H         2.8532136083        5.2993009480        9.6185329743
  H         9.1467913418        4.2865681615       12.6744980284
  H         8.3334677015        7.7784963661       11.0751370134
  H         8.3702035579        0.4999477055       13.4053730522
  H         0.5007689021        9.1653467273       11.5395568367
  H         8.4234074965        5.6030859868       12.9964623072
  O        10.8022056609        8.7698944587       11.7330130641
  O         9.3114721542        0.7464500855       13.5418997418
  O         9.3221650606        5.1871883228       12.9556392120
 Cl         4.6833572071        9.4638436773       12.1433291580
  H         2.0722741371        3.3837751921       12.0974969111
  O        11.9166276944        6.5405571486       13.4284688409
  H        11.0901098254        6.0646019624       13.2963190829
 Cl         3.0786129423        5.1068560906       12.1606574654
  O         6.8025837383        3.3625928067       12.9903161397
  H        11.0224232990        8.0195105616       12.3022603208
  O         1.4673144500        2.5877598868       12.1717886337
  H         1.4686570010        6.0565942568       13.0187497117
  H         5.9459034408        4.0105886400       13.4022848166
  H         6.6583232025        2.6269173989       13.7516828811
  H         9.7693238942        9.9023988515       12.8323523758
  H         5.6234925977       10.4721094956       13.8578101732
  O         5.1229470139        4.7813977828       14.1549019331
  H         4.5754554655        4.3218692299       14.9347712800
  H         2.0116878430       11.1554399681       11.0352998755
  H         1.5171098419        2.3099582815       13.1754470638
  H         7.1209684022        7.1224329973       13.1698724470
  H         2.7290761123        3.4282801224       15.5111183319
  H         4.3933566717        4.7438380536       13.5314366573
  H         9.8673489291        1.7717158826       14.7379653271
  H         6.1354488841        6.3559856117       14.2638535095
  O         6.3360791697        1.2694721517       14.3949358695
  H         6.5306914517        0.5911195913       15.1227812396
  O         3.4305287702        3.7118665623       16.1637312215
  O         2.2234631135       10.4129291538       10.4291633098
  O         6.9963588115        6.8182818691       14.1220585212
  H         3.1503648393        4.6105733467       16.5478560480
  H         7.1685831061        8.2187105607       15.3896153126
  O        10.3365105841        1.9925527462       15.6537188451
  O         1.6998034859        2.0032067216       14.6184215959
  O         7.1045963164        8.8610852731       16.1567411712
  H         0.9177272760        1.8202324645       15.2112593714
  H        10.5630001399        3.5197174507       16.5407585174
  O        10.6103449729        4.3062997742       17.1354172707
  H         2.8955013860        9.9217992431       10.9056604879
  H        10.1152313852        1.2422778926       16.2892260190
  H         4.6927808154        0.7338178567       16.8089731513
  H         4.3483131859        2.2267992036       16.8896795616
  H         2.3318410755        1.2838850022       14.9556585411
  H         9.6290052589        4.4876547432       17.1304419521
  H        11.8207335572        5.8413948452       16.7014886352
  O         4.9198259371        1.5333166131       17.3345603316
  H         8.0543592172        9.0827032014       16.4045657698
  H         8.0829814099        4.8874138002       15.6797965677
  H         6.6132272752        2.0473691209       17.7223903635
  O         1.3975258280        6.3704578377       16.3070764450
  O         7.5493809811        2.1479658222       17.9070103764
  O         3.4032245028        9.7183508293       15.5705816577
  H        12.5275767112        6.2765813560       15.3300415686
  O         8.0531742993        4.6218830729       16.5571378229
  H         3.4720071434        9.2557498597       14.7528512705
  H         7.9562458294        2.8663823136       17.2883776377
  H         2.9803589161        9.1280953735       16.2826756928
  H         8.6285068208        0.9235663692       17.7390253681
  H         1.8666232607        7.6389836620       17.3312693565
  H         4.2443821552        1.4373775890       18.9656102796
  O         9.2076228331        0.1457012024       17.4908722110
  H         7.3725166926        5.1407892198       17.0342402368
  O         2.4776631395        8.3827478428       17.6962601814
  O         3.7823648476        1.3498606460       19.8317145660
  H         3.6580859483        2.2861038881       20.2019599405
  H         9.7605629852        9.6783813774       18.2706120830
  O         0.2520334757        3.4365236556       19.4929647959
  H         2.4947616353        8.4581588342       18.7318505602
  H         1.9695226138        3.8574443108       19.9376994109
  H         3.6950884910        6.6703298056       17.7798051054
  O         8.4203203534        6.2774625437       19.8374358462
  H        11.1823011227        3.7160785692       18.5714491746
  H         3.1349983383        4.7636190988       19.3472462328
  O         2.8717269275        4.2061244060       20.1132381324
  H         7.9391731494        6.7040995849       20.6294171727
  H         8.3903166854        3.2411030574       21.0601970229
  H         5.0780415684        6.0326354800       17.9317859617
  H         8.2333751398        5.2519279163       19.9533907615
  H        10.5080125476        3.3533083898       19.8819239016
  O         4.1444030055        5.7953605182       17.9894123142
  O        11.4813981904       10.1641624871       19.9387595238
  O         8.5716268464        3.5016985525       20.1166712083
  H         3.1920046471        9.2717846861       20.6736632113
  H         9.8667579133        6.2590016815       20.7630516357
  H        12.3521980664        9.7139917657       19.7517967832
  O         9.5387636416        9.9676932931       22.0218735301
  H        11.5978715161        1.4412242727       19.6068728363
  H        10.2750321567        9.9461674055       21.3779138525
  O         2.5381221519        8.5498753402       20.4745769372
  O        10.7020956218        6.0126435403       21.3609866223
  H         7.9843290009        2.9855982313       19.4900358430
  H         9.1510029663        1.1794613893       22.0529893417
  H         8.0629299498        8.4176808778       21.9461799496
  H         3.2873883050        3.9107380909       21.7208226550
  H        11.5142102089        5.7964067430       20.7575309102
  O         7.4267641825        7.7086361531       21.8569464840
  H         2.0136478702        8.2378844235       21.2338014584
  H         5.8562904422        8.2298537551       22.0234290531
  H         7.4515518516        7.0997317799       22.6628110669
  O         3.6074547241        3.7303695968       22.6678368278
  O        11.4139893369        9.5118415467       24.6326614213
  O         4.9804699947        8.4633789071       22.5252940703
  O         8.4721757028        3.1375053130       22.8215647697
  H        10.8377469192        4.6893057144       22.8011323352
  H         3.0453676397        2.9426496846       22.9456097101
  H         4.6612877798        7.6440254326       22.8557071589
  H         0.6556151392        8.7548706824       24.1581506876
  H         7.5871997919        3.1432545077       23.2194712014
  H         9.0290920877        3.7071253456       23.3937093372
  H         5.1413861031        2.9973493044       23.3137450189
  H         0.7145621684        0.7306054608       24.3600897429
  H         3.5639751884        5.2672496110       23.6907717407
  O         1.2162261004        7.6275150776       22.7811581546
  H         1.9096543144        7.0532575011       23.1176763536
  O         3.9918598106        6.1712978607       23.7632583585
  O         5.8946772057        2.5877329159       23.7789385972
  O        10.9125023855        4.2634784818       23.6686913987
  O         1.3163465206        2.2371830594       23.8677408647
  O         6.8896525411        5.5774207827       23.4831451649
  H         7.8187843289       -0.1453937594       24.2588903687
  H         5.7376515343        9.2875296257       23.7095096170
  H        11.7934591833        2.9447397041       23.8396278994
  H         6.8045407067        5.1101935650       24.3705669686
  H        11.6592584132        7.0316463726       22.3984487955
  H        10.7905598782        4.9439652030       24.3717415018
  H         6.0597907613        1.0960111068       24.1584600374
  H         9.4876774548        9.7489907171       24.3546121315
  H         5.7737926516        2.7968367577       24.7673167235
  H         3.8614661850        6.6161304859       24.6595058608
  O         8.7088293514        9.2013599756       24.6396602413
  O         6.1598551394        9.7912614538       24.4543671538
  H         1.7833050052        2.4150459198       24.7655517111
  H         5.9313451336        5.8635789544       23.5186573535
 Pt         3.1857588652        9.3021968220       26.5933742480
 Pt         5.9496809946        9.2259870310       26.6086651863
 Pt         8.7528348531        9.4601056156       26.8451047808
 Pt        11.5617929251        9.3329814801       26.7454086526
 Pt         8.6644581125        4.4064341236       -0.1553327450
 Pt         4.4669108598        6.8790144370       26.8401572044
 Pt        10.0966331023        6.7728365040       26.8970089312
 Pt         7.3132382910        6.8604160766       26.8137340057
 Pt        11.5328584796        4.3886367267       26.8019879778
 Pt         1.7167607266        6.8524972925       26.6956627778
 Pt        10.1417980983        2.1366836108        0.0713315335
 Pt         7.2533120950        2.1216156389        0.0654904366
 Pt         3.0880895093        4.5033442163       26.8399794938
 Pt         5.9856348995        4.4587618641       26.8178991353
 Pt         1.7465312068        2.1424120220        0.0530533803
 Pt         4.4643377157        2.1576271430        0.0908812977
  H         7.8620115333        1.3697385928        9.5014349404
  O         6.6688866875        6.6557715971       17.7763321753
  H         6.7965988701        7.4320236157       17.1416607062
  H         7.2571359868        6.7587944700       18.5632021584
