     243
Tv_1:  11.152900   0.000000   0.000000 Tv_2:   0.000000   9.658700   0.000000 Tv_3:   0.000000   0.000000  26.829700
 Pt         5.7126580657        7.9534901398        2.4286855608
 Pt         7.0458118138        0.7193017998        2.3569295937
 Pt        11.1449525512        7.9733148130        2.3979665297
 Pt         8.5212919597        7.8933971234        2.4377093803
 Pt         8.5000461036        3.1884964074        2.2737804379
 Pt         2.7724285015        7.9322972496        2.2819419433
 Pt         9.8652941575        5.5359189639        2.3579891278
 Pt         6.9186406080        5.4298368259        2.3189003283
 Pt         5.5357724414        3.0850349986        2.3735289627
 Pt         4.2705115547        5.6024623761        2.4718335110
 Pt         9.8906311043        0.7272353807        2.1727525483
 Pt         1.5076420384        5.5789783635        2.3808186712
 Pt         1.5119685673        0.5610435875        2.2839629396
 Pt         2.8141362199        3.1200372887        2.4451807480
 Pt         4.3689332706        0.6495350691        2.3191331704
 Pt        11.3115537807        3.1454154429        2.3226977967
 Pt         5.5707271093        6.4797268586        4.7595266695
 Pt         8.3192035048        6.4140416144        4.6470476417
 Pt         6.9475333485        8.9839659380        4.7209981290
 Pt         6.9215021890        3.9978586292        4.5899401219
 Pt         8.4699803411        1.6139921971        4.5426508709
 Pt         5.4861202578        1.5916374161        4.8385716655
 Pt         9.6938851596        4.0343325778        4.5501767929
 Pt         9.7407692714        8.8709340004        4.7025400922
 Pt         1.3402979721        8.8467557385        4.6565808232
 Pt        -0.1184048217        6.4129114935        4.6633640786
 Pt         2.7706777664        1.6135147053        4.6848740312
 Pt         2.7421656797        6.4723625830        4.7304199076
 Pt         4.0712856582        8.9029432379        4.6626073744
 Pt         4.2110042754        4.0246440828        4.7896959052
 Pt         0.0226756270        1.6130566510        4.6375448304
 Pt         1.4714325942        4.0052817581        4.6983424609
 Pt         6.9022790028        2.5262489159        6.9899333588
 Pt         9.7398799114        7.2900485970        7.0338757980
 Pt         8.2156992941        5.0520255847        7.0841649438
 Pt         8.2963737929        0.0978693457        6.9480812587
 Pt         5.4725292533        0.1611489985        7.0451869103
 Pt         2.8085922720        4.9453971987        7.0608246976
 Pt         2.8412844961        0.1784814177        6.9120584262
 Pt         7.0917462969        7.4710005567        7.0026316100
 Pt         4.1240763910        2.6268582561        7.1258332644
 Pt         1.4103293888        2.6310565625        7.0648099490
 Pt         0.0053696648        4.8966476168        6.9879005336
 Pt         9.7882832490        2.4975957459        6.9552611186
 Pt         5.4811796074        5.0654434008        7.0781078087
 Pt         0.1480217949        0.0946819417        7.0072040734
 Pt         1.2772377559        7.2340366850        7.0128459120
 Pt         4.1215331985        7.4321094229        6.9556523108
  O         5.4171636344        5.2614997555        9.2265911513
  O         1.6481562366        7.6088833806        9.1266308444
  O        -0.2508406370        4.8605569206        9.2147146028
  H         3.6101197736        1.9293713433        9.5447609882
  H         7.4815551868        5.9967666545        9.7051891922
  O        -0.2920108673        0.2029715316        9.0243085381
  H         1.5491580555        8.6024981014        9.3330460867
  H         3.1706940849        3.8147085892        9.3849874389
  O         8.1507199003        0.4673791844        8.9805249388
  H         9.8670229026        0.3335152156        9.1091014085
  H         0.0125483175        1.0173428925        9.6399759461
  H         0.6893528303        4.9797450960        9.5034914803
  H        -0.1862863291        3.1828156131        9.7052503670
  H         5.9772124299       10.0088460494        9.4319762030
  C         6.6337469637        5.3218490232       10.0306894594
  H         2.7022802609        7.5394000031        9.2021538301
  O         8.2890380955        3.4101080817        8.2787301369
  H         4.9646116077        6.1671961124        9.2796099141
  H         7.1116870740        4.3536183699        9.9185199149
  O         4.1648987518        7.5231669315        9.0657847170
  O         4.0982556494        2.7065247254        9.2387301091
  O         0.1203459405        2.3356094025       10.1454550798
  H         0.6739047031        2.5750706319       10.9342475894
  H        10.2607638038        7.8840906393        9.7465555542
  O         9.6956329540        7.1644573605        9.3367258491
  H         5.5741912729        2.7850633784       10.5286320465
  O         6.2270823364        2.3551524037       11.1264541234
  O         2.5762799164        4.7110110140        9.2877023715
  H         6.3997550792        5.5268806885       11.0934864023
  H         6.9680693656        8.5184616922       11.4460498919
  H         6.6657036379        2.8765998297       12.3000756869
  H        -0.9905386925        6.2381314735        9.4532456349
  H         4.7074428491        8.4145408776        9.2980140452
  H         5.8054153265        1.5392446103       11.5175132964
  O         5.1389642145        9.7836599998        9.0365689642
  O         7.8560312679        8.2047184706       11.6812089284
  H         3.1776576177        5.2942116039        9.8822427420
  H         9.5916293524        3.7679052428       11.1086061799
  H         8.3643162563        8.0026109174       10.8113854465
  H         8.5443756100        0.4747831221       12.8012644768
  H         0.9719929000        8.9283789052       11.5208864457
  H         8.8261174988        4.0585128637       12.4161639602
  O        11.1830645421        8.7474976738       11.6240224923
  O         9.3279027126        1.0393906652       12.5427346861
  O         9.5361099429        4.4319110322       11.8431661371
 Cl         5.1263795132        9.3493489048       12.4861950866
  H         2.6460115392        3.4348519731       12.1252260146
  O        11.5510904602        6.2876580439       12.6978146752
  H        10.9422045122        5.6101082378       12.3287160150
 Cl         3.4000497124        5.4489614958       12.1767991376
  O         7.1378376353        3.2771075667       13.1913831974
  H        11.2376182867        7.8048040374       12.0321658300
  O         2.0777798472        2.5418725772       12.2418584750
  H         1.3221601566        5.8667952531       12.5556384011
  H         6.3453132686        4.0104649094       13.6550470348
  H         7.1455586936        2.4277758838       13.8494579956
  H        10.0384698349       10.0178177133       12.3420602680
  H         6.0677074122       10.2169071769       13.9919370140
  O         5.3393722522        4.5947568960       14.0898661537
  H         4.8617190313        4.3393157951       15.0456743819
  H         2.4013073308       10.7523328891       11.3683177799
  H         1.9735800994        2.3860727376       13.2546067524
  H         7.9143524423        7.4184014923       13.2372315206
  H         2.9182278743        3.5692278661       16.0210828278
  H         4.6641336019        4.9786505728       13.4310185494
  H        10.0804960943        1.6179479108       14.0459882468
  H         6.6419905856        7.0672446721       13.9397789263
  O         6.6686783301        1.1106986602       14.5938827884
  H         7.2586379764        0.5687847355       15.1803804442
  O         3.8224637386        4.0266152801       16.2226354686
  O         2.4209286146        9.9590351812       10.7771389315
  O         7.6179361086        7.0233194349       14.1081688806
  H         3.6322201118        4.8404646873       16.7998295393
  H         7.9003521141        8.1077983109       15.4494110272
  O        10.4295874733        2.0574510949       14.8827716421
  O         1.9208334878        2.5809279801       15.0441624367
  O         7.9231856509        8.8792319037       16.1036534329
  H         0.9417884134        2.5757572924       15.0692729174
  H        10.3047224966        3.7817310198       15.8142737357
  O        10.2295302932        4.4875211558       16.4639004967
  H         3.2210001502        9.4614977711       11.0592164058
  H        10.3790747079        1.4463036344       15.6404662051
  H         4.7932883294        0.9379138271       16.6079751246
  H         4.5650250006        2.4590652203       16.7678589288
  H         2.2296547894        1.7147882910       15.3984879738
  H         9.2680564344        4.5708118992       16.6663437404
  H        11.1269003451        5.9227142025       15.8054412692
  O         4.9520427037        1.6577098016       17.2596883968
  H         8.6979657591        8.8315042637       16.7000173987
  H         7.3833183052        4.7136110381       15.7359132536
  H         6.5323018372        2.1183003728       17.9144622710
  O         0.4209241609        6.8237995349       15.5102187578
  O         7.4607273319        2.4547933055       18.1525711492
  O         3.6352104051        9.8677951923       15.2900961322
  H        11.5447984760        6.8008358206       14.5311873359
  O         7.5887327970        4.5954965322       16.6717765345
  H         3.9305343950        9.5506169343       14.4773689500
  H         7.5302697569        3.1389263776       17.4802397190
  H         3.1142660642        9.0838377500       15.6590282408
  H         8.9675849537        1.2149448109       18.0828961013
  H         1.5447320366        7.6311182024       16.3986105546
  H         4.0455739730        1.6744976994       19.0853705692
  O         9.6756373434        0.6630491897       17.6144109413
  H         7.0782833152        5.4338762071       17.0024362550
  O         2.2038050930        8.2235754738       16.9136517709
  O         3.4618868394        1.8915724403       19.8557941418
  H         3.0723440425        2.7355901018       19.5863489851
  H        10.2629440388       10.0809469009       18.3805304283
  O        -0.2003374915        3.7023377096       19.0315011061
  H         1.6500233453        8.9941245211       17.2555165986
  H         1.5428123341        4.2111497825       19.2753257539
  H         3.2571349151        7.0675814414       17.6315157916
  O         8.2467906044        6.5467314613       19.7663315691
  H        10.8825445364        4.0205908056       18.0739090329
  H         2.9982455960        4.9916495639       19.1688548589
  O         2.4977984949        4.1830991006       19.5226070006
  H         7.7398592685        6.9421711055       20.5750004105
  H         8.3325083799        3.4895190762       21.1529469816
  H         4.6397264855        6.4147460547       17.7098224922
  H         8.1850803436        5.5819083559       19.9737664351
  H        10.0160463292        3.7412702006       19.3927487562
  O         3.6739231870        6.2029648193       17.9803793421
  O        11.0842970065       10.3056325577       20.6606470604
  O         8.4510897922        3.9219996363       20.2420683127
  H         2.7893292913        9.8467799817       20.3718478672
  H        10.0014582567        6.0695357793       20.7251883891
  H        12.0337318636        9.8908470915       20.7779339095
  O         9.0538660797       10.1811487037       22.4875400404
  H        11.2486264005        1.5929241204       20.3515049489
  H         9.8237820216       10.2049502317       21.8321675979
  O         2.4317541747        8.9871766157       20.8208115216
  O        10.9393415100        5.8631150857       20.9612095596
  H         7.9115420932        3.4851755787       19.5276335345
  H         8.6973340750        1.4372402960       22.6231131317
  H         7.8294010339        8.4647954545       21.9553331342
  H         4.1212329168        2.8407148896       21.5575220967
  H        11.0964087202        5.2471051963       20.2461931170
  O         7.3506910178        7.6172256756       22.0015603453
  H         2.9350218405        8.8933874877       21.6617974040
  H         5.3885766051        8.3562598883       22.1416143607
  H         7.8436138594        7.0271916720       22.6919885424
  O         3.8922235851        3.1925850314       22.4321740938
  O        11.4164380950        9.4237185159       24.4273126961
  O         4.6263947300        8.5043622342       22.7836783484
  O         8.5322643863        3.0012674153       22.5647641211
  H        11.2214450625        4.7126477708       22.9400035743
  H         3.2176249506        2.5051805852       22.8531470701
  H         4.4948454505        7.6367723580       23.2221507245
  H         0.5900067154        8.5494126635       24.0808737955
  H         7.6805849278        3.3035978953       23.0682918729
  H         9.3287622290        3.4898804330       22.9989458753
  H         5.3031321514        2.9189458850       23.2222391211
  H         0.8551409472        0.5451081102       24.0004605367
  H         3.7541765052        5.1105626301       22.9437694724
  O         1.2999081789        7.1797542760       23.2706612767
  H         2.1720772270        6.6873696384       23.4756560480
  O         3.8456048622        5.8752440686       23.5873553324
  O         6.1264101570        2.8896799442       23.7777529324
  O        10.8491223012        4.0047289415       23.5492589016
  O         1.5885407729        1.9069935701       23.7442705756
  O         8.5149392875        6.2892633797       23.7509819573
  H         7.5227298347       -0.4069092424       24.4783031567
  H         5.2892026169        9.3512752758       23.9226936741
  H        11.9688410038        2.4376914537       23.5117693141
  H         8.8493821586        5.4030440879       23.4510967076
  H        12.2894911115        6.7863529119       22.4022928609
  H        10.8811679826        4.3890764321       24.4732784379
  H         6.0295612035        1.1966432445       24.2285717151
  H         8.9718692877        9.5620391287       23.9222993407
  H         6.0649325895        3.4548157337       24.5766892095
  H         3.9628519663        5.6537424281       24.5024775273
  O         8.4999231526        8.9224212750       24.5476120676
  O         5.9881682629        9.8999094482       24.4983589896
  H         1.7440299181        1.9971365639       24.7299415038
  H         9.2659032249        6.7497095224       24.1749683351
 Pt         3.0861013883        9.4102485473       26.8217658084
 Pt         5.8578239100        9.4515921913       26.7772305909
 Pt         8.6703861268        9.2850330710       26.7263106763
 Pt        11.4227504061        9.3078884493       26.7329356375
 Pt         8.7500045514        4.5332304166       -0.1418159610
 Pt         4.3328499495        6.9958936227       26.8836056710
 Pt         9.9912205552        6.9215049613       26.8511150014
 Pt         7.1302571893        6.9314759478       27.0177092243
 Pt        11.5073372789        4.5723625846       26.8056772771
 Pt         1.6311739983        6.9363915125       26.7173218454
 Pt        10.0934460486        2.0250519649       -0.1247999488
 Pt         7.3154767088        2.1521697857        0.1100528595
 Pt         3.1039775967        4.5588184376       26.8985482441
 Pt         5.7577863391        4.4532016126       26.7245697147
 Pt         1.6825948767        2.1689218121        0.0124161520
 Pt         4.4018620789        2.1399568627        0.0039673655
  H         8.2647147336        1.4729352626        8.9938695294
  O         6.4034210735        6.7053751548       17.7496717481
  H         6.7013307494        7.4583509189       17.2249798783
  H         6.9567740498        6.7115967254       18.6161469001
