     243
Tv_1:  11.152900   0.000000   0.000000 Tv_2:   0.000000   9.658700   0.000000 Tv_3:   0.000000   0.000000  26.829700
 Pt         5.9106961954        8.1315833274        2.1658154045
 Pt         7.1610903198        0.7575419227        2.2772142942
 Pt        11.3495943920        7.8924129384        2.4735617597
 Pt         8.5610801264        8.0677146674        2.2713026520
 Pt         8.4077277294        3.1842396671        2.3479712704
 Pt         3.0693318197        7.9050055565        2.4049423626
 Pt         9.9954274626        5.5705453685        2.4003619493
 Pt         7.3034081668        5.6166655756        2.3440646179
 Pt         5.7292036073        3.1696085203        2.3907534362
 Pt         4.4453995833        5.5144769753        2.4021478794
 Pt         9.7935312448        0.6537246696        2.1982865279
 Pt         1.6407521958        5.4466850795        2.3485021774
 Pt         1.4658927230        0.5865978327        2.2963387967
 Pt         2.8107538012        3.0355290112        2.3615456452
 Pt         4.3282149462        0.6755212908        2.3403287845
 Pt        11.2903409289        3.1041050759        2.2841699071
 Pt         5.6018046216        6.4107563692        4.6316385971
 Pt         8.4642620974        6.3908773568        4.7509383477
 Pt         7.0440538248        8.8519517037        4.5981894756
 Pt         7.0462389974        4.1396527024        4.6476246076
 Pt         8.4416834464        1.5412790732        4.5435407836
 Pt         5.6691250260        1.5962860747        4.5878642325
 Pt         9.8314243603        4.0192705335        4.6235682465
 Pt         9.8335823187        8.7698039554        4.6423859074
 Pt         1.5234493415        8.8476276594        4.7458268979
 Pt         0.1530582377        6.5017273520        4.7989594783
 Pt         2.8091414256        1.5275369877        4.5900524752
 Pt         2.8298685990        6.4047340096        4.7556040334
 Pt         4.3210482952        8.7889467674        4.5885571597
 Pt         4.2687225762        4.0628936709        4.5979871848
 Pt        -0.0179225326        1.5474019717        4.5236784764
 Pt         1.4367879367        3.9528619224        4.6533758195
 Pt         6.9041912003        2.3841109336        6.8529007187
 Pt         9.8016854035        7.3263865525        6.9735705663
 Pt         8.4130291574        4.9287414134        7.0459597138
 Pt         8.5093348364        0.1539741946        6.8614189424
 Pt         5.6663347933        0.0164521557        6.9265235244
 Pt         2.8071056414        4.8878937080        7.0182071474
 Pt         2.9702903154        0.2363030229        7.0552154108
 Pt         6.9278539961        7.2747026051        6.8381414200
 Pt         4.2024453988        2.5800570044        6.9905522352
 Pt         1.4633144361        2.4047009145        6.9137869012
 Pt         0.0204327693        4.7409627897        7.0104953673
 Pt         9.8354054172        2.4270731203        6.8095457596
 Pt         5.6700780559        4.8874409781        7.0567070234
 Pt         0.1211117527        0.0984912691        7.0664883237
 Pt         1.4580589257        7.4203682066        7.0979422098
 Pt         4.1144861944        7.3672350307        6.9322233322
  O         5.4500577496        5.2742762562        9.2114421583
  O         1.7549607599        7.5734351265        9.4122406667
  O        -0.0790915463        4.8711357944        9.0950121047
  H         3.5702817165        1.7296311104        9.5375169485
  H         7.3366920907        6.2116586605        9.6035292495
  O        -0.1701453755        0.1682128099        9.2190029132
  H         1.5609282892        8.4684359338        9.6545143606
  H         3.2672734548        3.6474195692        9.4163665367
  O         8.4442030118        0.3233655160        8.9973595788
  H         9.9522714170        0.0912429766        9.3228535188
  H        -0.0695247977        1.1376749466        9.5156299932
  H         0.8654544514        4.7576904943        9.4126875258
  H        -0.3269988459        3.3782091218        9.6415402217
  H         6.6740904510        9.6101892635        9.2568342968
  C         6.6879472078        5.4332889500       10.0043610210
  H         2.7679079689        7.4305170024        9.4154674912
  O         8.2492691686        3.2554473392        8.0777419750
  H         4.9824275430        6.2215332232        9.1403044014
  H         7.1737603225        4.4604495484       10.1135448426
  O         4.4475977190        7.4712091716        8.9206314380
  O         4.2577507232        2.4785060208        9.3678943645
  O        -0.2778744401        2.4962498699       10.2001923534
  H         0.4291038124        2.6001465454       10.8674525098
  H        10.2129333486        7.5846515870        9.9227265129
  O         9.6573149446        7.0698411518        9.3557824731
  H         5.0066761349        2.3436628056       10.0848087259
  O         6.2684821893        2.2085235869       10.8376072099
  O         2.7159918714        4.4682117690        9.0771488339
  H         6.2910665324        5.7513007085       10.9596114100
  H         7.4132291131        7.5555167218       12.5059586308
  H         6.4242608189        2.7934616025       11.6528948068
  H        -0.8774196461        6.2917478485        9.2842350340
  H         5.0289987252        8.2728904339        9.1792220886
  H         6.0298585486        1.3766073397       11.2969378334
  O         5.6975341340        9.6324482108        8.9776222778
  O         8.1692069048        6.9994012523       12.8468970446
  H         2.8779955497        5.2207235245        9.7782922823
  H         9.7091133395        3.3344714122       11.3869115593
  H         8.2859587194        6.0860660556       12.4024614427
  H         8.4507393156        0.4299836950       12.4722930853
  H         0.7086287692        8.9188047637       11.8158393319
  H         8.5037891541        3.7672302006       12.4151702884
  O        11.0227277925        8.4594477991       11.9519252821
  O         9.3378573236        0.6889592663       12.8366569499
  O         9.1689472383        4.1123948001       11.7730300267
 Cl         6.0661068519        8.9222003097       11.9055548904
  H         2.3060946084        3.3846244709       12.0638124030
  O        11.3516862160        6.0752588309       13.0270275766
  H        10.6895029034        5.4944803231       12.6388837664
 Cl         3.1775172969        5.2960874689       11.8525686228
  O         6.9746251287        3.3517245021       13.3939017963
  H        11.2249744241        7.7030116883       12.5193514536
  O         1.7929535177        2.5183696166       12.0929393211
  H         1.0224236547        5.7436881698       12.5657882533
  H         6.2176833452        3.9279057714       13.6768370319
  H         6.9167439276        2.7057138052       14.1474331878
  H        10.0449953750        9.6304206269       12.4651899507
  H         6.4478553306        9.9125945741       13.6803846624
  O         4.9831334338        5.2362255885       14.2754942527
  H         4.3524394296        5.1584028135       15.0135631419
  H         2.1622514023       10.8017743942       10.9950987996
  H         1.6774509067        2.2096411036       13.0467539645
  H         7.6500703831        6.6571580797       14.5247513387
  H         2.5013199975        4.5915459192       16.0608893768
  H         4.4843488514        5.4425885809       13.3925281435
  H         9.6924761746        1.5257752386       14.4957037538
  H         6.3199949391        5.9521764422       14.9597095024
  O         6.9739076762        0.6258378218       14.4132049281
  H         6.9597091994       -0.0028236935       15.1445862960
  O         3.4446284018        4.6416325975       16.3073995212
  O         2.5505939624       10.2534609749       10.3145191276
  O         7.1263702343        6.4518891611       15.3572745610
  H         3.5248730358        5.1758893220       17.1560981154
  H         6.6076249872        7.8107209717       16.0294156954
  O        10.0733388209        1.5907052952       15.4027880583
  O         1.4878946962        1.4656234536       14.5558607822
  O         6.1071401864        8.6125106013       16.4531518393
  H         0.6393767634        1.1577762526       14.9391291778
  H         9.8780038641        2.9927331280       16.5778653332
  O         9.9436216287        3.7809243401       17.1984157802
  H         3.2612471479        9.7576484339       10.7441878805
  H         9.5842348248        0.9079879299       15.8803461745
  H         3.6773343084        1.5242599656       17.1073968984
  H         3.6198721772        3.1070337534       17.0642396059
  H         2.1324408711        0.7808742418       14.9614215723
  H         9.1600451014        4.2889132794       17.2617926895
  H        11.1390488174        4.6143273091       16.0257701526
  O         3.7607259919        2.3745829846       17.7023485546
  H         6.8621364824        8.9597215422       17.0346512901
  H         7.6974546662        5.8401418647       16.7527858148
  H         5.5328018794        2.7619565099       18.0352264184
  O         0.7748070408        5.0708792126       15.6537613235
  O         6.4064603419        3.0170508958       18.4255691569
  O         3.4246370390        9.6528730598       16.3028613802
  H        11.6558777388        5.3164835446       14.7384227547
  O         7.8482847900        5.3511952953       17.6215689350
  H         4.2452928266        9.2163653331       15.9751535719
  H         6.6081640708        3.9218272094       18.0616324764
  H         2.7508884349        8.9176255214       16.3693119640
  H         7.3732564689        1.5550149753       18.2475219040
  H         0.8185487127        6.7384451843       16.5020819914
  H         2.6148129360        2.1963217348       19.0295391002
  O         7.9095659107        0.7418029120       18.0170016053
  H         8.1218270735        5.9720444453       18.3124838775
  O         0.8548037807        7.7589382421       16.6961791528
  O         1.9832656531        1.8547455287       19.7958755893
  H         1.1217486694        2.3021931641       19.7231567014
  H         8.3642434867       10.2841208312       18.8944425200
  O        -1.2274569133        2.9434713654       19.8756489640
  H         0.6120337051        7.8940535073       17.6284854223
  H         0.3073594531        4.3459264387       20.0468095851
  H         2.1009847059        6.8261814761       17.9197408312
  O         8.4607466725        6.6105585810       20.1103738146
  H         9.8660753468        3.2373313909       18.9225329640
  H         1.4241318643        5.3334901236       19.7239769943
  O         0.9453666011        4.9734406419       20.4983309382
  H         7.7580030423        7.2910181741       20.3363150140
  H         7.1663120206        3.7281592827       21.5025775599
  H         3.5690446163        6.6576615804       18.8151076026
  H         7.9849305624        5.8266059152       20.4304487326
  H         9.0924269280        3.3054897572       20.2190221346
  O         2.6558639286        6.2616905651       18.5353050619
  O         9.5410034851        9.8511162604       20.3707769155
  O         7.4649381657        4.1079881039       20.6430913269
  H         1.5339121578        9.6195857851       20.2357109692
  H         9.6319299754        6.4113137652       21.6703945522
  H        10.3245641174        9.2304893187       20.4588909715
  O         7.7628016734       10.1099535441       22.5614232185
  H         9.9668602722        1.0614174297       20.2236730609
  H         8.4806649448       10.1676486581       21.8501181554
  O         1.0053840318        8.7634341237       20.2153508470
  O        10.4780678476        6.1636801453       22.1163485789
  H         6.9602002447        3.7137823329       19.9191587083
  H         7.6508245177        1.4345088340       22.8455803901
  H         6.4192210187        8.9830662711       21.7682222497
  H         2.4906447843        2.8435904499       21.3953369806
  H        11.1750946398        6.0098138888       21.4141714757
  O         5.7229327667        8.3733543901       21.5853620378
  H         1.4723432563        8.1937576415       20.8066970984
  H         4.2658655893        8.8856411783       22.1734605897
  H         5.7417406264        7.6881965543       22.3577988313
  O         2.6538661709        2.9832763248       22.3494114819
  O        11.4770262414        9.4694384218       24.5400139490
  O         3.5794155274        9.2787653888       22.8450729370
  O         7.2878462341        3.1303753434       23.0564090923
  H        10.3831215586        4.7622336846       23.1154534543
  H         2.0588849216        2.4277737490       22.8984022011
  H         2.8526475840        8.6703601317       22.9980777908
  H         0.9333295254        8.7160510606       24.2193312078
  H         6.3917911494        3.1604673035       23.4755986943
  H         8.0378864350        3.7727941377       23.3475499956
  H         4.2037981839        2.5187679061       23.1969149376
  H         0.4677892315        0.7198704038       24.0728523319
  H         3.0783655225        4.6126324499       22.8865890685
  O         1.4205513902        7.4296638739       23.3543015161
  H         1.9775574080        6.6335472111       23.4974766135
  O         3.0666343781        5.3781328858       23.5839726693
  O         4.8073146775        2.5080807329       23.9620691798
  O        10.0030466915        3.9784894012       23.6195190600
  O         0.5396371277        2.0981214018       23.8323642870
  O         5.6276488269        6.5196224342       23.4264578608
  H         8.2782077432       -0.1973296502       23.8132738887
  H         4.7917874329        9.2270805871       24.0133291060
  H        10.9295127286        2.7466357690       23.5424871048
  H         5.9909152926        6.5478106598       24.3663421170
  H        11.7650570201        7.0362602899       22.9560332324
  H         9.9672655040        4.1815136880       24.5892915452
  H         5.2056767690        1.0922897195       24.4282157139
  H         9.8472293761        9.1916260415       24.3442256883
  H         4.4104437362        2.9447271527       24.7852395317
  H         3.1415091800        5.0095122127       24.5150340037
  O         8.8823150785        8.9615303736       24.4819010085
  O         5.5189144356        9.7998100655       24.5202987734
  H         0.8508400570        2.6128800846       24.7450069234
  H         4.6978217292        6.1013035745       23.4029944638
 Pt         3.0220677872        9.6104654390       26.9526903289
 Pt         5.8731816899        9.2257985071       26.5875632479
 Pt         8.7384000737        9.3943222694       26.5099201555
 Pt        11.5313992987        9.4980086527       26.7492665385
 Pt         8.6076215005        4.5171691408       -0.0397461870
 Pt         4.4913533466        6.9937732170       26.9177576212
 Pt        10.0761224105        7.0124373118       26.9416843943
 Pt         7.2666888667        6.8492226237       26.8417519861
 Pt        11.3652654657        4.5014467172       26.6528909153
 Pt         1.7476578750        6.9933544551       26.9389722196
 Pt        10.0675344180        2.1140214311        0.0270909391
 Pt         7.2232261178        2.1952238759        0.0183669097
 Pt         3.1091699253        4.6545876940       26.7411274495
 Pt         5.8653576091        4.6613586485       26.7941157504
 Pt         1.6382958199        2.3284905160       -0.1042855372
 Pt         4.4745739810        2.1915415337        0.1611473826
  H         7.9399071870        1.0859176258        9.2984209077
  O         5.0264882773        7.0929298467       18.7230648245
  H         5.3532100259        7.4895897302       17.8482435738
  H         5.2234105999        7.7655052368       19.3774851265
