     243
Tv_1:  11.152900   0.000000   0.000000 Tv_2:   0.000000   9.658700   0.000000 Tv_3:   0.000000   0.000000  26.829700
 Pt         5.8112688654        7.8786076416        2.3268618388
 Pt         7.1126277416        0.6602111298        2.0696432632
 Pt        11.3629909893        7.9857089524        2.2882858463
 Pt         8.6489740919        7.9774489680        2.2589984812
 Pt         8.5955903303        3.0248230372        2.3216600596
 Pt         2.9264664069        7.9002306133        2.4535244870
 Pt         9.9907075704        5.3512559321        2.3432194525
 Pt         7.1764211182        5.4513970320        2.3123966114
 Pt         5.8796829327        3.0997852679        2.2499737646
 Pt         4.3775280061        5.4944286924        2.3782543482
 Pt         9.9893371087        0.5835865296        2.2679923274
 Pt         1.5642050627        5.5381436121        2.4176501724
 Pt         1.6086304545        0.8060822466        2.4312105777
 Pt         3.0703531647        3.1339483419        2.3823904853
 Pt         4.4060646172        0.6834414157        2.2537541197
 Pt        11.2744181090        3.0273191953        2.3786190371
 Pt         5.6759989383        6.4614360003        4.6359045795
 Pt         8.4955106076        6.4416896560        4.6260155729
 Pt         7.1747486640        8.8882841210        4.4598122881
 Pt         7.0487281287        4.1068406354        4.6151538556
 Pt         8.5396522825        1.5321718030        4.6213534890
 Pt         5.7668803037        1.5938616400        4.5835738651
 Pt         9.9850377447        3.9518561618        4.6196239548
 Pt         9.9737060830        8.8249033941        4.6202263861
 Pt         1.5425046249        8.8158040870        4.6445346267
 Pt         0.2090947156        6.4450284860        4.6996327583
 Pt         3.0889060077        1.5460418234        4.6455801201
 Pt         2.8726234378        6.2782562965        4.7546064006
 Pt         4.2731801640        8.8476601645        4.5939844042
 Pt         4.2960149998        3.9818865786        4.7359052626
 Pt         0.0835089714        1.5326354392        4.6916161426
 Pt         1.5821863305        3.8892323593        4.6183763735
 Pt         7.0881412666        2.5364611059        6.8018886176
 Pt         9.8575968013        7.2585151444        6.9058115645
 Pt         8.5400543849        4.9879105769        6.9097349632
 Pt         8.3547957673        0.0611054260        6.9020546445
 Pt         5.5942281804        0.2771851480        6.9079356285
 Pt         2.9470445634        5.0568727957        7.1673674444
 Pt         3.0060832477        0.1880452934        6.9036701047
 Pt         7.1503053691        7.4835095413        6.7519794712
 Pt         4.2207660747        2.5385859349        7.1139906794
 Pt         1.4949451733        2.5670980475        6.8850232933
 Pt         0.1444775056        4.9188440647        7.0597878988
 Pt         9.9217618318        2.3778570583        7.0271780994
 Pt         5.7694637889        4.9546347096        7.0288283017
 Pt         0.1217496094        0.1370810433        6.8975956957
 Pt         1.3356326611        7.3647558235        7.0867656845
 Pt         4.4095283037        7.4480133690        6.8946159753
  O         5.8039020965        5.5290711812        8.9531551888
  O         1.6379157555        7.4282251582        9.2483581484
  O        -0.1765487716        4.7928338735        9.1498338882
  H         3.7038183116        1.6888551468        9.5461268425
  H         7.5822045991        5.5907969319       10.0281605938
  O        -0.1713588970       -0.0469742850        9.1815715811
  H         1.2029097857        8.3123078653        9.4833104745
  H         3.5600319894        3.2988485556        9.3501467430
  O         8.2859690093        0.0101828543        8.9922897656
  H         9.9905967704       -0.1667859875        9.1748122089
  H        -0.0332331830        0.9554046271        9.6277249912
  H         0.8032042972        4.8834152461        9.4141930535
  H        -0.3000455196        3.0332036806        9.5630176249
  H         6.7639628466        9.5287175188        9.0932069442
  C         6.6922479310        4.8857306550        9.9132014982
  H         2.6090811728        7.5359705798        9.3015724209
  O         8.3311339816        3.4177619880        8.2026325685
  H         4.9641240695        6.6764154442        9.1143263431
  H         6.9085640685        3.8791991785        9.4809245900
  O         4.3316338079        7.5212541750        8.9607925165
  O         4.1849687583        2.4929257832        9.2481212377
  O        -0.1449964379        2.2790427673       10.1879459620
  H         0.6437706936        2.5010833857       10.6910657836
  H        10.1033567665        7.6610127183        9.8016553851
  O         9.5705250606        7.0017034031        9.2764688072
  H         5.7513253902        2.3699257362       10.7910575740
  O         6.3768020027        2.1230036861       11.4626503975
  O         2.7577271349        4.6025476639        9.1671694473
  H         6.1156219541        4.8602810012       10.8550388101
  H         8.1597850481        7.1070081920       12.5695007841
  H         5.9765999704        2.7011951957       12.8226460886
  H        -1.0155997029        6.1751585406        9.3428881549
  H         5.2915592800        8.7371337716        9.0771443288
  H         6.4576080027        1.1314380742       11.5357057915
  O         5.7585272160        9.6528841530        8.9708277502
  O         8.5359865958        6.4558270828       13.1022716073
  H         3.2913671599        5.2099036574        9.7046006671
  H         9.0592176595        4.0850279569       10.8653052963
  H         8.6965868623        5.6442861980       12.5320004170
  H         8.1425779337       -0.3415787153       12.4927040453
  H         0.5313175930        8.9599905508       11.8219899519
  H         8.6258209359        3.4190302263       12.3016483362
  O        10.9831961554        8.3033984130       11.7461105619
  O         8.9431973765        0.2478843095       12.5502562632
  O         9.0904419230        4.1867258984       11.8827612598
 Cl         5.9437167506        8.8388698419       12.0681758785
  H         2.6816274846        3.0811123825       11.7180136543
  O        11.6049254717        5.7003408224       12.5344766696
  H        11.0070673642        5.0205536627       12.2487822191
 Cl         3.4350937333        4.9478845819       11.8430181844
  O         5.9055403573        2.7682621517       13.8314453865
  H        11.2808039997        7.4369016923       12.1160634980
  O         2.1363690125        2.2632919056       11.8373541855
  H         1.3275691990        5.4331417359       12.1488579293
  H         5.2568219393        3.5302757498       14.1274384833
  H         5.7509560100        1.8065003877       14.1923178147
  H         9.7231974985        9.2884916442       12.3546992834
  H         5.7311950395        9.5430833235       13.8969478480
  O         4.5907055780        4.8561895419       14.5056423617
  H         3.9066173133        4.8909526127       15.1681949818
  H         2.5493471859       10.5573182234       11.0121167005
  H         1.6714917712        2.2962619610       12.7843831890
  H         7.3483098139        6.5976515577       14.3636960051
  H         1.8641807962        4.5329233235       16.0717068839
  H         4.1357213755        5.1046348887       13.6351219138
  H         9.2271933862        0.9772552579       14.2035482389
  H         5.9182446212        5.9666185456       14.6291346879
  O         5.6081409653        0.5871800125       14.6857363089
  H         5.7702378148        0.0620397380       15.5672697529
  O         2.7836420939        4.4866741542       16.3815664919
  O         2.9013710749        9.9428939588       10.3036219428
  O         6.6331478962        6.5769876031       15.0304105376
  H         2.8275259762        5.0775530299       17.1479309192
  H         6.3553447368        8.0725673686       16.4445414560
  O         9.3338559594        1.3875738213       15.1181110353
  O         0.9756472216        1.9261077931       14.2335549391
  O         6.0722347717        8.8192102071       17.0195861316
  H         0.0984076557        1.7648524844       14.6960139206
  H         9.3666011467        3.1610528611       16.1083704864
  O         9.6843806424        3.9198395842       16.6340766892
  H         3.6496170040        9.4800844254       10.8205885489
  H         9.1385120951        0.6382031339       15.7088198956
  H         3.6855352452        1.4142561512       17.1170005044
  H         3.6150986802        2.9892909860       17.0985851231
  H         1.5944334055        1.4455878589       14.8169545608
  H         8.9150519633        4.5243787039       16.7350526896
  H        10.9208001231        4.9207237701       15.6648664018
  O         4.0243421333        2.1905013559       17.6193040812
  H         6.9653012174        9.2885522793       17.3743492838
  H         7.0822476991        5.8286724281       16.4383785837
  H         5.5791526596        2.5547051651       17.5992083892
  O         0.5585081541        5.4740268119       15.4489434676
  O         6.5110324753        2.9405326281       17.8349183355
  O         2.7999956753       10.0601180726       15.6762407302
  H        11.6221588617        5.5864214146       14.4953281780
  O         7.4846788411        5.2676453906       17.2399270502
  H         3.6481703270        9.9612515484       15.1831556047
  H         6.6884895418        3.7923516283       17.4636862505
  H         2.3701853028        9.2056316204       15.7904086719
  H         7.5120763111        1.6760128494       17.8437390705
  H         0.9147431747        7.0065667584       16.2310564878
  H         3.1924708574        2.2334077679       19.3223864324
  O         8.0264671643        0.7683407985       17.8006359801
  H         7.3495628586        5.7729824590       18.1093187595
  O         1.3238456685        7.8790821734       16.6024664684
  O         2.6773819016        2.3240415996       20.1754584033
  H         2.0715701133        3.1084266705       20.0341876581
  H         8.3664098264       10.2187860155       18.6686089574
  O        -1.0923083055        3.4075752110       19.2854091177
  H         0.6531170930        8.3931014101       17.0800207188
  H         0.4877343490        4.1892455747       19.8566439998
  H         2.0182359899        6.8839788177       18.0839291093
  O         7.9572437704        6.4284686285       20.1094900881
  H         9.7587650204        3.5573941172       18.3110358522
  H         1.5002619733        5.4343998301       19.8344513013
  O         1.1721721449        4.6522530323       20.4474075723
  H         7.3374877866        6.9740117778       20.6453648008
  H         7.6140948623        3.2051954452       21.1886583897
  H         3.2813492401        6.7416538393       18.9891383265
  H         7.6305369794        5.4512877929       20.2912307963
  H         9.2184359262        3.6831724361       19.7609312612
  O         2.5228962130        6.1959012334       18.6462965817
  O         9.7289105812       10.5457239618       19.9308673931
  O         7.6121427842        3.6417139003       20.2629478513
  H         1.5406508090       10.4929224311       19.8257192164
  H         9.8876408139        6.5005617488       21.3981779966
  H        10.5751650918       10.0665588369       19.7816594338
  O         7.9621661970       10.0435810929       22.0499050713
  H         9.9884298528        1.9411035953       19.8268711484
  H         8.6873754050       10.1459713184       21.4023286605
  O         1.1098843070        9.6585544307       19.5492818275
  O        10.5881397073        6.1005060024       21.9743288598
  H         7.1046667084        3.1069700678       19.6200887009
  H         7.9647193085        1.4209766899       22.3909940128
  H         6.7099288319        9.0587798111       21.5245718967
  H         3.4711365196        2.9606003312       21.7236842125
  H        11.2084000021        5.6074928195       21.2890992410
  O         5.9870683206        8.3794395121       21.3162796141
  H         1.8615846961        9.0416352059       19.8395922666
  H         4.3818883770        9.0989523845       22.1360924057
  H         6.0249608164        7.8440748129       22.1763604581
  O         3.3182275101        3.0641127756       22.7072832905
  O        11.4239371134        9.4658559150       24.5645376949
  O         3.8116126750        9.1619058287       22.9491255349
  O         7.8305436324        2.8884435360       22.6884424782
  H        10.1752841810        4.8861895552       22.9321620730
  H         2.4385711143        2.6307483243       22.7159614992
  H         2.8926513714        8.7736456065       22.7406905951
  H         0.7371277963        8.6363202003       24.1141582613
  H         6.9909442602        2.8033431492       23.2512106659
  H         8.4855007692        3.4208750117       23.2755854101
  H         4.6845313144        2.4594274179       23.5719121045
  H         0.4984100564        0.6135805844       24.0366043226
  H         3.5092754303        4.8105260700       23.4147685430
  O         1.4767862225        7.6658469556       23.2883286783
  H         2.1180583008        6.8748671221       23.5291914918
  O         3.4265304900        5.7277240040       23.7870035276
  O         5.6197550492        2.4357063120       23.9726235396
  O        10.0454909220        4.1790781457       23.7000227330
  O         0.6897186191        2.2169192975       23.5969633932
  O         6.1271399761        6.2971094624       23.2255290376
  H         8.3002365064       -0.0779047768       23.6747318998
  H         4.7184454876        9.2185903775       24.2508090487
  H        11.1584143198        2.8008723008       23.2724479502
  H         6.7998954646        6.1542097458       23.9219602903
  H        11.9971317268        7.2642920082       22.6669785648
  H        10.3912767583        4.4725837732       24.6469266672
  H         5.6333252942        0.7418858530       24.4221047613
  H         9.8204537015        9.2980405413       24.2810254654
  H         5.6512594433        3.2194839504       24.6737487436
  H         3.6413168515        5.4902681084       24.7232287546
  O         8.7900691539        9.0305817994       24.3889868803
  O         5.6476590011        9.4077338406       24.6664523113
  H         0.8119265869        2.5039513746       24.5682649198
  H         5.2782696419        6.2469051870       23.6368834645
 Pt         2.9501235834        9.3438580400       26.7821878262
 Pt         5.7871761600        9.3840273599       26.7439292156
 Pt         8.5682254569        9.3486840380       26.5535767899
 Pt        11.4441200767        9.3768258866       26.8459195053
 Pt         8.5895460515        4.4865875098       -0.2178904058
 Pt         4.2947701938        6.9366968816       26.8812023230
 Pt        10.0085097536        6.9340566742       26.9639932841
 Pt         7.1601086700        6.8512072330       26.8944378572
 Pt        11.5055895304        4.5411582012       26.6955394867
 Pt         1.5735804637        7.0015927347       26.7891400944
 Pt        10.0507652647        2.1861458380       -0.0215920593
 Pt         7.1900114378        2.1447111905       -0.0561850201
 Pt         3.1729056806        4.5921052235       26.8079152670
 Pt         5.8671790779        4.5107478173       26.6011377927
 Pt         1.6193036410        2.2377402701        0.1235908039
 Pt         4.3389758709        2.0965215987        0.0005663768
  H         8.3895566653        0.9760561385        9.2672908687
  O         4.2193636360        8.2724897799       19.0804775647
  H         4.6795052408        8.2902150865       18.1947524203
  H         4.8978628426        8.2638887868       19.7631708801
