     243
Tv_1:  11.152900   0.000000   0.000000 Tv_2:   0.000000   9.658700   0.000000 Tv_3:   0.000000   0.000000  26.829700
 Pt         5.8010149762        7.9172527431        2.1719826316
 Pt         7.1133851203        0.7211508940        2.1949149869
 Pt        11.3470202157        7.9478175961        2.3250468037
 Pt         8.5413052669        7.9086200765        2.3134065235
 Pt         8.4938737759        3.0079878137        2.3177898963
 Pt         3.0846744889        7.8810865907        2.3574587906
 Pt        10.0205775675        5.4284353626        2.2117181168
 Pt         7.2026155364        5.4664482326        2.3218179142
 Pt         5.8060562119        3.0515843120        2.4238296943
 Pt         4.3957594097        5.4030924685        2.3596537335
 Pt         9.8985838337        0.6650426720        2.2630896804
 Pt         1.5939640110        5.4547486445        2.3843105363
 Pt         1.4570783049        0.6092271005        2.3962474696
 Pt         3.1140909522        2.9558387031        2.4410564365
 Pt         4.3621426145        0.5793327418        2.3063308242
 Pt        11.4107356713        2.9993277732        2.3706209157
 Pt         5.6831227820        6.4331777326        4.5419788875
 Pt         8.5806965210        6.4667313874        4.5618393040
 Pt         7.1526916212        8.9227340940        4.5063672295
 Pt         7.1649937452        4.0786731450        4.7146410514
 Pt         8.6704464657        1.4604291606        4.6047631042
 Pt         5.8868977090        1.5343982651        4.7226138984
 Pt         9.8930385388        3.9583833325        4.4757349183
 Pt        10.0116238914        8.7941403177        4.6370317934
 Pt         1.6005162570        8.7454106384        4.6892884886
 Pt         0.1495709856        6.4178611350        4.6753405331
 Pt         2.9796823612        1.5455859914        4.6670311458
 Pt         2.8874681152        6.3183507207        4.6228643869
 Pt         4.4492557070        8.8523597644        4.4662938223
 Pt         4.3896637117        4.0038645646        4.8348718040
 Pt         0.2020837852        1.5107236068        4.7298019948
 Pt         1.5931905135        3.9106007942        4.6998681619
 Pt         7.1798272919        2.3962235038        6.8651750240
 Pt         9.9122384496        7.3476701262        7.0137042036
 Pt         8.6050839347        4.9947234854        6.7331777308
 Pt         8.5700329709        0.1201729917        6.9910629724
 Pt         5.8297840489        0.0600778078        7.0494543568
 Pt         2.9394754732        4.8641817138        7.0923108674
 Pt         3.0099625985        0.1853453435        6.7853467276
 Pt         7.1875054545        7.3785733622        6.7324599212
 Pt         4.4833278857        2.4692757049        7.0843359592
 Pt         1.7421049451        2.4771871645        6.9441469593
 Pt         0.2516139097        4.8746011222        6.8975038961
 Pt        10.0573879014        2.5341959559        6.7837851733
 Pt         5.7742484889        4.8889250964        7.0211450525
 Pt         0.1630097937        0.1432877795        7.1424775412
 Pt         1.6176267244        7.3309728237        6.9791984938
 Pt         4.4302825354        7.2459247200        6.8630969876
  O         5.7824405332        5.1165096189        9.2322653071
  O         1.9409954131        7.5265590566        9.1642245816
  O         0.1322747109        4.9575756456        8.9072854833
  H         4.0236284151        1.6238367746        9.5994557976
  H         7.7666549181        5.9300779200        9.6763505002
  O         0.0046999562       -0.1016605017        9.1526110856
  H         1.4886789708        8.4192067977        9.2046868999
  H         3.7799227011        3.1451275393        9.3559476545
  O         8.7320005109        0.2753777857        9.2882742738
  H         9.7247730226        0.0791322862        9.3345376690
  H         0.0929947970        0.8212081799        9.4885862141
  H         1.1100330916        4.8391747618        9.2570573563
  H        -0.2811545020        3.3034924811        9.6170861854
  H         6.7809460251        9.5343246163        9.3406249599
  C         7.0147281309        5.2320774175       10.1064051329
  H         3.0694893679        7.6107216643        9.2162984432
  O         8.6272495285        3.3495255479        7.9787305199
  H         5.3207683837        6.0054135680        9.3000403971
  H         7.5138147600        4.2882431482       10.2655521865
  O         4.3689982328        7.3428985299        8.9900678102
  O         4.4457391222        2.4426382491        9.1933395645
  O        -0.0597337683        2.4306993636       10.1341452897
  H         0.8943741662        2.5529602679       10.3632834734
  H        10.1318176153        7.6676062319        9.9449028806
  O         9.8107127795        7.0898211815        9.1896729560
  H         5.7722034776        2.5589402290       10.9280835595
  O         6.3133704766        2.4961754194       11.7188361199
  O         2.7470041453        4.4791459518        9.0572785660
  H         6.5772386332        5.6571755450       11.0682641963
  H         7.3015715319        7.5650119472       12.8151155094
  H         6.0558851295        2.9057421607       13.2651919508
  H        -0.6338575620        6.3124021643        9.2704496785
  H         4.9313257831        8.1840166927        9.2011786462
  H         6.3810512757        1.5216119667       11.8695098865
  O         5.8519629643        9.5379126304        9.1630661935
  O         7.6037976180        6.9573029668       13.5315898067
  H         3.1087992608        5.0856749511        9.6983148558
  H        10.3110815794        3.3073607167       11.6940396918
  H         8.5774001257        6.7643573520       13.4606806358
  H         8.1954655503        0.0046253842       12.3772199520
  H         0.4241654192        8.6916636358       11.2966197929
  H         9.9196579370        3.3397074233       13.2069056762
  O        10.7822292669        8.1602035845       11.4217252936
  O         9.0764723789        0.0572864499       12.8630246630
  O         9.9124946559        3.8808188934       12.3794060902
 Cl         6.0510369372        9.0958155224       12.0805982333
  H         2.6046251506        3.2955416331       11.8185491867
  O        11.5082923277        6.0999226253       12.7100319546
  H        10.9566970116        5.2409893431       12.6045854427
 Cl         3.1631305525        5.3949279654       11.8801341725
  O         5.8870117981        2.9621758105       14.2701735888
  H        11.0910771012        7.3416853842       12.0389981013
  O         2.1410291875        2.4114906105       11.7979271540
  H         1.3426397728        5.7690871409       12.5227371174
  H         5.2008924199        3.8914387256       14.3494044584
  H         5.4369965292        1.9905903426       14.4864623173
  H         9.6783814338        9.0437682729       12.3449442660
  H         5.4169926046        9.6698809792       13.8540907898
  O         4.5017752511        5.0768017601       14.5347112130
  H         3.6010820989        4.9283242398       15.0790750129
  H         2.8487677403       10.7063563655       11.1326329623
  H         1.6699910730        2.3953827521       12.6918251498
  H         6.7714717691        6.9013605062       15.0477196622
  H         1.7486380684        5.4209704534       16.0969556759
  H         4.2245458156        5.4465392442       13.6494541594
  H         9.3404737030        0.8319675574       14.4716334849
  H         5.4201012498        6.3009365144       15.6903190354
  O         5.0998024878        0.6453940333       14.7034170696
  H         5.7013429749        0.2888046071       15.4000983078
  O         2.6733305285        5.0962541499       16.4433547423
  O         3.2947790975       10.1451846887       10.5007175181
  O         6.2358230089        6.8289277903       15.9321492904
  H         2.9182177979        5.7634751764       17.1780564536
  H         6.0629525827        8.3807508532       16.5318384787
  O         9.5537215811        1.5577349502       15.0951702065
  O         0.9164071799        2.2988208029       14.1488957751
  O         6.0904966226        9.2121150331       17.0748043977
  H         0.0027793866        2.0519467867       14.4637281849
  H         9.3897322308        3.3250822596       15.6341880452
  O         9.6320709213        4.1041703078       16.1582535662
  H         4.0883449518        9.7654080254       10.9576005987
  H         9.3284834074        1.2714972165       16.0168861485
  H         3.4432487892        1.7480253729       16.9357587603
  H         3.3133235868        3.3347916471       16.9957258439
  H         1.5051529918        2.0011746044       14.8830707248
  H         8.8703294162        4.5663474922       16.4998748665
  H        10.8109221625        5.2549412033       15.6763263395
  O         3.8343574482        2.6076988577       17.3810684641
  H         7.0398660736        9.5013770238       17.1849060897
  H         7.1025101720        5.8837534176       16.9775201541
  H         5.7164996282        2.7483309516       17.7583910724
  O         0.2565006737        6.0838120605       15.4644053102
  O         6.6672458702        2.8315172830       17.8784678886
  O         2.5258407780       10.3493763794       15.6007912780
  H        11.3641084997        6.1439668485       14.4102595494
  O         7.6216080007        5.2736642687       17.5539423239
  H         3.3082174088       10.1949762851       14.9912874807
  H         6.8877684020        3.8168936403       17.7868307494
  H         1.8925174308        9.6285720332       15.5488621209
  H         7.8958522978        1.5203397770       17.7578455523
  H         0.5203642267        7.6102251060       16.1653369624
  H         3.4381850267        2.8251632833       19.2118847821
  O         8.5124224498        0.8845837218       17.4009811495
  H         8.0575368098        5.7286790747       18.3412789068
  O         0.8314747517        8.3792618409       16.6538324445
  O         3.1730948021        3.0044935339       20.1463233087
  H         2.5257173926        3.8158747166       20.0126094251
  H         9.0762002848       10.3350797350       18.1015140836
  O        -0.5743033098        3.5283018620       18.7531983976
  H         0.0817197716        8.8590155613       16.9807420988
  H         0.6600074995        4.5708052221       19.2959656550
  H         2.0945792566        7.7425860232       17.9742369072
  O         8.5237351516        5.8450561931       20.1078418449
  H        10.4410660952        3.7044171879       17.7637387573
  H         1.5993472953        5.9203993813       19.3227626425
  O         1.2308407465        5.1917144633       19.9314416819
  H         7.6574410341        6.4278266123       20.3767092390
  H         7.7829748418        2.6432575377       20.7913830765
  H         3.4955027136        7.3039832568       18.7326230287
  H         8.1725755141        4.9471770592       20.2126881797
  H         9.7312207738        3.7226615887       19.2451065630
  O         2.6112387778        6.9827786699       18.3485992141
  O        10.4954820482       10.3690594085       19.3670627332
  O         7.9877102742        3.3273521026       20.1223848554
  H         2.3466368100       10.9644772647       20.2424024608
  H         9.9066468007        5.9495124909       21.2432553004
  H        11.4491435205       10.1613225939       19.5035044053
  O         8.2611918366        9.6282291807       20.9191683197
  H        10.5408186710        1.6958564069       19.2361785213
  H         9.2077058425        9.6961106981       20.4640795288
  O         2.0130443700       10.0952722789       19.9427678214
  O        10.7173738060        5.7400891004       21.7437400362
  H         7.3728218903        3.1539156912       19.4356971929
  H         8.4123200472        0.0834477860       21.8653414523
  H         7.2258651837        8.3080729358       20.5795977843
  H         3.2710017538        3.2369780085       22.0940581035
  H        11.4365294521        5.7580029865       20.9975833609
  O         6.6307502071        7.4631143513       20.7503262044
  H         2.8297387336        9.6208568409       19.8126955434
  H         2.7191704691       10.2766577572       23.6928509667
  H         6.7376579742        7.2736207964       21.7304635946
  O         3.4983919245        3.5462260191       23.0089763779
  O        11.3036554367        9.3125880982       24.4820895681
  O         3.1934396543        9.6555963428       23.1395897477
  O         8.3432116738        2.0403378676       23.0254788699
  H        10.5882584030        4.6622022371       23.0006098644
  H         2.7492165463        3.2524324804       23.5590374140
  H         2.4137304745        9.1425895081       22.8093425602
  H         0.6223409886        8.5145549442       24.0469529052
  H         7.4129497092        2.3816957547       23.2925346585
  H         9.0032817564        2.7323413788       23.2253554611
  H         5.0889032489        3.1608425296       23.5704041069
  H         0.7680989688        0.4128365987       24.4050045849
  H         3.5301578936        5.4990928985       23.4141234259
  O         1.1730543926        7.5183508934       23.0054532650
  H         1.7510617727        6.9314086191       23.4996895388
  O         3.6848743442        6.4323646511       23.5974730890
  O         5.8841017679        2.6668922954       23.9141192090
  O        10.2575457606        3.8315004738       23.4419485567
  O         1.4607774518        1.8178225827       24.0096422456
  O         6.6882200278        6.8347872254       23.2197973699
  H         8.4637747514        0.6040170036       24.1820291513
  H         4.7380798243        9.3573400227       24.0856118566
  H        11.7847266459        2.4683289273       23.9508534091
  H         7.1368132357        7.5613603793       23.6513627052
  H        11.5395222809        6.9504548245       22.6758025300
  H         9.9226906137        4.0488754021       24.3327863225
  H         5.6260378770        0.9602270836       24.0842857854
  H         9.6320484538        9.2518719152       24.5359717702
  H         6.1593568793        3.1635044763       24.7043233773
  H         3.7910964548        6.4937342738       24.5680178756
  O         8.6580228123        9.3208128734       24.4738048675
  O         5.6302706119        9.6419493535       24.3264298894
  H         1.8152392979        2.1352008068       24.9478439444
  H         5.7018625375        6.9630444932       23.4567841237
 Pt         3.0453761787        9.3640445679       26.6793935730
 Pt         5.7643094138        9.3545035256       26.4787831232
 Pt         8.5218282291        9.3038241104       26.7786150805
 Pt        11.5117089271        9.3050976622       26.7190812857
 Pt         8.5253905306        4.6028277979       -0.0971405468
 Pt         4.4123268572        6.9316842897       26.7579586020
 Pt        10.0251209556        7.0736494380       26.9045350928
 Pt         7.0781265698        6.9707446480       26.7060164577
 Pt        11.3717703855        4.4470701980       26.7536972210
 Pt         1.5779631771        6.8722500215       26.9153186798
 Pt         9.8855973725        2.1834009469       -0.1692269586
 Pt         7.1718744920        2.1270730200       -0.0648652867
 Pt         2.9456069188        4.5695199616       26.8066974423
 Pt         5.7720072763        4.5307655515       26.7353364635
 Pt         1.4976604581        2.1621639865        0.1390221982
 Pt         4.4601984256        2.1318764614        0.1206566372
  H         8.6001635418        1.2028199907        9.6195594958
  O         4.5192542071        8.7288387869       19.3698735407
  H         5.1275517965        8.9126906237       18.6311778781
  H         5.1339027103        8.2789685760       19.9691630127
