     243
Tv_1:  11.152900   0.000000   0.000000 Tv_2:   0.000000   9.658700   0.000000 Tv_3:   0.000000   0.000000  26.829700
 Pt         5.8612909010        7.9950370633        2.3481458409
 Pt         7.1980805106        0.7773966624        2.2796626755
 Pt        11.2442236870        7.8732660028        2.4137115050
 Pt         8.5002803575        8.0250874594        2.3130367506
 Pt         8.6190423124        3.1108998580        2.3181810701
 Pt         2.9687960988        7.9184599957        2.4543301141
 Pt         9.9323461438        5.5141253598        2.4125330762
 Pt         7.1709134861        5.6032300226        2.1900106561
 Pt         5.7530152544        3.1450822923        2.3195369092
 Pt         4.4418816957        5.5875524863        2.2963034701
 Pt         9.9703240501        0.6115070039        2.2889937539
 Pt         1.5340688404        5.4619524743        2.4208513819
 Pt         1.6108681793        0.5566387450        2.2747413016
 Pt         3.0004359816        3.1302410010        2.3461392760
 Pt         4.4187486470        0.6515075513        2.2630993854
 Pt        11.3532390246        2.9422755669        2.2672451986
 Pt         5.7309275273        6.5480360790        4.6114033070
 Pt         8.5936872692        6.4344691738        4.6470218423
 Pt         7.3248634045        8.8921736245        4.5858024904
 Pt         7.1090854789        4.1155256115        4.5613530807
 Pt         8.5609521709        1.6540214509        4.5595618463
 Pt         5.7880159403        1.6693477256        4.6925682034
 Pt        10.0292631699        4.0249658692        4.5098960468
 Pt        10.0644135034        8.8300141097        4.6826349181
 Pt         1.6482810110        8.7765884599        4.6610578975
 Pt         0.2812493564        6.3699816158        4.8587715211
 Pt         3.0025299407        1.6353977936        4.5458447214
 Pt         2.9772244481        6.3797346763        4.6896099089
 Pt         4.5030583374        8.8959156901        4.5634243196
 Pt         4.4477298507        4.0190870490        4.7291188114
 Pt         0.1643445075        1.5263351314        4.5268107626
 Pt         1.6377154763        3.9721744486        4.6514276555
 Pt         7.1545961861        2.4898236980        6.8272644485
 Pt        10.0031292694        7.2495610909        7.0017420659
 Pt         8.5892099636        4.9510236204        6.8895219420
 Pt         8.5159159359       -0.0560826783        6.9254666015
 Pt         5.7561329936        0.0617777254        6.9412284737
 Pt         3.1479898489        4.8566729460        7.0388569280
 Pt         3.1409153412        0.0615945957        6.8228005842
 Pt         7.1815056288        7.2646995148        6.8210084167
 Pt         4.3620934034        2.4390493309        6.9327106422
 Pt         1.6253683370        2.3911604369        6.8634143591
 Pt         0.3974268475        4.8352554416        7.0953349241
 Pt        10.1526596194        2.4033437434        6.6065759324
 Pt         5.8759768237        4.8901729473        6.8609434475
 Pt         0.3110270053        0.0748883804        6.9655546595
 Pt         1.6723413041        7.3183123213        6.9932129868
 Pt         4.4528374965        7.3504571261        6.9625579146
  O         5.8606341887        5.5595890887        8.9798930314
  O         1.7064522192        7.5189885145        9.2243203475
  O         0.3705401317        4.6443851517        9.0719830683
  H         4.0709550782        1.5489563529        9.5499226959
  H         6.9081176949        3.8977094632        9.5965968586
  O        -0.0110096582        0.1167337523        9.0872034537
  H         1.4949964099        8.4695974930        9.4173265365
  H         3.8905070478        3.1843639222        9.5984291769
  O         8.7375744784        0.5126376798        9.0585113958
  H        10.0123807517        0.2055889458        9.1842434174
  H         0.2209854752        1.1057653335        9.3026340387
  H         1.3465989271        4.6138537730        9.3341019589
  H         0.0439805276        3.2453839939        9.7048672703
  H         6.9457862009        9.8409660969        9.1559482097
  C         6.7332938533        4.9579017293        9.9580475184
  H         2.6943590010        7.4468482504        9.3536616057
  O         8.6837053030        3.2380120060        7.9346992924
  H         5.1741975533        6.6770380555        9.1890515716
  H         6.1399376395        4.8858807727       10.8807637519
  O         4.5102486198        7.5604472333        9.1367382163
  O         4.5447847890        2.4235272996        9.2814480507
  O         0.2628059028        2.3282347635       10.2008306480
  H         0.9847999339        2.3446221340       10.8508108086
  H        10.3582001611        7.5295643778        9.8572584946
  O         9.9455718565        6.8561234625        9.1292974041
  H         5.6651077198        1.3865131240       10.5928505642
  O         5.9989522460        1.2340221890       11.5288219431
  O         2.9413024887        4.5678615574        9.0904063716
  H         7.7514397324        5.3670902038       10.0820494525
  H         7.5296912090        6.6513413367       12.6479306052
  H         6.1979042115        1.8831680218       12.7233960512
  H        -0.6136511492        6.0049571097        9.2059012706
  H         5.1315313840        8.3755710112        9.4284054695
  H         5.9889917739        0.2270626011       11.6900088244
  O         5.9357753668        9.6985777386        8.9146713881
  O         8.2126994876        6.1716312489       13.1799833127
  H         3.6379420003        5.2319587234        9.4910816779
  H         9.8873091994        3.1983019111       12.1634658547
  H         8.9885817458        6.7774996820       13.2060412321
  H         8.2095403543        0.9694589254       12.3359668771
  H         0.2090893908        8.8600057845       12.0164052443
  H         9.2272571040        4.5442405864       12.8464772939
  O        10.6610540024        8.2132149678       11.8518999213
  O         9.1543112720        0.8027529026       12.6179307537
  O        10.0460376668        3.9151364528       12.8044035197
 Cl         6.0652705364        8.0491075100       12.0924016477
  H         2.4349462132        2.9979917385       12.1534481269
  O        11.6264857624        5.8781117646       12.8723060887
  H        11.1827834645        5.0039697122       12.7494490590
 Cl         3.3892590877        5.0750796258       12.0026727983
  O         6.4136500886        2.2852838021       13.6409810741
  H        11.0180498199        7.3130004257       12.1977388539
  O         2.1233085025        2.0008007031       12.0610091793
  H         1.2983526088        5.8623077978       12.3540889976
  H         5.7428477693        3.0479574880       13.9559821612
  H         6.2625917809        1.4514107667       14.3614719829
  H         9.2285370410        9.6089566566       12.1738969516
  H         5.6899625840        8.9906429617       13.9900581590
  O         4.8949126886        4.1385835713       14.2858040548
  H         4.1129596094        3.8916611062       14.8543652918
  H         2.8091868005       10.4686204160       11.0966658210
  H         1.9277914551        1.8153382406       12.9778402413
  H         7.4185644396        6.3043976798       14.5523536749
  H         1.8930533933        3.7811174809       16.2024883943
  H         4.4398540390        4.5156342150       13.4542271279
  H         9.6321177581        1.4734824661       14.3713753854
  H         6.0606181610        5.6993143495       15.0208937374
  O         5.5993636285        0.0156259330       14.6680791352
  H         6.0534108790       -0.3607552722       15.5236695159
  O         2.8697294919        3.9049819703       16.3798999709
  O         3.1279646994       10.0388857736       10.1999048567
  O         6.7675111350        6.2491126218       15.3688336676
  H         2.9056978777        4.7323442924       16.9520222350
  H         6.8456145969        7.8498445265       16.5488221090
  O         9.9496799889        1.3800698684       15.3181376856
  O         1.5150859576        1.8011622550       14.6417712547
  O         6.5566075086        8.7490817620       16.9190727098
  H         0.5940643606        1.7013709539       14.9560839377
  H        10.5726078582        2.6463285295       16.1744839044
  O        10.9320823320        3.4255049142       16.6232340420
  H         3.6740754665        9.2994364235       10.5109005190
  H         9.2732426098        0.9206334671       15.7850917497
  H         4.1319672810        1.3164450375       17.2919231103
  H         3.6265945962        2.8313383786       17.3477629670
  H         2.0462650560        1.3171259334       15.3164218645
  H        10.1325136983        3.9460054970       16.6116942301
  H        10.9317381934        6.1216126478       16.3126550887
  O         4.2031134192        2.1616828399       17.8705151691
  H         7.3765414873        9.2829023512       17.1930922112
  H         7.7833648937        5.0777494155       16.3864417201
  H         5.8798532475        2.4792050161       18.0951005560
  O         0.1389806803        6.6664731696       15.5815139245
  O         6.8447621779        2.5139582866       18.3071661097
  O         3.3758783901       10.0521344339       16.0219617156
  H        11.4573526630        6.1253946685       14.7853657687
  O         8.3116688629        4.4495525190       17.0241023266
  H         4.1075935906        9.7894684459       15.3850350008
  H         7.2310657275        3.1896144891       17.6978703602
  H         3.0499284432        9.1925452403       16.4281319142
  H         7.8934996922        1.3937035510       17.8360312337
  H         1.0667839241        7.7794807188       16.5695042073
  H         3.6124371417        2.1230393975       19.3212984825
  O         8.5352160070        0.7169083076       17.5604596380
  H         8.5178902248        4.8895331513       17.8724515618
  O         1.6450043755        8.1909213243       17.2638217443
  O         3.3640105663        2.2353300227       20.3078786749
  H         2.6969815933        2.9999559772       20.3000591739
  H         8.7881525895        9.9529004131       18.4430327385
  O        -0.0648781679        2.8049134571       19.0740352929
  H         1.0708349459        8.7221100840       17.9271569995
  H         1.0732476927        3.9238471277       19.7246310532
  H         2.4677810924        6.9296560026       17.8141457960
  O         8.7341626219        5.4365737330       19.6130963099
  H        10.9883141645        2.9093144909       18.0207185538
  H         2.1769265243        5.1818725618       19.6140618556
  O         1.7762762260        4.4837964347       20.2190471005
  H         8.0255892092        6.1423943212       19.9706912469
  H         8.2579778911        2.3631609280       21.4931456261
  H         3.6603653163        6.4267620169       18.8589690269
  H         8.3691915923        4.6058931659       20.0422170905
  H        10.2538283948        2.7125875633       19.4883564765
  O         2.9620704952        6.1414048452       18.2819368064
  O        11.7866829402        9.5179891040       19.3392131315
  O         8.4326384131        2.6807769158       20.5469675241
  H         3.1436964048       10.4311090792       20.7736743150
  H        10.0489367227        5.6301965076       20.8257406784
  H        12.6907957161        9.4025179258       19.8623879296
  O         9.1993729613        9.3678705243       20.1832710987
  H        11.5366545463        0.8037117341       19.3299290877
  H        10.2055818695        9.2359600379       20.2170423773
  O         3.0224954897        9.4267239794       20.8154422023
  O        10.8110275273        5.5239151321       21.4726420002
  H         7.5571801425        2.7178741891       19.9806282806
  H         9.0788185944        0.5870244447       20.6790766473
  H         8.0550345146        8.1050211347       20.6132386574
  H         3.9820081046        2.8469011028       22.0518800606
  H        11.6585706481        5.1720780574       21.0737554448
  O         7.3033730225        7.4678897776       20.7152357419
  H         3.7452548399        8.8336408631       20.3166294677
  H         3.1060703466        8.9336600713       22.4321862173
  H         7.1563979120        7.2339369540       21.7010828977
  O         3.9059356530        3.3317096910       22.8810647465
  O        11.5746263618        9.3368947612       24.3953532519
  O         3.4846069929        8.9028581703       23.3791898921
  O         8.5728780873        1.8907100026       23.3606804195
  H        10.5803799804        4.3737365339       22.8232281884
  H         3.0481637082        2.9671382722       23.2444356820
  H         3.4790801221        7.9423368311       23.7175056297
  H         0.5931436915        8.4114380856       24.0176100575
  H         7.6348029277        2.2315112593       23.5642113634
  H         9.1782335714        2.6304768511       23.3984715182
  H         5.0747091853        2.6855219696       23.5345659942
  H         1.2315124633        0.2667603123       24.0964380583
  H         4.1656368230        5.2139768103       23.4318802030
  O         0.7487854310        6.9798375091       23.6178802734
  H         0.9394765568        6.1213411039       24.0506884011
  O         4.4393707438        6.1331584795       23.5919801323
  O         6.0061066047        2.6574681686       23.8632736167
  O        10.6364420465        3.7538572214       23.5294898940
  O         1.7625376233        2.0699888842       23.9286903604
  O         7.1099799001        6.5832351836       23.1970195249
  H         8.6711617849        0.4428069571       24.0249947727
  H         4.9242853174        9.5798422660       24.2072581973
  H        12.0497399277        2.5953368410       23.8718487627
  H         7.2991545559        7.0427385286       24.0142980548
  H        11.5373796661        6.6350178249       22.7666775405
  H        10.0768951352        4.1230306265       24.2615953484
  H         6.0116837928        1.0860862322       24.3075238452
  H         9.8854223017        9.2550041905       24.2322227615
  H         5.9343911617        3.1319386551       24.7133676376
  H         4.3266782789        6.1323799639       24.5645260268
  O         8.9382685466        9.2085213028       24.5186632943
  O         5.7854909605        9.7757608710       24.5912711785
  H         2.3437720064        2.4901517107       24.6888356498
  H         6.0867323801        6.3637550937       23.3565910758
 Pt         3.0004653693        9.2817414655       26.8717092286
 Pt         5.8159252623        9.5147639404       26.7550266175
 Pt         8.6062399514        9.4130512556       26.6403613714
 Pt        11.2879987482        9.3807487980       26.7631869298
 Pt         8.7118556399        4.5363224189       -0.1651687568
 Pt         4.3510738917        6.9297544912       26.8110608984
 Pt         9.8960986391        6.9277360443       26.8430056918
 Pt         7.1792423034        6.9393960264       26.7454729911
 Pt        11.3523749679        4.5998585147       26.8612116590
 Pt         1.5981409601        6.8891653578       26.8482672942
 Pt         9.9131897626        2.2049239698       -0.0197982905
 Pt         7.2648522572        2.3413755167        0.0309303592
 Pt         2.9679536599        4.4531086128       26.7913966913
 Pt         5.7460782789        4.5812821878       26.6814777599
 Pt         1.7623035521        2.0756158531        0.0415969207
 Pt         4.4757395641        2.1803462505        0.0909416066
  H         8.7484803342        1.4741836662        8.9726271077
  O         4.8619738936        8.0080004001       19.2527966331
  H         5.2656803213        8.3736759928       18.4297631860
  H         5.6813302403        7.9621938695       19.7815085922
