     243
Tv_1:  11.152900   0.000000   0.000000 Tv_2:   0.000000   9.658700   0.000000 Tv_3:   0.000000   0.000000  26.829700
 Pt         5.7291438089        7.9544669303        2.2116903109
 Pt         7.2152816075        0.6664666564        2.4560655725
 Pt        11.5378923503        7.8129804403        2.3895321621
 Pt         8.5948220720        7.9106705716        2.2266093626
 Pt         8.6113467067        3.0803265725        2.2964213065
 Pt         3.1556167274        7.7974970724        2.3173532997
 Pt        10.0524929165        5.5445884425        2.4110939714
 Pt         7.2978505254        5.4438075651        2.3741228302
 Pt         5.8847778768        3.0421041834        2.5170892461
 Pt         4.4686353282        5.5074886305        2.4370308194
 Pt        10.0416377550        0.6681815303        2.3376753010
 Pt         1.5493953748        5.4659278776        2.3575616390
 Pt         1.5760335948        0.6465272586        2.3697764277
 Pt         3.0420500280        3.1145667277        2.3116550266
 Pt         4.3959651427        0.7002894411        2.3717781679
 Pt        11.4118632639        3.0882638310        2.2550931073
 Pt         5.9570931987        6.5792126592        4.5561263832
 Pt         8.8226486273        6.3583642702        4.6959559150
 Pt         7.3498811303        8.9338725763        4.6353763059
 Pt         7.2234797005        4.0658197739        4.6429509258
 Pt         8.7120668120        1.6185269269        4.5166959287
 Pt         5.9153700559        1.5691526730        4.7939764515
 Pt        10.0125869664        3.9997777859        4.6113803429
 Pt        10.0484400884        8.8605549208        4.5778310302
 Pt         1.7567057635        8.8815368746        4.5882911951
 Pt         0.3708953397        6.4868931931        4.7463678230
 Pt         3.1152895055        1.6033350806        4.5209115122
 Pt         3.0109935976        6.4222862402        4.7421161194
 Pt         4.5563653347        8.8814564562        4.6187144971
 Pt         4.4750802066        4.0473575361        4.7940935117
 Pt         0.2222709193        1.5747405305        4.5859305157
 Pt         1.6924940067        3.8589626980        4.5674725311
 Pt         7.3380653947        2.4526906820        6.8692110169
 Pt        10.0171492765        7.3883059409        7.0210211475
 Pt         8.8048490472        4.9666414647        7.0944467664
 Pt         8.7729872946        0.1759322454        6.9807440838
 Pt         5.8774231665       -0.0176940636        7.0175480024
 Pt         3.1751004126        4.9094825549        7.1084948481
 Pt         3.0466529666        0.1218517265        6.7069728002
 Pt         7.3641695802        7.3929609940        6.8863529276
 Pt         4.5542490122        2.5228133882        7.1031562306
 Pt         1.8520546356        2.5187433890        6.9416719835
 Pt         0.3105420150        4.8077363390        7.1719560155
 Pt        10.2485333476        2.4812641071        6.8173822273
 Pt         6.0381475992        4.9077532236        7.0210794747
 Pt         0.3692620510        0.1585056959        6.9253319604
 Pt         1.6205954197        7.2273930379        7.0315501115
 Pt         4.4678587608        7.2893825908        6.8673904433
  O         5.9853337195        5.3423117386        9.1738889936
  O         2.0906531773        7.5858671739        9.1184879893
  O         0.3249256939        4.5954829718        9.2392487220
  H         3.7760791313        1.4908300347        9.2938085984
  H         7.5920264974        4.2511104083       10.0194597511
  O         0.4446203194        0.3479520214        9.1315494496
  H         1.9282584341        8.5492996163        9.3055801055
  H         3.5969833389        3.3048706086        9.3575433378
  O         9.0133337491        0.2212388197        9.0783977970
  H        10.5784430831        0.2676860857        9.2086576187
  H         0.6265915311        1.3277791903        9.4604293166
  H         1.2516683320        4.7202170463        9.5307884474
  H         0.3570466841        3.2585845200        9.9201701043
  H         6.9714474472        9.2958305288        9.2186024542
  C         7.1761711011        5.2552144778       10.0598918677
  H         3.2383862521        7.6350408409        9.2205666340
  O         8.7283091823        3.2651239822        8.2353107471
  H         5.4985544613        6.2826041084        9.1998371510
  H         6.9027645472        5.4935779779       11.1087765627
  O         4.4980052941        7.5126261747        9.0058859730
  O         4.3144132201        2.3596847282        9.2691511059
  O         0.5409714325        2.4225291961       10.4917377115
  H         1.4150649908        2.4483548113       10.8618048008
  H        10.8093466822        7.4770416638        9.7472052218
  O        10.1151065136        6.8833566164        9.3416960945
  H         6.0667441064        2.8255329337       10.9131914695
  O         6.8430517232        2.4834510766       11.4437276949
  O         3.0939031750        4.4697786188        9.1915678522
  H         7.9433877183        5.8807250724        9.6029033635
  H         8.1984213509        8.1303000728       13.3385996927
  H         6.3304062638        2.6391821267       12.8813983202
  H        -0.7223850347        5.9577262667        9.4606033366
  H         5.0624344663        8.4185339391        9.1157220621
  H         6.7217935783        1.4875991334       11.4417978844
  O         6.0602488617        9.5372639773        9.0188242091
  O         8.4409074074        7.7330688155       14.2049642809
  H         3.7564647500        5.0681129491        9.5992739575
  H         8.8239549261        3.4996734525       12.8765969373
  H         9.3544798156        7.4171724746       14.2183364162
  H         8.8026353401        0.2205142705       12.0131838543
  H         1.9011725519        8.5930019474       11.5218176149
  H         9.5080949606        4.6044630193       12.1047665350
  O        12.0674299918        8.5506449923       11.6760442083
  O         9.5112385939        0.8095989214       12.4206635078
  O         9.4391923673        4.2492695915       13.0305722400
 Cl         6.8682696459        8.8355785835       11.8532099520
  H         3.0869719695        3.0687842063       12.0647996381
  O        12.1192461881        5.2486733995       12.5620327127
  H        11.6722171597        4.4118467453       12.4178013538
 Cl         4.1066760520        5.0814482664       12.0082346556
  O         6.1007980796        2.5298261638       13.8519950218
  H        11.8924015390        7.8656361375       12.3755243473
  O         2.6485232553        2.2197729794       12.1376021905
  H         1.9186870393        5.1014127387       12.3550941486
  H         5.4221245902        3.3596993055       14.1106505230
  H         5.6635919216        1.5647801140       13.9560593345
  H        10.2742791730       10.3916898771       11.8459892057
  H         5.6182553775        9.4322776598       13.4494047110
  O         4.7846792352        4.4990447380       14.6995864042
  H         4.1028681682        4.2606932901       15.3841037654
  H         3.1679707264       10.2683956330       11.3953136642
  H         2.1200305134        2.1456549078       13.0095328148
  H         7.1729707232        6.8892261195       14.8540797146
  H         2.0358734525        3.6124505822       15.8750553174
  H         4.3358965738        4.7406428451       13.7250134002
  H         9.8404013552        1.0908926662       14.1715155035
  H         5.7970589380        5.9170953381       15.1075291702
  O         5.1948597030        0.1904775278       14.2896590492
  H         5.8156698695       -0.0173393714       15.0826952282
  O         2.8127921669        3.8995870184       16.4565222645
  O         3.4827331940        9.4507319934       10.8546807208
  O         6.4626814360        6.5253528928       15.5534824141
  H         2.6683658818        4.7460717822       16.9824416988
  H         6.3492115494        8.0497889154       16.1279708507
  O        10.0927264952        1.4734448141       15.0318103621
  O         1.6290810727        2.3113919915       14.8159593702
  O         6.1919086924        8.9891166908       16.4172795609
  H         0.7178472048        1.8958444286       14.9014542902
  H        10.2555481684        3.3027862197       15.6148629420
  O        10.1968193939        4.0997280221       16.1962802918
  H         4.3545032365        9.1102732186       11.0137839671
  H         9.6956024831        0.8484479993       15.6589004688
  H         4.0043864884        0.9389636603       16.8829642010
  H         4.0205337333        2.5136553576       16.9544104762
  H         2.2806284199        1.6255056996       15.2059332746
  H         9.2199271574        4.3367203702       16.2806927261
  H        10.5055204695        5.8860471693       15.1102757611
  O         4.4319153028        1.7074484850       17.3910574934
  H         7.0794194630        9.3373532413       16.7301294580
  H         7.1502158572        5.6392671179       16.7818915220
  H         6.0349241067        2.1662471856       17.7210320317
  O        -0.2421966066        6.4865046269       14.4379173700
  O         6.7435801084        2.6050280681       18.3047268175
  O         3.1571724798        9.7358022400       15.7166881482
  H        11.4127955871        5.9323091199       13.8343433593
  O         7.5395037903        4.9200448243       17.3544285010
  H         3.7302768222        9.3760584439       15.0153974061
  H         6.8329759735        3.4765388965       17.8646340181
  H         2.6300388763        8.9618386699       16.0269563988
  H         8.0182772760        1.3535267045       17.7534311059
  H         0.9498053225        6.9881579011       15.6826983987
  H         3.9894164445        2.5108421594       19.2379865537
  O         8.3799586421        0.5094058351       17.4222436973
  H         8.2039077057        5.2878647485       17.9929624983
  O         1.5475074785        7.4697727100       16.3001094564
  O         3.5490151553        2.3622515365       20.0919985787
  H         2.7107037352        2.9214664881       19.9918498258
  H         8.8090393369        9.7511260109       18.1951775204
  O        -0.2843416003        2.4756849536       18.7919505251
  H         0.8687248958        7.8055073029       16.9635822446
  H         0.7183407309        3.7734472508       19.3898917081
  H         2.4038347811        6.6454851268       17.5648995225
  O         8.7966608393        5.2597030077       19.8898514938
  H        10.3447659449        2.7299194300       18.0115046288
  H         1.7202092946        4.9152847634       19.4727483023
  O         1.3305011872        4.1840985183       20.0061255613
  H         8.0569632096        5.9438054609       20.0564412443
  H         8.2887028840        2.4627920453       21.5036954472
  H         3.6238116197        6.2396842564       18.4394859717
  H         8.6158858822        4.3115159842       20.1950789839
  H        10.1763115084        2.2988820553       19.5094698975
  O         2.6767080850        5.9936952416       18.2160683186
  O        11.6965200059        9.0428993452       19.0277051353
  O         8.5461501203        2.3688871493       20.4918478672
  H         3.2047509472       10.1659184135       19.7616810531
  H         9.9318319172        5.3073522864       21.0530202492
  H        12.5734454781        8.8507783504       19.4696810658
  O         8.9039468454        8.9281246830       20.0287326532
  H        11.6875266651        0.3869269909       19.0105201179
  H         9.9100314373        8.7727644688       19.9830423307
  O         3.0260090322        9.2544406316       20.2198701016
  O        10.6357179051        4.9573207745       21.7071999627
  H         7.6746996668        2.2378899706       20.0776197219
  H         8.7604177921        0.1317385570       20.4507769272
  H         7.7142762637        7.6996241175       20.5515242168
  H         3.9856195699        3.0696008841       21.5226598877
  H        11.3125285086        4.5877146199       21.1040928235
  O         6.9463880450        7.0140260797       20.4351637605
  H         3.5794590705        8.5697479815       19.7347549992
  H         3.1040306004        8.8914236322       22.5126653001
  H         6.6568525880        6.8677387251       21.3774697617
  O         3.8025988288        3.4567404469       22.4834860320
  O        11.5377189294        9.3255433673       24.5483070000
  O         3.2555091721        8.6402403174       23.4213487408
  O         8.3828066849        2.1176534761       23.0747746552
  H        10.3787197310        3.7257974256       22.8929335822
  H         2.9493324857        2.9969625511       22.7734197611
  H         3.5074234661        7.6750992869       23.2850465303
  H         0.5068984136        8.3811091476       24.2505843510
  H         7.5904990426        2.4818025224       23.6568495687
  H         9.1929459518        2.6210542106       23.4986884891
  H         4.9815620017        2.7907129236       23.5893616984
  H         0.9669652586        0.3334035341       24.0568619561
  H         4.0403871144        4.8634987523       22.9859659230
  O        -0.3336871442        6.6095826136       23.9179542562
  H        -1.2396009709        6.9926155755       23.9592006598
  O         4.1427842109        5.8053170483       23.4182745336
  O         5.8222994216        2.6932739088       24.0899388806
  O        10.4660983934        3.3560541104       23.8254873809
  O         1.5987986463        1.9204659664       23.8715344426
  O         6.5197214595        7.0123693810       23.0093867641
  H         8.5165275602        0.6684249716       23.7482223661
  H         4.7838107878        9.3147547146       24.0882007368
  H        11.9713329993        2.4425182537       24.1380816992
  H         6.5414382916        7.9093054035       23.4292684184
  H        10.6938839402        6.1951342416       23.0181335433
  H        10.1972227744        4.0775674677       24.4488256635
  H         5.7283658101        0.9880445246       24.3547158461
  H         9.7102252443        9.4060497170       24.2169478383
  H         5.6255273789        3.2247921527       24.9186964556
  H         4.4048227032        5.6594850567       24.3653991990
  O         8.7313841961        9.4528785724       24.2901704582
  O         5.6980079688        9.6024597837       24.4301119328
  H         2.1266396677        1.6038810482       24.6910237364
  H         5.6422709540        6.5499303942       23.1076637769
 Pt         2.9380512160        9.2869728918       26.8885668977
 Pt         5.8410452186        9.2800401159       26.5645079312
 Pt         8.5684519684        9.3801070191       26.6705613780
 Pt        11.2466032112        9.2724602355       26.8165483165
 Pt         8.5160249765        4.5025685641       -0.0718858180
 Pt         4.3114965734        6.9278137545       26.7915481218
 Pt         9.9377398641        6.8663691216       26.8907897283
 Pt         7.1201895985        6.9032624996       26.8148249258
 Pt        11.3200327872        4.4893764860       26.6949270148
 Pt         1.6024580399        6.8320392801       26.7811975093
 Pt         9.9241512727        2.0041070923       -0.0151382394
 Pt         7.0756831113        2.0580626370        0.1875951982
 Pt         2.9233029117        4.4305899293       26.7722304605
 Pt         5.8354266751        4.4676654778       26.7935185698
 Pt         1.5836986858        2.0621117241        0.0513707839
 Pt         4.3359771995        2.1978804407        0.0370657286
  H         8.8402924793        1.1320246935        9.2912115230
  O         4.8842493834        7.7837645589       18.6549846544
  H         5.2426473720        8.3390504443       17.8725102735
  H         5.5590663562        7.5562318391       19.3506116404
