     243
Tv_1:  11.152900   0.000000   0.000000 Tv_2:   0.000000   9.658700   0.000000 Tv_3:   0.000000   0.000000  26.829700
 Pt         5.7686661685        8.0722372638        2.1874074807
 Pt         7.2582803119        0.7310901854        2.2368437615
 Pt        11.3681186330        7.8286929146        2.3543816638
 Pt         8.4968846563        7.9940652084        2.2795791028
 Pt         8.7319315414        3.0200307162        2.3918771836
 Pt         2.9381301668        7.9120154010        2.4088759337
 Pt         9.9261273957        5.3965503031        2.4405312890
 Pt         7.1995368225        5.4521972429        2.3131308186
 Pt         5.8919248525        3.0738654103        2.4078394425
 Pt         4.3950123009        5.4311054014        2.3179368037
 Pt        10.1388501423        0.5354802641        2.2552258608
 Pt         1.5086273464        5.4234578735        2.3512218704
 Pt         1.7250583836        0.5977625879        2.3944242010
 Pt         3.1274822816        3.0966969065        2.3057788684
 Pt         4.5346393074        0.7507806460        2.2662169264
 Pt        11.4604331170        2.9730314496        2.3965437809
 Pt         5.8318708009        6.4113334848        4.6531870148
 Pt         8.6270190194        6.4089086153        4.5721784928
 Pt         7.2187978278        8.7809717847        4.6609202722
 Pt         7.3443959488        4.0828627714        4.6412338423
 Pt         8.6821385922        1.3860372920        4.6072429224
 Pt         5.9823589372        1.5962466291        4.7587677629
 Pt        10.1419511371        3.9238254059        4.6972793129
 Pt        10.2187634184        8.6485587763        4.6734026317
 Pt         1.8118402703        8.7183014500        4.7982813249
 Pt         0.3238521396        6.2843999744        4.7761659384
 Pt         3.1395949820        1.6039579443        4.5514831391
 Pt         3.1381449256        6.2672008499        4.5435248767
 Pt         4.4940168093        8.7888391880        4.5169558521
 Pt         4.5479312552        3.9438718745        4.8026838989
 Pt         0.3181940824        1.3636154915        4.6100748928
 Pt         1.8235273392        3.8282319492        4.7184890320
 Pt         7.3965092790        2.5014501258        6.8386836435
 Pt        10.3118461577        7.2081544695        7.1208750791
 Pt         8.6610123136        4.9837582843        7.0630080804
 Pt         8.9053982898        0.0751225960        7.0492265537
 Pt         6.0489438280        0.1391960112        7.0508787358
 Pt         3.3326497765        5.0124261626        6.9815051585
 Pt         3.3207984288        0.2184081618        6.7998361891
 Pt         7.5161651632        7.4601071442        6.9367842429
 Pt         4.6698301244        2.5282639379        7.1875835269
 Pt         1.9887099513        2.5826350855        7.0412081598
 Pt         0.5022647739        4.8211274429        7.0027863986
 Pt        10.2588533833        2.3891791757        6.8529777258
 Pt         5.9759003108        5.1596387572        6.9569263171
 Pt         0.6083169836        0.0318797727        6.9856899670
 Pt         1.9253940006        7.2779858602        7.0627387578
 Pt         4.6950682053        7.5111467330        6.8762445510
  O         6.0355216570        5.5245569836        9.1471496999
  O         2.0202869209        7.4261491908        9.1542461439
  O         0.3541580660        5.0367409049        9.1716770783
  H         4.3699298704        1.7697503854        9.7660456024
  H         7.4600906577        4.4980220666       10.2315632406
  O         0.4589042103        0.1575001975        9.0721997781
  H         1.5845705575        8.2377971224        9.5235090086
  H         3.5927940266        3.9586083764        9.3763186643
  O         8.9363082609        0.2841495036        9.0806264073
  H        10.5891061689        0.1565716052        9.2004340542
  H         0.8049245095        1.0133019901        9.5286788357
  H         1.3060826373        5.2663462709        9.5097833305
  H         0.7556042824        3.2661393911       10.0890294928
  H         6.7134947761        9.1985926580        9.3954141787
  C         7.1360460900        5.4963337096       10.0698004852
  H         3.1199089421        7.5856703882        9.1648711437
  O         8.9073969039        3.2644602127        8.2301049817
  H         5.4791446789        6.3385109798        9.2742907308
  H         6.8654880058        5.8602848598       11.0285145569
  O         4.5595383801        7.5547953943        8.9611521156
  O         4.7400126252        2.5598312025        9.2650664099
  O         1.2348830062        2.3986684173       10.1595502640
  H         1.7010260291        2.5500969236       11.0627644029
  H         9.4053339933        7.2827766728        9.5399160437
  O        10.2990657243        7.1971956311        9.2133041718
  H         5.7529471212        2.4467649110        9.7124142474
  O         6.8332661948        2.4415223457       10.7368041819
  O         3.0482091478        4.7497227251        9.2609134845
  H         7.9579374752        6.0003244366        9.5913631514
  H         9.0911881770        7.8524059431       13.5334767757
  H         6.4351469950        2.6970699078       11.6037747296
  H        -0.2582171115        5.8967454059        9.3762726451
  H         4.9586236025        8.4105066213        9.3166913931
  H         6.9056366550        1.4302118996       10.8675690696
  O         5.8342652528        9.6431837644        9.1470891429
  O         9.2061103489        8.0522022810       14.4758739021
  H         3.4691861062        5.4867439765        9.8732917553
  H         9.9986209780        3.8582241350       11.1191383048
  H         9.9838592467        7.5125412227       14.7542641794
  H         9.2878121119        0.2996397681       12.1796527075
  H         2.2152554244        9.5132847685       12.1411140470
  H        10.2852869201        2.7343942121       12.0766843962
  O        12.5230979781        9.0514409679       11.9708462648
  O        10.0362788301        0.7373032589       12.6686334430
  O        10.3303553540        3.6879964807       12.0099683391
 Cl         7.4037084243        9.0834164875       11.6829243502
  H         3.0083061806        4.1162791411       12.4733962132
  O        11.5459995748        5.8796390239       13.1255802317
  H        11.2431836253        5.0093404772       12.6994994695
 Cl         3.6317255569        6.4389689057       11.8291985611
  O         5.8662609142        3.0235339464       13.0813080361
  H        12.7337555605        8.1080596324       11.9838650412
  O         2.3530170571        3.3741752050       12.4126833738
  H         1.3642409166        5.8610371347       13.0007997089
  H         5.7373285290        3.8834953889       13.4729055312
  H         6.0456225329        2.2948142541       13.7128921348
  H        10.9076264016       10.0354675657       12.3219461258
  H         6.2435353575        9.5439776992       13.6519773405
  O         5.3031731885        5.4513933827       14.1847152683
  H         4.6318946080        5.1563426636       14.8574852182
  H         3.9286620185       11.4582351287       12.1872669850
  H         1.9302116135        3.2688518480       13.3111768163
  H         7.6561584164        7.2836342536       15.0701291220
  H         2.7749411924        3.6642148283       16.0725958119
  H         4.7505290523        6.0133591293       13.5378251845
  H        10.1378967042        0.9113861154       14.6685919034
  H         6.2808801334        6.4290604570       15.0475211418
  O         5.7850488229        0.1437209866       14.4776834870
  H         6.5611751012        0.0976430761       15.0794791315
  O         3.3387277300        4.3347151403       16.4780161362
  O         3.8259800730       10.6500198234       11.5934943651
  O         6.9600797972        6.8699965325       15.6314102325
  H         2.8166357093        4.9145274481       17.0701145352
  H         6.5916757738        8.0529786575       17.0795117895
  O        10.2303700864        1.3861391646       15.5399136060
  O         1.7343515842        2.5433843002       14.8773971557
  O         6.2123941535        8.6784976879       17.7895462623
  H         0.8304148471        2.0913974128       14.9716967985
  H        10.1265971081        3.1404962535       15.8907876024
  O        10.1586907387        3.8721259179       16.5431562077
  H         4.6670861093       10.1286327997       11.6624738254
  H         9.7395664127        0.8296517364       16.2878944809
  H         3.7380507805        1.4597226721       17.2706027018
  H         3.9953448784        3.1235912303       17.3265039933
  H         2.3318357741        1.7137177501       14.9019981983
  H         9.2048139872        4.2400576134       16.6037790907
  H        10.8155755793        5.5556632346       16.1537940640
  O         4.1637306824        2.1880767558       17.8179572065
  H         7.0865538453        9.0607599650       18.1310797776
  H         7.3528060180        5.5669199347       16.4449926127
  H         5.8596084113        2.3086430556       17.7930774122
  O        -0.0847809770        6.4478907988       15.7214103338
  O         6.9197135357        2.4364330091       17.7264629014
  O         3.2869637979       10.0338584913       16.0022863287
  H        11.3558569154        6.1382710073       14.8279778539
  O         7.7115640610        4.8428920524       17.0707542876
  H         4.0662817945        9.6366314461       15.5073484891
  H         7.0126288304        3.3146297372       17.3972596792
  H         2.6924805972        9.2587511458       16.3036852494
  H         7.9942249727        1.2330007687       17.4694311891
  H         0.7824185435        7.6952616609       16.7282454146
  H         3.4578904401        2.3213914820       19.4200519131
  O         8.6929666918        0.4959264286       17.6332980372
  H         7.8440657912        5.2700828020       17.9954642433
  O         1.4709947008        8.0979347246       17.3991857234
  O         3.2095922092        2.0614893740       20.3819191866
  H         2.5058030882        2.7200878119       20.6074518348
  H         9.2743543146       10.3283047747       18.3808413608
  O        -0.4593820202        2.6366319247       18.9197742184
  H         0.9103938198        8.3735720423       18.1828868657
  H         0.6335397783        3.4537651322       19.5743097111
  H         2.3864143372        6.7705574240       18.3414942621
  O         8.0762844305        5.4486706870       19.7460440011
  H        10.6804670975        3.0753257163       17.9907130685
  H         1.7141180817        4.6489585997       19.5224459811
  O         1.2360166871        4.0323769381       20.1085529363
  H         7.5712483836        6.1626223104       20.2565284422
  H         7.7479930607        2.3191369820       21.0921492356
  H         3.6617279833        6.3444736467       18.9635407122
  H         7.6852454843        4.5653555631       20.1320690088
  H         9.8013544245        2.7527215453       19.3759137396
  O         2.8196935127        5.9505895256       18.6616668876
  O        11.4409651808        9.4100314006       19.3985290550
  O         8.1610239141        2.7705422403       20.3125836935
  H         2.9001840729       10.0869961867       20.8482968548
  H         9.6769292650        5.4247055800       21.1776843693
  H        12.2747031455        9.3255333487       19.9839380570
  O         8.7707137915        9.3016539734       20.9391696304
  H        11.5897882760        0.6427528829       19.0973169919
  H         9.6520480173        9.5290644533       20.5016546639
  O         2.5446534184        9.1564244410       20.9351108898
  O        10.5588870053        5.3196443304       21.6362040621
  H         7.7119569973        2.4515874070       19.4922349881
  H         8.6276321014        0.3709246185       21.6294304825
  H         7.7332490230        8.1770344117       21.2377553648
  H         3.7624135154        3.1690084193       21.9596141354
  H        11.2350766431        4.8681580038       20.9895336789
  O         6.9121886140        7.5313749241       21.3752294058
  H         3.1573100887        8.6114848030       20.3480479397
  H         3.1915659989        8.7169908372       22.5242023674
  H         6.9563610074        7.1763893207       22.2858439624
  O         3.7561259781        3.5320542337       22.8895162921
  O        11.3443698052        9.2106090639       24.4378468574
  O         3.4076281622        8.6069900040       23.4965333723
  O         8.4002071740        1.7800764015       22.9344038684
  H        10.2842689919        4.1499996293       22.7300760374
  H         3.2106558774        2.8888832172       23.3911284507
  H         3.3945079847        7.5932895958       23.6384828231
  H         0.2793796957        8.2243312124       24.1371076790
  H         7.5975197173        2.3449332073       23.3310463954
  H         9.2285681484        2.4089368162       23.0976925386
  H         5.2828437551        3.1611624152       23.5564370198
  H         0.9064455306        0.1892647767       24.2386907418
  H         3.2680935895        5.1447791838       23.3181204162
  O         0.4216891518        6.6765480089       23.8003509534
  H         1.2992484350        6.2146503336       23.8335117014
  O         3.0225018295        5.9004979626       23.8840245006
  O         6.0831660626        2.6870171823       23.8638206354
  O        10.3817639687        3.4836837416       23.5059906495
  O         1.8047069769        1.8032344072       23.8181492727
  O         7.0278262636        6.3774583912       23.7007428339
  H         8.3821637036        0.5819484874       24.0487982634
  H         4.7846836514        9.1394707606       24.0670159865
  H        12.2410023118        2.1900859686       23.2715641347
  H         7.7949077074        6.1008402782       24.1991431111
  H        11.0828978966        6.2814537141       23.0246131178
  H        10.2572965526        3.9984655328       24.3417839182
  H         5.5744637618        0.9174819697       24.1343272667
  H         9.5938329335        9.3002690073       24.4233863779
  H         6.3433099103        3.2307321050       24.6593300339
  H         3.2983335662        5.7389762611       24.8222616636
  O         8.5868423381        9.3626143475       24.5282462816
  O         5.5556347864        9.6530670062       24.5224051041
  H         1.6510222706        2.2328260764       24.7524433098
  H         6.3022169900        6.3918102459       24.3484186092
 Pt         2.8295762038        9.1959893255       26.8076990796
 Pt         5.6760013117        9.3385794081       26.6228681199
 Pt         8.3861197509        9.2432451884       26.7110611166
 Pt        11.1913544519        9.3809813467       26.8419015666
 Pt         8.4221778197        4.5518688088       -0.1086334143
 Pt         4.2859006231        6.8165500925       26.8694812827
 Pt         9.8200011036        6.7779399303       26.9171637802
 Pt         7.1339666305        6.8724479379       26.9523149124
 Pt        11.3018849624        4.4228953335       26.7378931990
 Pt         1.4417062670        6.7882372730       26.8530632821
 Pt         9.7917700832        2.1880612915        0.1203537238
 Pt         7.1573321060        2.1138895776       -0.1569482247
 Pt         2.8452557146        4.4949521771       26.8163095909
 Pt         5.6787323585        4.3923420194       26.8999115649
 Pt         1.4471226701        2.2280463296       -0.0620454009
 Pt         4.1794270723        2.1558523451        0.0627174963
  H         8.5552459495        1.0493457619        9.5120409768
  O         4.5820854030        7.5786671571       19.5432407249
  H         5.2305394901        8.1113010531       18.9124749676
  H         5.1976970517        7.4452239089       20.2918948347
