     243
Tv_1:  11.152900   0.000000   0.000000 Tv_2:   0.000000   9.658700   0.000000 Tv_3:   0.000000   0.000000  26.829700
 Pt         5.8125019856        8.0281255189        2.2680231648
 Pt         7.2032073146        0.7676445021        2.2861231367
 Pt        11.3481364349        7.7263613605        2.5654458212
 Pt         8.5321556507        7.8831034570        2.2569322684
 Pt         8.6121101625        3.0181309766        2.3469128779
 Pt         2.9271722652        7.7345692954        2.4557279797
 Pt         9.8767403723        5.4315776814        2.2881019991
 Pt         7.1518510842        5.4896107606        2.3632971865
 Pt         5.7651382258        3.1009162339        2.3882906709
 Pt         4.4181423721        5.3704684409        2.4741180787
 Pt        10.1085141218        0.6028233552        2.3695664693
 Pt         1.4350467634        5.3831979750        2.4617787624
 Pt         1.6447998524        0.5516369003        2.4149231136
 Pt         2.8678091421        3.0541634064        2.3833050296
 Pt         4.4109241993        0.7447344757        2.4508334664
 Pt        11.2999095561        2.9888484990        2.4575257607
 Pt         5.9691698579        6.5017962066        4.6361856259
 Pt         8.8582189207        6.4125318494        4.5821378138
 Pt         7.4213747248        8.7800223425        4.5175409468
 Pt         7.3180221896        4.0401246998        4.6230779998
 Pt         8.7794151492        1.5069971035        4.6489517034
 Pt         6.1270123229        1.4717244233        4.7295011371
 Pt        10.0943943145        4.0385075913        4.6866542173
 Pt        10.2358481597        8.8252877728        4.7552255798
 Pt         1.8648515270        8.7794018160        4.7568872155
 Pt         0.3804384136        6.3898559882        4.8041314728
 Pt         3.1607418322        1.6403367515        4.6565004976
 Pt         3.1609198722        6.3757925208        4.7298024463
 Pt         4.6825837944        8.9466226624        4.6576464437
 Pt         4.5637360455        3.9953196062        4.7360045301
 Pt         0.3668851497        1.5327921856        4.6541344052
 Pt         1.8406894181        3.8950213220        4.8311687437
 Pt         7.4428923639        2.4441557413        6.9374288274
 Pt        10.4133944597        7.4194850222        7.0689890368
 Pt         8.9353240936        5.1141072974        7.0177543426
 Pt         8.9793496167        0.1423647153        7.1199827210
 Pt         6.1001680365        0.1959883317        7.0225884144
 Pt         3.4929392799        4.9606088054        7.0506326542
 Pt         3.4254175030        0.1700921844        6.9579988873
 Pt         7.6550419387        7.4800511863        6.7987127626
 Pt         4.6823434676        2.5903968281        7.0181643570
 Pt         1.9906572680        2.5680330755        7.2414814708
 Pt         0.6240828459        4.9836665714        6.9789928393
 Pt        10.3628015752        2.4198210691        6.8639870976
 Pt         6.2673139627        4.9927359717        6.8958667053
 Pt         0.7680013412        0.0636151421        6.9713170915
 Pt         2.0221518708        7.2520566197        7.0704479254
 Pt         5.0257671638        7.5320418844        7.0438222505
  O         6.1226148891        5.2329293309        9.0949409228
  O         2.0689908036        7.3850849566        9.1484559460
  O         0.4079669046        4.7866217278        9.2062162709
  H         4.0794324132        1.6285739183        9.4212517875
  H         8.2136987021        4.9670953676        9.5042468535
  O         0.6725833607       -0.2272095783        9.0827689706
  H         1.4807283737        8.2657519577        9.2718606167
  H         3.7386031133        3.8095850435        9.3171067474
  O         9.1236022218        0.3486770104        9.3459204332
  H        10.1419553666        0.1129440742        9.3233407926
  H         1.0751016506        0.6649168835        9.2597893983
  H         1.3312786329        5.0599237255        9.5129623989
  H         0.7210077782        3.1802192946        9.5070089103
  H         7.0470137216        8.9628568453        9.0570966529
  C         7.2894162958        5.5299597430        9.8372566215
  H         3.0630527749        7.4740220615        9.2682064456
  O         8.8840723142        3.3801222616        8.0748031489
  H         5.4652558140        6.1454015358        9.3014229909
  H         7.1106540489        5.3498755206       10.9435959876
  O         4.6931255569        7.2930255110        9.0682291234
  O         4.4983076869        2.5501473660        9.1989171335
  O         1.2874715104        2.3462148642        9.5097830203
  H         1.7941685804        2.4632307686       10.4177622260
  H        10.5172767898        7.5276031388        9.8069269528
  O        10.1147445111        6.8422681898        9.2406107969
  H         5.5607067827        2.5589662147        9.6487066781
  O         6.5363597269        2.2022668057       10.2789111694
  O         3.1725318953        4.6660198642        9.1454794944
  H         7.5526913786        6.5631524458        9.6044478853
  H         8.0020079508        7.0578591963       12.9818401673
  H         6.4831820355        2.2569652318       11.2690942421
  H        -0.4582251260        5.9166016425        9.3489393180
  H         5.0728405312        8.1181988069        9.4926642632
  H         6.5353180827        1.2226364116       10.0479644037
  O         6.3025113752        9.5456814659        9.0930331876
  O         8.6155852449        6.4941392071       13.5532192190
  H         3.4553661770        5.3954237454        9.7970416792
  H         9.2311495806        3.7227668613       11.1102093707
  H         9.2305786233        6.1288163580       12.8897269244
  H         8.1820876160        0.1606330297       12.0001288835
  H         1.1189776865        8.3634344954       11.9968905074
  H         9.6556395537        2.6412181052       12.0222260267
  O        11.3562688688        8.1167009274       11.7179523961
  O         9.0377211148        0.5623406718       12.2285155928
  O        10.0390020647        3.3518724657       11.5365206646
 Cl         6.4180551661        8.6395474809       12.0499854986
  H         2.5849191871        3.6990998680       11.8796949065
  O        11.2205381108        5.5124152087       12.4577993027
  H        10.9854837582        4.6178882721       12.1660872345
 Cl         3.2668656354        5.7461393415       11.7955504591
  O         6.3772192424        2.3992729057       12.9206317040
  H        11.2912310224        7.1799839178       12.0181636380
  O         2.1980553581        2.7373476440       11.7777334916
  H         1.0773896823        5.4491736283       12.3066386576
  H         5.6858452509        3.0196730949       13.3549327344
  H         6.0974615429        1.5445464175       13.1296841284
  H         9.7121451850        9.5061880923       12.1106817205
  H         5.4331674405        8.7172435435       14.1776432214
  O         4.9384264478        4.4116436236       14.1514570962
  H         4.3420444513        4.2233389143       14.9044553685
  H         3.4279901957       10.8867467514       11.4497665321
  H         1.7149469945        2.4028940471       12.6044605926
  H         7.5522550621        6.0331482319       14.7690589567
  H         1.9933602848        4.5148509267       15.9493936461
  H         4.4093265887        4.8883221654       13.5089609665
  H         9.2425983103        0.8459816018       13.9298090827
  H         6.1085724339        5.4225477367       14.9511816391
  O         4.8994162626       -0.7254163929       14.9745388310
  H         5.3360227670       -1.1161288864       15.7767273847
  O         2.8720406358        4.1709456311       16.2468088016
  O         3.8290003373       10.2865365732       10.7879426604
  O         6.7919141147        5.9735911299       15.4067276947
  H         3.1028999100        4.7988286200       17.0063434405
  H         6.3883997553        7.3747452294       16.7545056875
  O         9.8656938576        0.8369322190       14.7108275105
  O         1.4743111690        1.9527992753       14.2426883395
  O         6.2376574371        8.1928712217       17.2819224274
  H         0.5372846631        1.7947790976       14.4108668944
  H         9.9630495474        2.4616668446       15.7325594264
  O         9.9805602122        3.1971050574       16.3845990457
  H         4.4926103743        9.7874928577       11.3079494348
  H         9.5732170377        0.1528368686       15.3734312944
  H         3.6977372698        1.1005970388       16.9633884765
  H         3.6421544407        2.6791846645       16.7230566362
  H         1.8962604516        1.1878449809       14.7902030555
  H         9.1024087117        3.6462391993       16.6212849322
  H        10.9774497420        4.5768526749       16.0165819881
  O         4.0735464995        1.9820123829       17.2471021806
  H         7.1453165012        8.6135165229       17.4110938493
  H         7.5056601405        5.1691942693       16.5654537849
  H         5.7628562857        2.1567831617       17.7664014325
  O         0.4817528554        5.2588180276       15.7386706805
  O         6.7828402320        2.2573057286       17.8659901691
  O         2.6378948842        9.8648422482       16.0574491385
  H        11.4934518644        5.2564965651       14.7280113062
  O         8.0869804688        4.6451716294       17.2220689768
  H         3.3765200162        9.3454985825       15.5836133842
  H         7.0824133823        3.1774063957       17.6740280294
  H         2.0905887815        9.2343738004       16.6186950122
  H         8.1225927663        0.6320287321       17.4991519131
  H         0.4013446541        6.8572554847       16.9603509712
  H         3.5055329577        2.3683841087       19.1823845651
  O         8.5486244108       -0.2178998517       17.6730394958
  H         7.9693874128        4.9890867481       18.0982358399
  O         0.9043047164        7.5714144707       17.3245870199
  O         3.2621924933        2.4477329205       20.1163968741
  H         2.4110555788        3.0278093053       20.1068583096
  H         8.6209243795        9.4037227102       18.6317660036
  O        -0.4617877417        2.2665348878       18.8856929402
  H         0.1911079709        7.9746031963       17.9189698560
  H         0.4888006106        3.6841527592       19.4674772866
  H         2.2863557657        6.6874970194       18.5384553352
  O         8.2946721972        5.4008159967       19.9296923009
  H        10.3558294955        2.5710850916       17.9530115221
  H         1.6288470462        4.8832483873       19.5656301058
  O         1.2597576526        4.0950699428       19.9513468473
  H         7.5850270110        5.8923713356       20.4128131966
  H         7.9845721047        2.3425797812       20.9994117031
  H         3.5821185196        6.4915498923       19.2702726527
  H         7.9824509882        4.5024071301       20.1898193544
  H         9.8352696156        2.3876742222       19.3741538494
  O         2.8900249094        5.9540567864       18.8066277323
  O        10.9664178740        9.2110816476       19.4926503636
  O         8.1767679087        2.6311107876       20.0698340172
  H         2.8486719377       10.3875896284       20.6801548593
  H         9.8785188136        5.4327074366       21.0490997986
  H        11.8061163405        9.2913369607       19.9076518358
  O         9.0548125882        8.4520367814       21.3247619605
  H        10.8405924546        0.4298866015       19.1064457639
  H         9.6249055286        8.5326036860       20.5381521099
  O         2.8436198647        9.4486670752       21.0364466233
  O        10.5921742463        5.4420221039       21.7172019765
  H         7.4585471600        2.1884259955       19.5252758273
  H         8.9551837829       -0.2737589879       21.6198607248
  H         7.4528423584        7.6642266126       21.3896847414
  H         3.2409835445        3.9804743111       21.7381463183
  H        11.3334546259        5.2124434164       21.2054565191
  O         6.6535903994        7.1058084810       21.2908546618
  H         3.3702504623        8.8629169376       20.4608391786
  H         3.5629765039        8.8237451041       22.6270298116
  H         6.2990449521        6.9079851079       22.1922742485
  O         3.4025454793        3.8108731318       22.6614158164
  O        11.3842186706        9.4023414853       24.6455869921
  O         3.7267644816        8.7797849062       23.5775720179
  O         8.2054886214        2.1437089683       22.9291323312
  H        10.3874344767        4.3773826047       22.9834921343
  H         2.7262502471        3.1465657439       22.9705900225
  H         3.5007065852        7.8757615422       23.8621071982
  H         0.4603074571        8.4752072845       24.2956033366
  H         7.3024793071        2.5482807652       23.1941033087
  H         8.8975465891        2.6583319082       23.4244479733
  H         4.8162297518        3.2555656485       23.4244916710
  H         0.8882332382        0.4662465141       24.4331671955
  H         3.6526426938        5.3471405980       23.9266441637
  O         0.3805471267        7.0833118365       23.6829893036
  H         1.0472141919        6.5762190595       24.1703809531
  O         3.3217391640        6.1731723200       24.2972114752
  O         5.6585046484        2.9643382708       23.9005118685
  O        10.3885343581        3.6789769408       23.7120767918
  O         1.3745894903        2.1990817007       24.1081063795
  O         6.7113799263        7.1879508488       23.9785315452
  H         8.3267354107        0.7407425612       24.1231832409
  H         4.8811837894        9.3041581319       24.1349367886
  H        11.6355929711        2.6584209634       23.8157199134
  H         7.3439211644        7.9700831720       23.9891163130
  H        11.3577089569        6.5660945899       22.8111988954
  H        10.3257406654        4.2816038610       24.5150019272
  H         5.5501193150        1.0578044041       24.5961316262
  H         9.6852130012        9.7237468304       24.3462912971
  H         5.6396527185        3.2916958142       24.8314613058
  H         3.0689240269        5.9411146280       25.2693610653
  O         8.7158305911        9.5726630639       24.4783026804
  O         5.7650556990        9.7948742257       24.6272938791
  H         1.7205320374        2.9010842926       24.7222956999
  H         7.1647961951        6.5649012529       24.6303689480
 Pt         2.9402905796        9.2948014591       26.9152590365
 Pt         5.6662887609        9.2601917393       26.7424090495
 Pt         8.5032200920        9.3437324028       26.7340932191
 Pt        11.3276020092        9.2524862258       26.8462701635
 Pt         8.5010682192        4.4485437506       -0.0629564685
 Pt         4.3788791431        6.8201832669       27.0651564757
 Pt         9.9091111320        6.9191886599       26.9344214310
 Pt         7.1000449328        6.8031584973       26.9619402816
 Pt        11.2051565549        4.4733603517       26.8501786658
 Pt         1.5298869496        6.9890076791       27.0101858046
 Pt         9.7640434322        2.0881454577       -0.0291832778
 Pt         6.9701922026        2.2846572310        0.0038274848
 Pt         2.7780825533        4.6182226637       26.9120699474
 Pt         5.5334766270        4.4817933277       26.8354317034
 Pt         1.3300094200        1.9825085523        0.1479769669
 Pt         4.2555513678        2.1385039343        0.0647492546
  H         8.9969233764        1.2591905011        9.7374382363
  O         4.6928862219        7.5844523804       19.7715812622
  H         5.1726406303        7.7483670427       18.9112820534
  H         5.4886273901        7.5511461040       20.3859617025
