     243
Tv_1:  11.152900   0.000000   0.000000 Tv_2:   0.000000   9.658700   0.000000 Tv_3:   0.000000   0.000000  26.829700
 Pt         5.8022938962        8.0201125772        2.2836873290
 Pt         7.2912708662        0.6656590473        2.2951951703
 Pt        11.4703610214        7.9233952582        2.3618492660
 Pt         8.6674218446        8.0289994259        2.2413197349
 Pt         8.7319868408        2.9612993309        2.3660733429
 Pt         2.9789490128        7.9069375688        2.4224447221
 Pt        10.0584612900        5.5017442983        2.3704440615
 Pt         7.2641510011        5.4978692822        2.3920330615
 Pt         5.9328695163        3.2011646736        2.4581352187
 Pt         4.4947583617        5.5323044696        2.4632762354
 Pt        10.2091123628        0.6365842723        2.2557257445
 Pt         1.5786787884        5.4598485322        2.4233537596
 Pt         1.8829724544        0.6916601131        2.4089969246
 Pt         3.0684883814        3.1601492348        2.5356480670
 Pt         4.5986865354        0.7931262804        2.4887264810
 Pt        11.4997656113        2.9688924963        2.4676993205
 Pt         5.8781486346        6.4366520058        4.5975392157
 Pt         8.8418300853        6.3612095626        4.6630658895
 Pt         7.2472095889        8.8179788432        4.6239420958
 Pt         7.2445775577        3.9984613605        4.6999266117
 Pt         8.6140799912        1.5436100781        4.6137976593
 Pt         5.9059366020        1.6269959759        4.8222371944
 Pt        10.1184119443        4.0315530618        4.5024600631
 Pt         9.9980515777        8.8162286264        4.7944299499
 Pt         1.7226403868        8.7982254004        4.7134773534
 Pt         0.4005764506        6.4431866909        4.8272892383
 Pt         3.0734324199        1.6185272050        4.7560944334
 Pt         3.0379340270        6.4301405686        4.7291370131
 Pt         4.5113447085        8.8444773435        4.7047523855
 Pt         4.5189870000        3.9650038318        4.9006654709
 Pt         0.1675771311        1.5492622966        4.6409280638
 Pt         1.6434883356        4.0424845962        4.7943637472
 Pt         7.2186336065        2.3220638987        7.0389466803
 Pt        10.0090949115        7.2791582284        7.0512885993
 Pt         8.7652677334        4.8297088150        6.8502859856
 Pt         8.6751762043       -0.0657143962        6.9835323762
 Pt         5.8426645920       -0.0306938765        7.0373377742
 Pt         3.1328672578        4.8535639769        7.1403543258
 Pt         2.9506918011        0.2212378810        6.9137709193
 Pt         7.1949816804        7.1971162371        6.7940684769
 Pt         4.5132972212        2.4163102657        7.1693902709
 Pt         1.6479304202        2.5790581277        7.1022752311
 Pt         0.4239727992        4.9395510959        7.0955883152
 Pt        10.0346948828        2.4033355226        6.7683933668
 Pt         5.9784416621        4.7530955245        7.0159559999
 Pt         0.2648583322        0.0341655687        7.0400337898
 Pt         1.7363870735        7.3910552674        7.0709398525
 Pt         4.4493180202        7.3430669716        6.8443286149
  O         6.1635678756        5.0363554746        9.0101591585
  O         1.7302024085        7.7482817133        9.2144679333
  O         0.0671131225        5.1097091854        9.2780090878
  H         4.0667765066        1.6513169347        9.5772812646
  H         8.1619580532        4.9725375949        9.2627126632
  O        -0.0223127683        0.2781092970        9.2274292182
  H         1.0542203838        8.4632307824        9.4500062444
  H         3.5891500362        4.0549297431        9.5733586059
  O         8.7096371099        0.1435102182        9.1096515603
  H        10.0474240227        0.2423840218        9.3327625239
  H         0.3468903478        1.1612898059        9.6512147131
  H         0.9598165939        5.4241845748        9.4808100470
  H        -0.1651357418        2.8701217530       10.5692664020
  H         6.7660388738        9.2332222796        9.3532584643
  C         7.2939028238        5.3970779481        9.7709148275
  H         2.6389054731        8.0336693080        9.5444123378
  O         8.6429142526        3.2003045486        8.1159927019
  H         5.2634547756        6.2785169101        9.2566548524
  H         7.1339888224        4.9461587074       10.7878294913
  O         4.7223139276        7.1226328769        9.0683224487
  O         4.5250671501        2.5202885628        9.3426738914
  O         0.7323806181        2.4737556423       10.2658994928
  H         1.4082808972        2.6337649895       11.0383228356
  H         9.2740184866        7.7947287687        9.4157077716
  O        10.0661792245        7.2868268207        9.1653176463
  H         5.4301897413        2.3982153556        9.8644721289
  O         6.6279383562        1.8772818371       10.7917102887
  O         3.0597235245        4.8864969213        9.2324294892
  H         7.4093984994        6.4549522944       10.0654701755
  H         8.1978034154        7.6326098510       13.1419588526
  H         6.6087178526        2.4995824959       11.5773163244
  H        -0.4832708915        6.0070340348        9.3764381213
  H         5.2817990621        8.0195185760        9.2815516753
  H         6.4973785628        0.9538750896       11.1036160074
  O         5.8030248542        9.2870170009        9.0058737988
  O         8.6873110410        7.0684444126       13.7922881203
  H         3.3389429915        5.6665606349        9.8066225670
  H         8.8935393915        2.9360350081       10.7007186786
  H         9.3589799892        6.5291425005       13.3289067487
  H         8.9647570910       -0.0855278184       11.9107166478
  H         1.8205953862        9.8040378511       12.8534183828
  H         9.5830308393        2.1282688342       11.8450208876
  O        12.7610643000        9.2088175253       12.1071792690
  O         9.6952282407        0.3539607447       12.3520765476
  O         9.4681107464        3.0193328301       11.4808687300
 Cl         6.6463995459        8.4953885732       11.7801169876
  H         2.6243502060        3.9725576671       12.1489950188
  O        10.4294782438        5.6057799834       12.3660592550
  H        10.0577708794        4.7234807778       12.1195104384
 Cl         2.3799587184        6.2147197665       11.8228847886
  O         6.3858535514        3.2530276381       13.1054543886
  H        13.0430254097        8.2402597593       12.2667866046
  O         2.7421435502        3.0193776744       12.1420169195
  H         0.2735006397        5.4847491749       12.2916185843
  H         5.7948932922        4.0101042801       13.3296551050
  H         6.1588188373        2.4940705169       13.6758044587
  H        10.5473257160        9.5986462617       12.0510179025
  H         5.9033282965        9.0529708137       13.7092026960
  O         4.7298784813        5.0537004997       13.8376381516
  H         4.1678712780        4.5096016803       14.4284684191
  H         2.9798914586        9.8232868460       10.9300819157
  H         2.4368176147        2.8386070433       13.0311825419
  H         7.5676165629        6.5009462412       14.6285944633
  H         2.2244391409        4.1684376211       15.5251037288
  H         4.1292730654        5.6901172238       13.3606964495
  H         9.5391336830        0.7403538760       14.2573605048
  H         6.0520490606        5.8831888010       14.9331783383
  O         5.4843971795       -0.1721868745       14.5182959722
  H         5.8990974793       -0.7013869022       15.2907603450
  O         3.1372231651        4.1154253132       15.9159644846
  O         3.3442292548       10.0265765202       10.0513796175
  O         6.9145690470        6.0590009706       15.3016510941
  H         3.1944196728        4.8677849512       16.5370355966
  H         6.7606880030        7.3692922722       16.2758399139
  O         9.8336993813        1.0591760028       15.1271907693
  O         1.8052851757        1.4487797645       14.2783432821
  O         6.4404045961        8.2146813987       16.7758674972
  H         0.8739421506        1.4623755255       14.5839191282
  H        10.2034834630        2.7085340924       15.7251040314
  O        10.3249706463        3.6110771505       16.0924038341
  H         4.2276448641        9.5996820585        9.9460695747
  H         9.2551986500        0.4525926014       15.7076439096
  H         4.0172662993        1.0599562963       16.8479520779
  H         4.0154274271        2.5805030562       16.8198982555
  H         2.3792668783        0.9971680488       15.0134077243
  H         9.5074143333        3.8610033155       16.5500757288
  H        11.3085976814        4.9502882735       15.5652294501
  O         4.3910057130        1.8652873699       17.3662606855
  H         7.2521810799        8.7470335453       16.9685022855
  H         7.6349768820        5.1472301616       16.7504793209
  H         5.9268200452        1.7054178876       17.7541026406
  O         0.6817892813        5.7621213533       15.2661270900
  O         6.8159212356        1.8284530019       18.2056560742
  O         3.3202608587        9.6825033665       15.8552609812
  H        11.3226207797        5.9562138303       14.4239125778
  O         8.0381071047        4.3421277151       17.2639252114
  H         4.1311878918        9.3576702613       15.1786107006
  H         7.0583069835        2.6242731628       17.6900027505
  H         2.8825576061        8.9099354678       16.2451168995
  H         8.0568137541        0.6868699754       17.7620179997
  H         1.2455816159        7.0274355505       16.4121215171
  H         3.9789686641        1.9672740351       19.0508255516
  O         8.4256035880       -0.0617998383       17.2369752126
  H         8.3476069173        4.6707960288       18.1548057359
  O         1.8825972157        7.4412186051       17.0660982515
  O         3.6569842691        1.8563932432       19.9986789693
  H         2.8904668902        2.5094641598       19.9970411955
  H         8.9048328690        8.9605130423       17.8464809895
  O        -0.2096309218        2.4320578211       18.5501797588
  H         1.2489134884        7.8047344095       17.7867870374
  H         1.0602026533        3.4959889678       19.2675968290
  H         2.8204676683        6.1651486791       17.9340589921
  O         9.3573864900        5.1724552411       20.0219508121
  H        10.7221668006        2.8475411479       17.7097886334
  H         2.3794999137        4.4430838702       19.1524055381
  O         1.8475525570        3.8190189839       19.7318435792
  H         8.6906287696        5.8429426853       20.4453841467
  H         8.3066316807        2.2726561997       21.0770541453
  H         4.2226949163        6.1380955792       18.7490129040
  H         9.0813014021        4.2185404710       20.2890617944
  H        10.1483297985        2.4396950717       19.1382741681
  O         3.4741472101        5.5902839484       18.3775592522
  O        12.0688957446        9.0320243943       19.1066570227
  O         8.5224203839        2.4512581802       20.1540923870
  H         3.5683476443        9.9148925653       20.5833917344
  H        10.8839862982        5.2422774659       20.8944750048
  H        12.8103395429        9.1181374971       19.6912170470
  O         9.3309875697        8.8247963049       19.9973708762
  H        11.8255121995        0.1879361720       18.6995491639
  H        10.2877178869        8.4885224419       19.9798033171
  O         3.4401875158        8.9304933076       20.7292602953
  O        11.6726636683        5.1255828432       21.5171440801
  H         7.7973981431        2.1632916125       19.4470327663
  H         9.3886697968        0.1666317636       20.0485597125
  H         7.9961500720        7.8118653846       20.8189667450
  H         4.3602599453        2.5093885949       21.4185150708
  H        12.3321733485        4.6641880972       20.8828942254
  O         7.3192177544        7.0379657605       20.8819154575
  H         4.0456506704        8.5380065590       20.0418612127
  H         3.9887136502        8.8880412192       22.3898226782
  H         7.2194239794        7.0117173225       21.8207527001
  O         4.2340496277        3.0667183913       22.2403539318
  O        11.9705903940        9.2478612194       24.4706446030
  O         4.2437200470        8.5551125861       23.3004303288
  O         8.6271290664        2.1484167243       22.9779843768
  H        11.3522691431        3.9320367662       22.7953560513
  H         3.4489065547        2.7542911271       22.6907882371
  H         4.2852056187        7.5525975952       23.1935235133
  H         1.0389292833        8.3124844496       24.2168930812
  H         7.8063116118        2.4921046256       23.3958590721
  H         9.4113403938        2.6598227979       23.1838560112
  H         5.4237883808        2.6552877826       23.1503132810
  H         1.5369220150        0.2425815831       24.0821745411
  H         4.0465240847        5.3599106832       22.2633962005
  O         1.0895989492        6.6135164550       24.0480579504
  H         0.6284012992        6.0544482673       24.6756269183
  O         4.1210976298        5.7041902219       23.1663464285
  O         6.1317342659        2.5768569332       23.8846178119
  O        11.0575444751        3.2887060445       23.4868149158
  O         2.2190321596        1.8541966312       23.8130093798
  O         7.6383896578        7.1829678862       23.4992659851
  H         8.9311283726        0.5201644354       24.1204377363
  H         5.2101760429        9.0609905554       24.1422258278
  H        12.5479300777        2.4360790879       23.8845537892
  H         7.7487060593        6.4256305681       24.1479454808
  H        11.9844224875        6.3192045833       23.1160498138
  H        10.9686736831        3.8781406001       24.3233157981
  H         5.8803719803        0.8815706456       24.4667496324
  H        10.1776011145        9.2273708802       24.3619293365
  H         5.7963540001        3.1407816024       24.6509639013
  H         4.2671834599        4.9607438401       23.7992278678
  O         9.1997635288        9.3002900642       24.4320597637
  O         5.9436945915        9.6120004092       24.7254899351
  H         2.7437357840        2.0365982062       24.6302438670
  H         8.2141616999        7.8773523004       23.8327176372
 Pt         3.1305704060        9.3449454252       27.0623099421
 Pt         5.7965036635        9.3866826866       26.7919071942
 Pt         8.7102368181        9.3540558360       26.7573579464
 Pt        11.5820085258        9.4582050323       26.7827304524
 Pt         8.6485118610        4.5511498434        0.1165295111
 Pt         4.4314185879        6.9247813532       26.9748959237
 Pt        10.0892725325        6.9729738915       26.8300520551
 Pt         7.2407244284        6.9447176535       26.8909569498
 Pt        11.5208180354        4.5201332265       26.8402220384
 Pt         1.7823189601        6.9108872272       26.8863678815
 Pt        10.0140957787        2.2003203314       -0.0562207596
 Pt         7.3062553601        2.2344073648        0.0699818240
 Pt         3.1938784278        4.5232040413       27.0022537274
 Pt         5.9696766089        4.4995188789       26.8199550796
 Pt         1.6821227290        2.2368657022        0.0954514909
 Pt         4.5353733929        2.2341390557        0.2154937974
  H         8.3228502044        1.0033701036        9.2136595035
  O         5.3051358034        7.6054471192       19.0173635098
  H         5.7119187167        7.9367330235       18.1738258415
  H         6.0379425193        7.4526588572       19.6400217623
