     243
Tv_1:  11.152900   0.000000   0.000000 Tv_2:   0.000000   9.658700   0.000000 Tv_3:   0.000000   0.000000  26.829700
 Pt         6.0415362628        7.9050732531        2.3511605184
 Pt         7.4430488031        0.5651241301        2.3805178453
 Pt        11.6275870885        7.8666163908        2.3454115570
 Pt         8.7236453451        7.9022884339        2.3033808763
 Pt         8.8149428981        3.0692205879        2.3788293698
 Pt         3.3764016297        7.7315789295        2.4794771570
 Pt        10.1690654781        5.5338300847        2.2244636366
 Pt         7.4397771127        5.5742106535        2.2979630420
 Pt         5.9830536240        2.9822671552        2.4867529003
 Pt         4.6985811693        5.2960724175        2.3569926585
 Pt        10.2588104630        0.5854992243        2.2873971735
 Pt         1.9011507358        5.4301779933        2.4242378890
 Pt         1.7490858130        0.6109960772        2.4270146296
 Pt         3.2117702850        3.0789218328        2.4772067196
 Pt         4.4972895834        0.5143831334        2.4670457946
 Pt        11.5414496401        3.0457129415        2.3699839796
 Pt         5.8314571563        6.4333865301        4.5663366708
 Pt         8.5878634550        6.4943837750        4.7410737087
 Pt         7.2044502043        8.9812439000        4.6422108177
 Pt         7.2912243000        4.1428813229        4.5569438924
 Pt         8.4843650545        1.6738109146        4.6629055488
 Pt         5.5947932047        1.6695819267        4.7246243416
 Pt         9.9961941507        4.1554462241        4.6095017438
 Pt         9.9407910318        8.8347655282        4.6929214826
 Pt         1.5814120046        8.8173880573        4.6953609254
 Pt         0.3129394437        6.4060824126        4.8173411465
 Pt         2.7942760639        1.7593495721        4.7063990386
 Pt         3.0928531387        6.3874272682        4.7405065046
 Pt         4.4257092678        8.8261959730        4.7773371456
 Pt         4.4714626363        4.0726909933        4.8805192206
 Pt         0.0650804855        1.6248022728        4.6438184980
 Pt         1.4795951214        4.0131739530        4.7033776326
 Pt         6.9207407254        2.5034972469        6.8811233142
 Pt         9.6228999010        7.3348514042        7.1170589176
 Pt         8.1538367600        5.0100525757        6.9944558483
 Pt         8.3362978536        0.2108664202        7.0317853893
 Pt         5.4784821521        0.1645674511        7.0312221828
 Pt         2.7558071920        5.0129038942        7.0845866968
 Pt         2.8922382468        0.2520185800        6.8739982475
 Pt         6.9363384413        7.4549623407        6.8779846244
 Pt         4.1180810794        2.6513911701        7.2453617882
 Pt         1.3986369739        2.6297255193        6.9992123983
 Pt        -0.0397861033        4.8652012056        7.0539587213
 Pt         9.8472060464        2.5316281384        6.7334335113
 Pt         5.4258470727        5.0897019136        7.1428665311
 Pt         0.1292287671        0.1625025890        6.9836327843
 Pt         1.2146072739        7.3363984373        7.0750535855
 Pt         3.9453443521        7.5152706712        7.1695809267
  O         5.3869137777        5.4521684094        9.1792931670
  O         1.5025874701        7.5009101357        9.0830610599
  O        -0.2017102566        4.8352251465        9.1280627341
  H         3.3854311891        1.7545555013        9.7223474239
  H         6.2256238721        5.9142991617       10.9397132517
  O         0.0600598784        0.1814243346        9.1442890703
  H         0.8854942597        8.2210405435        9.4206062890
  H         2.7563381957        4.0477338544        9.5873676691
  O         8.5610823186        0.2449098924        9.1156279099
  H        10.2101721424        0.2320091293        9.2802369934
  H         0.4385574856        1.0857094579        9.6252755178
  H         0.7440087982        4.9959189349        9.5095236394
  H        -0.1709431403        2.8349224429       10.6085357274
  H         6.5334770180        9.2989111670        9.4069565727
  C         6.5685496115        5.4893820373        9.9516691068
  H         2.3786508912        7.6506798032        9.6064888707
  O         8.3179274592        3.3130037711        8.1153235288
  H         4.6794774699        6.6776458223        9.3777907098
  H         7.3145845612        6.2170436181        9.5664714769
  O         4.0806266581        7.6065029415        9.2667897903
  O         3.6906327138        2.7119454854        9.3340372723
  O         0.6873903231        2.3932216527       10.3116083399
  H         1.2353259539        2.3895592342       11.1549486971
  H         9.1826748986        7.5696523880        9.6594648911
  O         9.8186119782        7.0422358903        9.0915118281
  H         4.7044847056        2.7701689900        9.7921578246
  O         5.9749768324        2.3791504890       10.3230833362
  O         2.3489756977        4.9474984274        9.6033181606
  H         6.8856959577        4.4404124775       10.0694430229
  H         8.8500581269        7.2268006678       13.2245193883
  H         5.9835768428        2.4861716712       11.3275844159
  H        -0.6171862918        5.7509730890        9.3590818082
  H         4.7906876738        8.4987434825        9.3324732920
  H         6.0388550746        1.3770343004       10.1714667459
  O         5.6725701748        9.6789561014        9.1919350997
  O         9.6157773267        6.8905138317       13.7498870163
  H         2.6005176401        5.3341607346       10.4925781171
  H         8.2438106394        2.7188347431       11.5688793525
  H         9.7616759270        5.9680630314       13.3728552982
  H         9.1435323027       -0.3246203332       12.2129506930
  H         1.7045513708        9.4441710584       12.9888811227
  H         9.4630315136        1.8049077179       11.6846454771
  O        12.3588409340        8.9308230947       12.3288680226
  O         9.8455063026        0.3047189671       12.4606836168
  O         9.1448844250        2.5725141025       11.1892956128
 Cl         7.3896016263        8.3552655538       11.6804302533
  H         2.0873160578        4.1000265212       12.6715050645
  O        10.2733338991        4.4059713272       13.0795430537
  H         9.8204686017        3.9484919104       12.3416185122
 Cl         3.1793588139        6.2355443622       12.4253212966
  O         6.3874714331        3.0671013578       12.7414420111
  H        12.3968954591        8.0192197805       12.7342850055
  O         1.6505219247        3.1343103507       12.7813300146
  H         0.0161717313        4.0341789865       13.0876269481
  H         6.0699074340        3.9085351159       13.1208616557
  H         6.3149498142        2.3596845024       13.3903300275
  H        10.7750276269        9.5541308899       12.2296351225
  H         6.3618455538        9.5298363603       13.3737957884
  O         5.6204509033        5.2059395184       14.0698895671
  H         5.2049744537        5.2487615035       14.9873770730
  H         2.4318228784        9.4808581770       11.0539448945
  H         2.3009971057        2.4522699520       13.3016169521
  H         8.5519920030        6.3978296646       14.9170505309
  H         3.7167910943        5.1058120015       16.2248302832
  H         4.9112369269        5.5655534603       13.5150761470
  H        10.3264013294        0.7692651605       14.1334114852
  H         7.0687149938        5.7241210495       14.9805103018
  O         6.2814446622        0.4633242603       14.1948002151
  H         6.8231993493        0.1561712987       14.9378373233
  O         4.7135995076        5.0538527678       16.4318849168
  O         3.2033973874        9.9370425000       10.6085899375
  O         7.7694769463        6.1759458334       15.4993708536
  H         4.9100997227        5.6666930056       17.1744013565
  H         7.2869679435        7.8824448560       15.9791445427
  O        10.9205436844        0.9914605365       14.8693343217
  O         2.3579099562        1.1397874894       14.1636931132
  O         7.3039643796        8.8128609306       16.3572817117
  H         1.4233657550        1.1219016078       14.5986641504
  H        11.1028511161        2.9597091058       15.6150136247
  O        11.5187662688        3.4944745869       16.3879567503
  H         3.9885926437        9.3781212813       10.6999056570
  H        10.6483808824        0.5372885364       15.7229346820
  H         5.0989723755        1.4879369974       16.9374862653
  H         5.4122909798        3.1378081506       17.3565261646
  H         3.1811228739        1.2192088321       14.7963459434
  H        10.7028107621        3.7950255542       16.8421903609
  H        12.5352695972        5.1321733243       15.7458501420
  O         5.3319976141        2.2175972487       17.6658922103
  H         8.2201713496        9.1234071330       16.4191514449
  H         8.6519362381        4.9378779731       16.4009559798
  H         6.9477774946        2.0436773838       17.9105069544
  O         2.1140370738        5.7907270174       15.5845702774
  O         7.8877265481        2.0842753299       18.2251026373
  O         4.4996730632       10.2931326275       15.9088684518
  H        13.4511863218        5.8363808796       14.6192006330
  O         8.9701700442        4.3085786980       17.1186180560
  H         4.9771836425       10.0299817366       15.0733687617
  H         8.2438790610        2.9219701171       17.9090805976
  H         3.8973104058        9.5453515327       16.1628921430
  H         8.9721395686        0.7138260731       17.6038286832
  H         2.1467610038        7.7284358928       16.4005339399
  H         4.0448000328        2.3574200453       18.9299897412
  O         9.6691072446        0.2058152398       17.1509974009
  H         8.9619793921        4.8188654950       17.9892096451
  O         2.7488989385        8.3959568307       16.7516405618
  O         3.4894330250        2.4951780828       19.7636064764
  H         2.5096397753        2.3637868623       19.5839828453
  H         9.9281994564        9.1357208212       17.6757831077
  O         0.8659667282        2.1483991248       18.9212995095
  H         2.2063735929        8.8735326363       17.4755801601
  H         3.1984838714        4.4012223361       19.9285695336
  H         3.8561459064        7.5257906066       18.0325677745
  O         9.3364610230        5.0105789608       19.8404820813
  H        11.9556248713        2.6376644421       18.0725430942
  H         3.4344803295        5.9300144778       19.8444960015
  O         2.8802529045        5.2307006457       20.3450654946
  H         8.8164632998        5.7542222148       20.2625419326
  H         9.1938392460        1.9765541643       21.2822119134
  H         5.1927320674        7.2848479250       18.8040772524
  H         8.9372994706        4.1607405284       20.1824577568
  H        11.1805956951        2.1576809527       19.4252664513
  O         4.3994380093        6.8030922128       18.4965851841
  O        12.6888342414        9.2304272862       18.8249919026
  O         9.5232879655        1.7380987176       20.3458649031
  H         3.9761112958       10.4630401137       20.3510640431
  H        10.7886357712        5.1649206437       20.9463175177
  H        13.5591481273        9.2364992696       19.2376670310
  O        10.6845897866        8.6663849561       20.9974207299
  H        12.3391081495        0.4986579274       18.7608382532
  H        11.4758102393        8.8244378900       20.4273927112
  O         4.0523420238        9.4812595963       20.3665685160
  O        11.6023657418        5.3687611353       21.4513272519
  H         8.6922323245        1.7752115907       19.7885669075
  H        10.2459250156       -0.1119475964       20.8780722544
  H         9.0933765173        7.8021095827       20.9350982964
  H         4.1645654397        3.3540900461       21.7902967355
  H        12.3554555400        5.3021925896       20.7806210549
  O         8.2233116857        7.4581334634       20.7852211296
  H         4.8615934446        9.2466611758       19.9528107901
  H         4.1334299852        9.0086981826       22.1009669853
  H         7.7552915865        7.4718514261       21.6412537743
  O         4.0594680434        3.3480147419       22.7615768713
  O        11.8611988485        9.4067280213       24.5902592069
  O         3.9356030403        8.9490436031       23.0925780356
  O         8.9666430432        2.2523075135       23.0602091101
  H        11.7661665789        4.3435591707       22.8193811407
  H         3.4613604421        2.6046147185       23.0319214902
  H         3.9858339014        7.9844214160       23.2019492747
  H         1.1407338112        8.4751317385       24.1912668524
  H         8.0407573254        2.5517708021       23.2649282020
  H         9.7439063108        2.8650611637       23.2859810244
  H         5.5852444693        2.9497187114       23.4794907251
  H         1.2034346902        0.5687870480       24.2629619123
  H         3.8739760575        5.0897444901       23.1019943730
  O         1.3917401734        7.1404262448       23.7222759530
  H         2.3500424601        6.8603262736       23.4011092547
  O         3.9798397233        6.0261225281       23.3711151536
  O         6.3736370863        2.6055139447       23.9461542646
  O        11.4386556426        3.7478082522       23.5070721171
  O         2.1609251944        1.7819714864       23.9867099440
  O         7.6522411202        7.0721237691       23.7719756301
  H         8.9610944184        0.8520255040       23.9643496420
  H         5.1631884077        9.4271540627       24.4793692499
  H        12.6652309299        2.5531165668       23.9545728700
  H         6.7228327242        6.7776842408       23.9479615437
  H        11.9636810305        6.9462050784       22.9541624237
  H        11.2168985929        4.2794284380       24.2943445356
  H         6.1248266954        1.0092231159       24.5065792014
  H        10.0977568571        9.4488249887       24.2817297466
  H         6.3630506094        3.2585039333       24.7184149563
  H         4.1566312043        5.9471922890       24.3601619547
  O         9.1206331496        9.6057865346       24.3689614156
  O         6.0649427337        9.7110367366       24.7851671606
  H         2.6896582172        1.8439536355       24.8084318539
  H         7.6944373888        8.0262732266       23.9239672649
 Pt         3.3952726891        9.3370224866       26.9331574913
 Pt         6.1362986595        9.3288391006       26.9419628825
 Pt         8.9242320457        9.3156437867       26.7178591338
 Pt        11.6977201353        9.3261809855       26.6527398524
 Pt         8.8725145497        4.3888133419       -0.0389241971
 Pt         4.7214883966        6.8255650054       26.7945856978
 Pt        10.4224578195        6.8142569897       26.7855274359
 Pt         7.4472399651        6.7912613551       26.6589988311
 Pt        11.7555562357        4.3950402515       26.8894331553
 Pt         1.9055977656        6.8255514193       26.9315616637
 Pt        10.3534745195        2.1149827148        0.0250531297
 Pt         7.5978238472        1.9696998122        0.1292405924
 Pt         3.4334111301        4.4056607895       26.7159178647
 Pt         6.2314679145        4.3441198934       26.7044760648
 Pt         1.8958889912        2.0486409642        0.1871384703
 Pt         4.6508864617        2.0338125180        0.2498178364
  H         8.2101937815        1.1005313335        9.4892706979
  O         6.3707112464        8.6901580882       19.0129768691
  H         6.5725346538        8.7802754737       18.0324313436
  H         7.2466669562        8.4365812768       19.4556750322
