     243
Tv_1:  11.152900   0.000000   0.000000 Tv_2:   0.000000   9.658700   0.000000 Tv_3:   0.000000   0.000000  26.829700
 Pt         6.0470702320        7.8171546652        2.3440945938
 Pt         7.3620028325        0.5969253777        2.2608629876
 Pt        11.6509075562        7.9074743220        2.4691314723
 Pt         8.8290545298        7.9653308068        2.3624517347
 Pt         8.7690393153        3.0056803419        2.3704390294
 Pt         3.3363995081        7.8663364046        2.4063023652
 Pt        10.2191989171        5.4072456538        2.3538888638
 Pt         7.3777742376        5.3941670627        2.3167628518
 Pt         6.0387522883        2.9796790942        2.4409629581
 Pt         4.6360476617        5.3831163653        2.3891419348
 Pt        10.3655578071        0.6462422729        2.3207411280
 Pt         1.9646812353        5.5258646324        2.3710086804
 Pt         2.0413392569        0.6588762602        2.4438468975
 Pt         3.2872676515        3.0358548236        2.3871224275
 Pt         4.6586060104        0.5609290996        2.5657666168
 Pt        11.6197506558        3.0940568649        2.4551230725
 Pt         5.7446111378        6.3638870628        4.6111564082
 Pt         8.6567078373        6.5787557974        4.6445826446
 Pt         7.1298615167        8.8590500050        4.6378171101
 Pt         7.2881367439        4.0476229164        4.6696735420
 Pt         8.7266990675        1.6083840471        4.6103178214
 Pt         5.8860210785        1.6892247984        4.8040698098
 Pt         9.9956713803        4.1409604828        4.7172937730
 Pt         9.9778176826        8.9275396294        4.6802999478
 Pt         1.6925653354        8.9525061956        4.7176565506
 Pt         0.2101466067        6.4276205719        4.7256322749
 Pt         3.0244242300        1.7033053766        4.7087551023
 Pt         2.9924227161        6.4769022665        4.7230243916
 Pt         4.4269482642        8.9409443176        4.8352496407
 Pt         4.3747006136        4.1180573587        4.8300840958
 Pt         0.1791674539        1.6643120405        4.7029973987
 Pt         1.5345994470        4.0079937842        4.6943112738
 Pt         7.1321189467        2.5580505055        6.9602637266
 Pt         9.4196433499        7.3964396111        7.1095376691
 Pt         8.0426777122        5.0946834517        7.0580748463
 Pt         8.0800943848        0.1261159004        7.0359158596
 Pt         5.4533717943        0.2585089999        7.0875206235
 Pt         2.6028955155        5.0022373234        6.9860744337
 Pt         2.7239283970        0.3409009702        7.0384712061
 Pt         6.8392345626        7.4093383153        6.7962063924
 Pt         4.1257655175        2.7280893836        7.0865030320
 Pt         1.3717973202        2.5797711352        7.1465197174
 Pt        -0.1154855741        5.0272654193        7.0832019919
 Pt         9.9088254589        2.4966204010        6.9825232596
 Pt         5.3792953268        5.1413076924        7.1491763518
 Pt        -0.0245789280        0.2285847536        6.9187369609
 Pt         1.0925886549        7.4659065332        7.0323219412
 Pt         3.9263145494        7.5367596885        7.0438510241
  O         5.5819117546        5.3361801914        9.3745082490
  O         1.2012045144        7.5194374862        9.2152811883
  O        -0.1610516229        5.2149945119        9.2135760488
  H         3.2388692328        2.0238666349        9.6504180860
  H         7.5346002737        5.8422830943        9.8521619642
  O        -0.1361430562        0.2465505406        9.0990762896
  H         0.6198586001        8.3099162146        9.3636086104
  H         3.2580294281        4.1101455112        9.3794105429
  O         8.5706888656        0.2115780562        9.0131705686
  H         9.8585467185        0.1935191247        9.1633644799
  H         0.1699587933        1.1343648992        9.5004655751
  H         0.7596347502        5.3570608769        9.5672549056
  H         0.0742409134        3.2648750648        9.6716992511
  H         6.1874875829        9.0689699171        9.5340711566
  C         6.7869310195        5.0803009786       10.1186701422
  H         2.1202640869        7.7673273998        9.4494144875
  O         8.5482514039        3.5568997162        8.1424874371
  H         5.2207900688        6.2693107564        9.4513472520
  H         7.2026854257        4.0955381972        9.9267469436
  O         4.0343738015        7.3713903433        9.1022892284
  O         3.7946223771        2.7552721013        9.3538296061
  O         0.7657783591        2.5133541944        9.6057512731
  H         1.3624657337        2.6077421028       10.4666333543
  H         8.6867771916        7.4380263466        9.8620272027
  O         9.5898526541        7.3570992799        9.3202285417
  H         4.6813097077        2.7125827884        9.9137246794
  O         5.9586911051        2.1852953120       10.6017321064
  O         2.7025465298        4.9635138068        9.1435197967
  H         6.5497765309        5.2557352595       11.1912327503
  H         8.4472498751        6.6387053051       12.3649985922
  H         5.5816744848        2.1512783133       11.5021452663
  H        -1.1399006782        6.4458057209        9.4954963272
  H         4.5410744525        8.1505084032        9.3107516881
  H         5.9746959018        1.2181219311       10.2629590656
  O         5.5569903611        9.7055821113        9.1153157365
  O         8.6386706641        6.1196377843       13.2065512281
  H         3.1655500211        5.8018980441        9.3646951895
  H         7.6629827891        2.5790434025       11.4001177346
  H         9.2706244441        5.3870018247       12.9945402636
  H         9.4747438129       -1.0914448263       11.8332501961
  H         1.7617704948        9.0514156645       12.8073009329
  H         8.9183612834        1.6216010385       11.5522975183
  O        13.0603942224        8.5919938805       11.8740341687
  O        10.0520199043       -0.3283590494       11.9332403374
  O         8.6829118162        2.5620552075       11.5702367957
 Cl         7.2012009819        7.9120179278       11.1783175026
  H         2.2144010937        3.5041850484       12.4494249292
  O        10.2868499201        4.0024951046       13.4693243444
  H         9.8316937379        3.3491669998       12.9654579945
 Cl         3.2493733339        5.7200554159       12.4441067663
  O         4.5729201112        1.9979106389       12.9819805477
  H        13.4628001468        7.6796435083       12.0534737308
  O         1.4628702029        2.9208564816       12.1520229476
  H        -0.0343142400        3.8752054842       12.9569554986
  H         4.8596988705        2.7764657272       13.5616163630
  H         5.0857556104        1.2110141798       13.4146810509
  H        10.9992318725        9.0677165450       11.9353152320
  H         5.9013492527        8.3005033244       13.2061509541
  O         5.2060336929        4.5033960947       14.4450357738
  H         4.7049529050        4.3981240970       15.2854379972
  H         2.3212778734        9.6891018655       10.7419961941
  H         1.6611907538        2.0736388592       12.6398247478
  H         7.9614548983        5.5123430305       14.5393699809
  H         3.1743332466        4.7198309475       16.2495460118
  H         4.5340839167        5.0083873416       13.9069294352
  H         9.7137894247        0.5163651685       13.7848600522
  H         6.5806090824        5.1266845438       15.0339991930
  O         5.6932900666       -0.6765734934       13.8968942252
  H         6.1390824293       -0.9193449462       14.7757920774
  O         3.9128775590        4.4000776553       16.8830690248
  O         2.7311204412       10.1842581634        9.9572306856
  O         7.4700629708        5.4180652757       15.4289640930
  H         4.2506941971        5.2236717820       17.3203464079
  H         6.9077036495        7.1324443142       15.9003505014
  O        10.2121668267        1.0615157117       14.4070055020
  O         1.6743372050        0.7186425424       13.8765148608
  O         6.6295652449        7.9978184625       16.3066559486
  H         0.6892055668        0.8745365806       14.1408207269
  H        10.9123739331        3.2873784083       15.1430283278
  O        11.2648880871        3.3466819860       16.0828792632
  H         3.6690072162        9.8323571212        9.9995836785
  H         9.7973068242        0.9134980883       15.3186797027
  H         4.4432500675        1.1845827291       16.7398489360
  H         4.6708929325        2.8044948660       17.1792907759
  H         2.1364762229        0.8723531315       14.7499262126
  H        10.4204213818        3.5810331742       16.6239170539
  H        12.1394268060        4.5249906104       15.4890771459
  O         4.8861897136        1.8205062417       17.3769503177
  H         7.5320970677        8.4938251993       16.2915570873
  H         8.2502938156        4.3737568377       16.4642650793
  H         6.4397121158        1.7502832228       17.8726180898
  O         1.7613676895        5.1652137969       15.2530187035
  O         7.4080907023        1.8481331979       18.1007254857
  O         3.5040144483        9.8973479511       15.6428820319
  H        12.8915192865        5.2989293767       14.2972994080
  O         8.8010431475        3.8392657965       17.1637396090
  H         4.0177045649        9.5859876915       14.8606442678
  H         7.8483251063        2.6352514394       17.6773325201
  H         3.2374959146        9.0709619287       16.1138929358
  H         8.2202401915        0.6750365107       17.2602747443
  H         1.8976313323        6.7344295011       16.2056640957
  H         3.7458778697        1.6797380234       18.7523073654
  O         8.7082532546       -0.0090282117       16.6938168355
  H         8.8812360516        4.4690564302       18.0004145470
  O         2.1843335165        7.4814245797       16.7766956489
  O         3.0606855397        1.6390759189       19.4560168382
  H         2.2099430331        1.4508184800       18.9309705670
  H         9.2543468629        9.1925284072       17.3204890168
  O         0.6665804762        1.6102812451       17.9176398042
  H         1.3939280959        7.9579860389       17.1755036577
  H         2.9218352780        3.6197561552       19.4109854603
  H         3.1614957003        6.7690847842       18.1707452025
  O         9.5851959434        4.8599496338       19.5800883211
  H        11.7568760629        2.2369717765       17.1391750089
  H         3.1238278423        5.1885752810       19.5739271982
  O         2.7973218700        4.3833776757       19.9852332779
  H         9.0497695883        5.6035640052       19.9336359926
  H         8.6326898399        2.0586001192       21.4578987484
  H         4.4937251962        7.2469810479       18.8703987227
  H         9.2813593378        4.0704830568       20.1018347000
  H        11.1781544110        1.9890282269       18.5150111186
  O         3.9928982134        6.4213885249       18.6783797252
  O        11.2390846909        8.5488385525       18.1169880282
  O         8.9406525960        2.1197379903       20.5032072285
  H         4.0130087748       10.5943883349       20.7287757105
  H        10.9367775914        4.9118227537       20.6423733034
  H        11.0548634483        8.7295762937       19.0932854317
  O        10.0947589941        9.2757008775       20.6850604982
  H        11.4858370265       -0.2628601394       17.7738521430
  H        10.5493437389        9.1139082914       21.5473230595
  O         4.8915742831       10.4018971551       21.2059837784
  O        11.6536660301        4.7273839182       21.3582563793
  H         8.1961533050        1.9830327801       19.9079309718
  H         9.6239248044        0.4942137819       20.8188386912
  H         8.7413487891        7.7372487500       20.7236954014
  H         3.7081653647        3.4524711564       21.6595311918
  H        12.5189438401        4.7617119724       20.9102249163
  O         8.2541628468        6.8533079652       20.6330920173
  H         5.3989650043        9.8274613805       20.5876795267
  H         4.3299175817        9.5310286934       22.4215433805
  H         8.0437609601        6.6498360477       21.5924942342
  O         3.8146799038        3.3572943719       22.6182453385
  O        11.6190012308        9.0036668836       23.6921894181
  O         4.1720528606        8.9204860225       23.3063295576
  O         8.6190962164        2.0799132000       23.1687974388
  H        11.2065855891        3.8277570267       22.5551332838
  H         3.0897105386        2.7280818873       22.8583844944
  H         4.3511270464        8.0147014267       23.0155589433
  H         0.7216616076        7.9859871142       23.4598320342
  H         7.7425204280        2.4941971328       23.3905013374
  H         9.4372861673        2.6582444634       23.4130957579
  H         5.3520273013        2.6732848339       23.0853120987
  H         1.2607540641       -0.0164914499       23.7525850065
  H         3.3673017392        5.0051406709       23.2717535697
  O         0.8038335558        6.5761747715       23.2247861456
  H         1.7317223803        6.1542418763       23.4847824005
  O         3.3303036066        5.9320969305       23.6168441624
  O         6.1806127624        2.6814932656       23.6604850617
  O        10.9802307372        3.4869721844       23.5178442794
  O         1.9597673776        1.7699529356       23.6872664540
  O         7.6414874616        6.8109178689       23.4449309257
  H         9.0230996740        0.6257626878       24.0970262985
  H         5.2316709425        9.1483561402       24.1055118057
  H        12.2824627714        2.2846807566       23.6886898725
  H         7.7213333801        6.3605208409       24.2590465055
  H        11.6600183961        6.0176626541       22.4422687003
  H        11.0406301065        4.3465683096       24.0277713586
  H         6.3716138219        0.6683147523       24.5325454739
  H        10.2589082217        9.1595629035       24.2470381432
  H         6.0356565717        3.3610310840       24.3711998744
  H         3.8142342170        5.7564332676       24.4498143320
  O         9.1999364914        9.3572740433       24.4325781244
  O         6.2114577213        9.3378475071       24.6480219155
  H         2.3010227354        1.7561241068       24.6389052512
  H         7.4261255806        7.7673598703       23.6821855038
 Pt         3.5212363787        9.2585531458       26.8676070531
 Pt         6.2905983700        9.4410474992       26.7434683202
 Pt         9.0489675546        9.2419071078       26.5986678202
 Pt        11.9169086542        9.3733590749       26.9751840215
 Pt         8.9950594626        4.5394508821       -0.0059037557
 Pt         4.8190141141        6.7912196015       26.7797578490
 Pt        10.3805378926        6.9311885041       27.0347965596
 Pt         7.6131959630        6.9104441520       26.8781954679
 Pt        11.7923792632        4.4948500590       26.7317312838
 Pt         2.0261781252        6.9058089657       26.8466411798
 Pt        10.5091725746        2.1527038045       -0.0243388554
 Pt         7.6538861277        2.1828898484        0.0120629261
 Pt         3.4185917191        4.4223177577       26.7542190954
 Pt         6.2209516860        4.4480278654       26.7915202049
 Pt         2.0527324877        2.1622528392        0.0240979274
 Pt         4.8422747647        2.1137669264        0.1800183980
  H         8.4299802358        1.1499882193        9.3940419166
  O         6.1053539425        8.5265511139       19.2231355734
  H         6.3998449779        8.3529739466       18.2996075498
  H         6.7530800124        8.0316878165       19.7402357925
