     243
Tv_1:  11.152900   0.000000   0.000000 Tv_2:   0.000000   9.658700   0.000000 Tv_3:   0.000000   0.000000  26.829700
 Pt         5.9341037551        8.0533950356        2.3895966247
 Pt         7.1651874877        0.6862334833        2.2820436535
 Pt        11.4186551676        7.9293422532        2.2749532384
 Pt         8.7242731551        8.0561525480        2.2955778261
 Pt         8.5981477501        3.1765865413        2.4157121503
 Pt         3.0062468116        7.9991386773        2.4265169760
 Pt        10.1365777219        5.5194414186        2.3992818750
 Pt         7.4272111997        5.6168807682        2.2726302162
 Pt         5.8946006434        3.1971546832        2.4717933804
 Pt         4.5761948393        5.6314121141        2.4249649826
 Pt        10.0919712211        0.7147459883        2.3040443224
 Pt         1.7988862152        5.5221267941        2.4964514102
 Pt         1.6587125377        0.7650703727        2.5493633717
 Pt         3.1757769732        3.2383905113        2.4744621608
 Pt         4.3527671292        0.6995046030        2.3257161380
 Pt        11.6413825558        3.1083955443        2.3938469352
 Pt         5.9779605459        6.5049384889        4.5826283145
 Pt         8.7028504812        6.5074366117        4.6735145909
 Pt         7.3013341974        8.9170581608        4.6681192479
 Pt         7.1614095682        4.0596645324        4.7220245354
 Pt         8.6479113083        1.6123319683        4.6100671342
 Pt         5.8583546120        1.6179929193        4.6296704491
 Pt         9.9630779762        3.9881392059        4.4975716881
 Pt        10.1452244810        8.8056409304        4.5221548936
 Pt         1.6332824364        8.7722234891        4.7272751717
 Pt         0.2380413713        6.3958718453        4.7235378086
 Pt         3.1389702630        1.6227026255        4.6864832819
 Pt         3.0986824733        6.4393100223        4.7354860530
 Pt         4.4823384078        8.8423412771        4.6534688332
 Pt         4.4644377533        4.1266847730        4.8165972815
 Pt         0.2804744150        1.6100417843        4.7391395336
 Pt         1.6771939511        4.0362513349        4.7251123908
 Pt         7.1244430921        2.5032886351        6.9225810085
 Pt         9.8705338421        7.3635109792        7.0635451743
 Pt         8.6135541308        4.9717583985        6.7979088406
 Pt         8.6354886071        0.1714124953        6.8936260075
 Pt         5.8492688340        0.0645663111        7.0180803494
 Pt         3.0154307534        4.9323400388        7.1229401939
 Pt         3.0125383237        0.1051546929        6.9311986205
 Pt         7.1614162212        7.3687960238        6.9664527561
 Pt         4.3559923025        2.3611951626        7.1236501678
 Pt         1.7410523621        2.4463931031        6.9103544270
 Pt         0.2091358423        4.8905514102        6.9495008665
 Pt        10.1081196902        2.5521335288        6.9514758146
 Pt         5.9390228532        4.9398201056        7.1474112900
 Pt         0.2369744493        0.1134144654        6.9154960161
 Pt         1.8676579279        7.2986010157        7.0221964491
 Pt         4.4221499699        7.3571400732        6.9930188409
  O         5.8094988688        5.0386788751        9.3277800189
  O         1.8838448554        7.5526074168        9.1756336484
  O         0.0652804547        4.9741556991        9.0818392308
  H         3.7408400706        1.7168839563        9.5902585448
  H         7.8975415815        5.2725623105        9.2751170162
  O         0.2567109642       -0.0733046565        9.1525517198
  H         1.3449918864        8.3286710663        9.3947282990
  H         3.2653865137        3.7791763367        9.4360596377
  O         8.8686473881        0.0896834150        8.9673286319
  H        10.4323895219       -0.2486454418        9.3506818778
  H         0.5268876218        0.8313996280        9.6010763852
  H         1.0591011967        4.7442346330        9.2867560633
  H         0.2023120101        2.9102314899        9.9178784203
  H         6.6731372052        9.2852847277        9.3136371697
  C         7.0810488144        5.2509006876       10.0493296378
  H         2.8711541319        7.8412311090        9.2566298374
  O         8.5803513304        3.3815184104        8.0950670435
  H         5.1700663282        5.8651442506        9.4435379153
  H         7.3118958287        4.3144939108       10.5764651659
  O         4.3642780612        7.2644304728        9.0745299927
  O         4.2477466680        2.5351313783        9.2935421004
  O         0.9226871809        2.2818468869        9.8989681312
  H         1.5082646130        2.5824231059       10.6910434319
  H         9.2084047398        7.3696070632        9.4181661010
  O        10.1161578690        7.2117486914        9.0369517427
  H         5.2047652162        2.4265316110        9.9437589130
  O         6.0961469635        2.0028019211       10.7653205752
  O         2.7310692583        4.6858792306        9.3458886006
  H         7.0103820519        6.1973413043       10.6966734775
  H        10.1325613178        6.3863985970       13.3355689560
  H         5.6720565151        2.0194100883       11.6780749852
  H        -0.4799017875        6.1577701966        9.1911770315
  H         5.0010392519        8.0304679878        9.3400654529
  H         6.1704712055        1.0443487319       10.5230553536
  O         5.7551210727        9.5123008354        9.1171452882
  O        10.1152946368        5.5037609373       13.6921277508
  H         3.0885576700        5.4036003184        9.8972144653
  H         8.1699434153        0.8229898145       12.4789176624
  H        10.2338148330        4.9714967441       12.9345890585
  H         9.4519433752       -1.3247327607       12.6068216694
  H         1.6392817146        9.3033480286       12.8544812488
  H         9.3725481366        1.3025751447       13.5345444154
  O        12.5934592376        8.6816333267       12.1549811589
  O        10.1789865358       -1.3908580609       13.3020615357
  O         8.6070825488        1.4956794758       13.0068006339
 Cl         7.6064652472        8.2925715502       11.6501096961
  H         2.9045546400        3.6995425953       12.1825360586
  O         9.4739971473        3.8240466047       11.8215743727
  H         9.1709169960        2.8855580489       12.3284595987
 Cl         3.2185263621        6.0219553290       11.9378977412
  O         5.2146852507        1.8761714656       13.3364483753
  H        13.0318793247        7.7524291687       12.3407502531
  O         2.7491066250        2.7838804310       11.8208765042
  H        -1.8854680896        3.7877013881       10.8530450541
  H         5.4766078605        2.8033561841       13.6999770693
  H         5.8363037165        1.2605287404       13.8338457608
  H        10.9679310418        8.3611601673       12.7442341839
  H         6.6682613229        8.8580958674       13.6819431104
  O         5.1638733907        4.7368770045       13.9580289769
  H         4.7566229195        4.7959462419       14.8309768672
  H         2.8015593902        9.8229151184       11.0233267744
  H         2.6888879148        2.1962215771       12.5957679621
  H         8.6037736776        5.5139239102       14.3649989430
  H         2.5509414393        4.4552477560       16.4206489990
  H         4.7202976215        5.3680439515       13.2813011496
  H        10.5065955444        0.0526360520       14.4222848452
  H         6.9859147284        5.3276342856       14.5433281274
  O         6.3198199787       -0.3893241349       14.5543671761
  H         6.7587518018       -0.8076337649       15.3561062774
  O         3.5352446197        4.4367360544       16.4418143676
  O         3.2628766175        9.8598233901       10.1542036889
  O         7.8227794810        5.4756361426       15.0243709995
  H         3.8128534344        5.0261902236       17.1864165370
  H         7.6024273597        6.8872392145       16.0618320519
  O        10.4697960455        0.9439141704       14.8344592551
  O         1.9758300973        0.8935210550       14.1426318847
  O         7.3798806414        7.7392691845       16.5566157128
  H         1.1632256014        0.9341094952       14.6552217504
  H        10.9307981360        2.6659847451       15.9053634189
  O        11.1418672948        3.2727985713       16.6534731139
  H         4.1291098627        9.4711458516       10.1812573268
  H         9.9120740785        0.7294699671       15.5961258359
  H         4.4313453936        1.1846539429       16.4448947910
  H         4.5514008890        2.8020892320       16.7639248436
  H         2.5930484370        0.5092976570       14.7604682390
  H        10.3171607840        3.7121298478       16.8263160219
  H        11.7559997568        5.9395241988       14.6146715918
  O         4.8142514026        1.9064735223       17.1078931378
  H         8.2863333926        8.2084862785       16.7139024561
  H         8.0805247371        4.7992114545       16.4589273455
  H         6.4651590334        2.1320716457       17.8242555806
  O         1.6033342994        6.1803812597       14.7100413328
  O         7.3950721641        2.1076610278       18.1935338113
  O         3.9525790256        9.4604638531       15.6432950312
  H        13.0806395358        6.0209247900       13.7674460090
  O         8.5788841599        4.3803241556       17.2853137238
  H         4.8069485139        9.2267933724       15.1920940804
  H         7.8740523201        2.9296529495       17.8621601676
  H         3.5955818425        8.6888239020       16.1821331657
  H         8.4357464885        0.6976715994       17.5787183943
  H         2.0998096742        7.1135206067       16.0093650799
  H         3.8264291618        2.1734443711       18.7134179334
  O         9.0284229259        0.0795450851       17.0201489475
  H         8.6299403204        4.9842273759       18.0310828324
  O         2.3406349073        7.5204112607       16.8642296948
  O         3.2277009717        2.1359987811       19.4678759921
  H         2.2802903277        2.0036443551       19.1757569365
  H         9.7017925079        9.3601178342       17.6725918928
  O         0.2939899030        1.8940928361       19.0492452962
  H         1.5405512879        7.9550102566       17.1739594341
  H         3.0083141122        3.4727450311       20.2215374400
  H         3.2897943519        6.7395989077       18.0153528162
  O         8.9403053760        4.7939143249       20.1135987120
  H        11.3767672981        2.3929457227       18.1564342152
  H         3.3836928944        5.0147827144       19.7433861239
  O         2.9207588464        4.4678418811       20.4141038442
  H         8.6755125546        5.6408527693       20.5829477577
  H         8.5065678259        1.7107162565       21.2902762136
  H         4.7318965442        6.9722238704       18.6440561202
  H         8.5693996760        4.1235090162       20.6858679118
  H        10.5499879997        2.0015110204       19.5261985305
  O         3.9603831123        6.3448804395       18.6455300114
  O        11.2955028593        8.8846149301       18.4112820832
  O         8.8711973459        1.6755010029       20.3472409539
  H         4.0271785175       10.4390742698       20.4998920807
  H        10.4665306976        4.9578644831       20.9973295088
  H        11.0505870904        8.7456004357       19.3690474054
  O        10.0929791650        9.0698801019       21.0248385485
  H        11.4766796733        0.1446731729       18.4965813363
  H        10.5443147294        9.3173023565       21.8724368475
  O         4.6439749597        9.8881149760       21.0265013829
  O        11.3509444762        4.8435750417       21.4999161608
  H         8.0373261314        1.7204791329       19.7726341496
  H         9.5490825437        0.1775076891       20.7571083306
  H         8.7121024143        7.8736439394       21.0388515689
  H         3.3096884065        4.4237016865       21.9292820258
  H        12.1615505694        4.8488420892       20.8233998858
  O         7.9184765549        7.2701779794       21.1390714492
  H         4.9655572796        9.3015109406       20.3029064064
  H         3.9708263620        9.3301967159       22.3849700765
  H         7.7284809798        7.1942067548       22.1049199541
  O         3.3601292062        4.3604292576       22.9352425556
  O        11.1885333269        9.3123007916       23.8064655950
  O         3.5684660453        9.1405113436       23.3592306214
  O         8.0853612456        1.5308056467       23.0230395353
  H        10.6696223956        3.8824369980       22.5166298729
  H         2.7010808743        3.6001393471       23.2120119107
  H         3.8761803801        8.2241713670       23.5341436139
  H         0.6915251922        8.5623489436       23.6396824435
  H         7.2489560585        1.9171206953       23.4018158706
  H         8.7387023902        2.2906234914       23.1294313568
  H         4.9741037624        3.3380618232       23.5132470311
  H         0.5852339334        0.5052220368       23.8210590391
  H         3.9789725337        5.5532247599       23.4476037643
  O         1.4029515130        7.0797739996       23.4278796364
  H         2.2824060461        6.7297534462       23.7189117115
  O         4.2993996154        6.5027786499       23.7907895679
  O         5.8412829413        3.1012496347       23.9909077228
  O        10.2270770303        3.4207529250       23.3185177657
  O         1.6887881441        2.5266052777       23.6338330032
  O         7.0068686838        7.1682713285       23.8159945140
  H         8.6662552806        0.3870846440       24.0755687470
  H         4.6550796946        9.7519773810       24.2158389977
  H        11.8874863073        2.8088328893       23.6978790460
  H         6.0629949036        6.9653337425       23.7052298393
  H        12.1073134290        6.3977963000       22.9052073669
  H        10.1036890847        4.0981428644       24.0343649629
  H         5.4356888069        1.3961316472       24.7977526795
  H         9.8382162956        9.1010039566       24.2466475766
  H         5.9359358645        3.6573320576       24.8029169345
  H         4.3245709339        6.3607551058       24.7687271952
  O         8.8987403032        9.1780606835       24.4753808317
  O         5.5734889860       10.0398982940       24.7162705931
  H         1.9834058320        2.3217707581       24.5625644015
  H         7.0223682514        8.0654570417       24.1029908958
 Pt         3.1138115301        9.4022368772       26.9375650970
 Pt         5.8617636150        9.3435619420       26.7455467161
 Pt         8.7689450474        9.3720622885       26.6702708797
 Pt        11.6641598927        9.3525365547       26.8346370849
 Pt         8.7205433562        4.6376050604       -0.0894184773
 Pt         4.5385836980        7.0259650214       26.9083764134
 Pt        10.1366524940        6.8503150282       26.8898615650
 Pt         7.3147714724        6.9826919545       26.8447871456
 Pt        11.5781326243        4.5550686986       26.7167084412
 Pt         1.8541015657        6.8901722475       26.9833365710
 Pt        10.1673243557        2.1141436517        0.0567940611
 Pt         7.3711219511        2.2616246511        0.0875979885
 Pt         3.1407760401        4.5812960037       26.8390269279
 Pt         5.9151841118        4.5977069516       26.8783053770
 Pt         1.8175922380        2.1191663788        0.0948796436
 Pt         4.6089633907        2.2004750265        0.0317461191
  H         8.6811234826        1.0131142192        9.2223534535
  O         5.9511387369        8.1247984689       19.1876182802
  H         6.4590144618        8.3299171875       18.3651644367
  H         6.6822564302        7.8015549957       19.7829108372
