     243
Tv_1:  11.152900   0.000000   0.000000 Tv_2:   0.000000   9.658700   0.000000 Tv_3:   0.000000   0.000000  26.829700
 Pt         5.6964152183        8.1109505432        2.3003330316
 Pt         7.0570767676        0.8424557481        2.4182566966
 Pt        11.3866608842        7.9731776039        2.3534079279
 Pt         8.4704511280        8.1303921774        2.1345859257
 Pt         8.5952795727        3.1062685638        2.4885617101
 Pt         2.9435705717        7.9738978339        2.3468602398
 Pt         9.9844121851        5.6546106997        2.2891563107
 Pt         7.1425823570        5.7726636520        2.1733005880
 Pt         5.7684829589        3.1868109873        2.3282027593
 Pt         4.3392620486        5.5542472013        2.3362256093
 Pt         9.8759791858        0.6777956125        2.2960836682
 Pt         1.6054207792        5.5861967101        2.2627013639
 Pt         1.5562151892        0.7158552405        2.2943677050
 Pt         2.8900515601        3.1167888723        2.3689772990
 Pt         4.3051109155        0.8332849392        2.4078691608
 Pt        11.2246814973        3.1070465062        2.2816482909
 Pt         5.8392329811        6.5336108260        4.5864761526
 Pt         8.6010630641        6.4254684503        4.6073336540
 Pt         7.2716665311        8.9165190381        4.5637350372
 Pt         7.0707454248        4.1167685711        4.5748797457
 Pt         8.7595180456        1.6520574856        4.6856049414
 Pt         6.0713044186        1.7166412206        4.7037855823
 Pt        10.0343153479        4.1497238015        4.5597060759
 Pt        10.0855902006        8.9623561132        4.6815385576
 Pt         1.7374970917        8.9197977729        4.5881154773
 Pt         0.2231056972        6.6012417806        4.5967477973
 Pt         3.1709247364        1.7201655360        4.6872596245
 Pt         3.0204981632        6.4720163789        4.6519857493
 Pt         4.5585375410        8.9756664197        4.7337578122
 Pt         4.5496480643        4.1057243054        4.6390647195
 Pt         0.4123999195        1.6277215988        4.6179364164
 Pt         1.6478050507        4.1751014734        4.6645561229
 Pt         7.3584096898        2.6740547462        6.9059010413
 Pt        10.2457803694        7.4626422512        6.8508467604
 Pt         8.8500994037        5.1170453874        6.9458008010
 Pt         8.8949138527        0.2619234664        6.9214311765
 Pt         5.9729627073        0.3186941068        6.9992076667
 Pt         3.2236801437        5.0056648172        7.0261942982
 Pt         3.1192496163        0.1783762840        6.9173108906
 Pt         7.5444930176        7.5018911177        6.8971061085
 Pt         4.6403399770        2.8156164473        7.0810350644
 Pt         1.8495828282        2.6570744391        7.1138769816
 Pt         0.5662898698        5.0246060640        7.0761840909
 Pt        10.2891894803        2.6672411346        6.8340180940
 Pt         6.2672927241        5.1431478946        7.1622124994
 Pt         0.5656170280        0.3009304445        6.9925003384
 Pt         1.9064920692        7.3429706471        7.0125727267
 Pt         4.7663215478        7.4355482678        6.9839710577
  O         6.0074156465        5.2676484565        9.2002042803
  O         2.0886536611        7.5592056460        9.1903980527
  O         0.2172453062        5.2794605516        9.2222913390
  H         3.7244641328        1.7654628188        9.5307143688
  H         7.8180300515        4.7005644999        9.8422457094
  O         0.3936313628        0.1952252540        9.2407023746
  H         1.7240902659        8.4333221769        9.4240084957
  H         2.9219617049        4.1390580970        9.6505592516
  O         8.8890409152        0.3988041114        9.0047527969
  H        10.6111000239       -0.1226326330        9.4142838491
  H         0.6200376411        0.9660812348        9.8489872325
  H         1.1907271824        5.2815354083        9.5585759803
  H         0.4225687681        2.9329263188       11.0457516878
  H         7.1977951181        9.7081470553        9.1564067303
  C         7.1630073749        5.5114138618       10.0197335701
  H         3.0588360154        7.7372026651        9.3548585432
  O         8.8743860935        3.4318958878        8.2086571770
  H         5.3435175393        6.1669006253        9.2151567519
  H         6.8694597407        5.4553439666       11.0384835940
  O         4.6846683465        7.3808738307        9.0430787008
  O         4.1503459192        2.6853234336        9.3801886585
  O         1.0903403670        2.2732814664       10.6703510623
  H         1.8446647667        2.2957470892       11.2821935570
  H         9.3899122686        7.6268137599        9.4105177923
  O        10.2804767142        7.5716321405        8.9161746551
  H         5.0750987105        2.6481581677        9.8514563603
  O         6.3507783429        2.3357575271       10.5229129820
  O         2.7041873774        5.0670157178        9.8971869693
  H         7.5598091194        6.4710230682        9.8386905523
  H        10.6848163345        6.2061938045       13.2325497997
  H         6.2622555733        2.2502804625       11.5014410241
  H        -0.1663961218        6.2151429262        9.1453445546
  H         5.3342814964        8.1391637419        9.2730404802
  H         6.3812176828        1.4099906681       10.1913774690
  O         6.1801204292        9.7374308168        9.0494288801
  O        10.3564212117        5.4169451527       13.8142976221
  H         2.9425601259        5.0714531232       10.8624316312
  H         8.6921281411        0.4349991954       12.5050879683
  H        10.3318815555        4.6734873328       13.2292129748
  H        10.6440561235       -1.7017214883       11.9669529631
  H         3.3120612014        8.9219113952       13.5688814264
  H         9.5444609297        0.9242060791       13.7999459729
  O        13.9415138541        8.5498202126       12.8181369387
  O        11.2987598537       -1.8374039127       12.7781618492
  O         8.8358781891        1.1800408524       13.1077674620
 Cl         8.6926363941        8.2004114579       11.2285590293
  H         3.2138047289        3.3534674585       12.8830162218
  O         9.8860980475        3.3815189325       12.1260068041
  H         9.3891065770        2.4653951283       12.4324872203
 Cl         3.3183029753        5.3182385808       12.8533352640
  O         6.0100486022        1.3511930937       13.2457275187
  H        14.2240473820        7.6193264330       12.6935659156
  O         3.2664818307        2.3271936056       12.7082033866
  H        -2.0314504585        3.9287102783       11.8574095545
  H         5.5583024449        2.1376786378       13.7705771049
  H         7.0160110039        1.4940019532       13.3544655446
  H        12.1537796263        8.1284683136       12.5754105297
  H         5.5313014955        9.6451551358       14.1310848169
  O         5.7810714274        3.9307677198       14.5978316088
  H         5.4792064232        3.9126781183       15.5528296611
  H         3.2339426553        9.8537979684       11.1122142146
  H         2.9584690231        1.9290629053       13.5719516703
  H         8.8394179109        5.3132727877       14.6138314891
  H         3.2983995703        3.4864959301       16.4618555482
  H         5.0115115479        4.2093551375       13.9962420519
  H        10.8017832675       -0.8279050684       14.1235493291
  H         7.3135704198        4.7467671847       14.7958509924
  O         5.1306306483       -0.8348756978       14.5799932788
  H         5.7946315921       -1.4468540003       14.9437617336
  O         4.1653798798        3.4076846632       16.9010464197
  O         3.4258198318        9.6763352445       10.1947504430
  O         8.1128164964        5.1012413182       15.2245532448
  H         4.2727939769        4.3413054533       17.2691801792
  H         7.2465051387        6.4637593705       15.9430083175
  O        10.5423838295       -0.0741172715       14.6939633729
  O         2.0884500480        1.3625836721       15.3286221786
  O         7.0276721255        7.3663955896       16.2585774924
  H         1.4087925359        0.7522256490       15.0010104816
  H        11.9778897033        2.2532034697       16.6923149865
  O        11.4620539481        2.3587361795       17.5196312126
  H         4.3967800465        9.6062259975       10.2073423624
  H        10.0006990432       -0.3664345341       15.4787842146
  H         4.6114183745        0.3664903520       17.5984481166
  H         4.9010329175        1.9517805661       17.5516165699
  H         2.7571555934        0.8043226003       15.9148136033
  H        10.6014824759        2.7297801470       17.1547941975
  H        12.0184393152        5.1344069782       14.9995775430
  O         5.1735818749        1.1567310919       18.0739175596
  H         8.0012719606        7.7421719033       16.3663789692
  H         8.7624581916        4.0774796168       16.4012328134
  H         6.8676966065        1.2998962102       18.2686250008
  O         1.7078629451        5.3258652259       15.4299276600
  O         7.9377255361        1.2564962573       18.3696405832
  O         3.4963758426        9.4087768686       16.8786499566
  H        13.5614588308        5.2292971101       14.6990132103
  O         9.0009694185        3.5782731317       17.2475469926
  H         4.0248001099        8.9973457612       16.1518005023
  H         8.2199080320        2.1697405160       17.9171815105
  H         2.9360656658        8.6134218628       17.3587779815
  H         8.6481960527       -0.1621405183       17.3830909923
  H         1.8692608646        6.4786135177       16.8318102951
  H         3.7111045022        1.1209255836       19.1843442594
  O         9.1805035817       -0.9111705202       17.0472757085
  H         9.0012273099        4.1355855774       18.0341884463
  O         2.0301750781        7.0419470732       17.6782438189
  O         3.2604079300        1.1196509020       20.0522469151
  H         2.2207398938        1.1227475921       20.0009272138
  H         9.6358918742        8.4798157604       17.9066719964
  O         0.6648606527        0.8298820109       19.5864744380
  H         1.0796152637        7.1426717321       18.0219833825
  H         3.0653708086        2.8076095688       20.1173407884
  H         3.5333550214        6.0722004097       18.2100884166
  O         9.3894526731        4.1371000636       19.9252080354
  H        11.5282909377        1.4394842146       18.8191263303
  H         3.5114073576        4.3024948511       19.7051044153
  O         3.1017498401        3.7546296176       20.4567999178
  H         8.7576846389        4.3304940154       20.6495853916
  H         8.6085761382        1.0460845795       21.4559049203
  H         4.9826660505        6.1530622552       18.8921613477
  H         9.2979914954        3.1746958115       19.8064718938
  H        11.2585129461        1.0212799797       20.3675512300
  O         4.2393154406        5.5219574138       18.6307293373
  O        10.8795318870        8.0322991733       18.9911849861
  O         8.9971492615        0.6202080613       20.6572649280
  H         3.8526391627        9.6042108523       20.6481791967
  H        11.1548239372        4.5047021019       20.9006185857
  H        10.4111123691        7.5899976472       19.7143970352
  O         9.5782373468        7.5886607839       21.3946205458
  H        11.2484602996       -0.7434426069       19.3973436012
  H        10.1853783547        7.8284667265       22.0895279327
  O         4.3328169969        8.8829106360       21.3122685642
  O        11.7781923159        4.7032863106       21.6163252405
  H         8.4531195230        0.9499562075       19.8546462424
  H         9.1114604830       -1.1780822781       21.2576025630
  H         8.2549494138        6.2957936521       21.6481102811
  H         3.4769189103        3.4481589065       22.0101637509
  H        12.6171892413        4.2993730609       21.2523130360
  O         7.5533453232        5.6659731741       21.3414701978
  H         4.8606583790        8.2414909905       20.7574298892
  H         3.9261353647        8.7299376374       22.5598870925
  H         7.0187403522        5.6232029340       22.1734588675
  O         3.7230391096        3.6152659368       22.9837519646
  O        10.9759656521        8.9771713732       23.4568471777
  O         3.5632336830        8.8963764239       23.5899496940
  O         8.2476570114        1.9323740765       22.9360227338
  H        10.8720265914        4.1528581977       23.1485682730
  H         2.8921532484        3.6050255016       23.5504052076
  H         3.0969314376        8.0647048711       23.7041469762
  H         0.3423051503        8.2699838639       23.9026233060
  H         7.3323156053        2.3944720296       23.1326073775
  H         8.9944043466        2.4908861792       23.3340861290
  H         4.8361363455        2.8525878328       23.6363462955
  H         0.4479849710        0.0030895328       23.0782528020
  H         4.5699838486        5.3426688321       23.1612215443
  O         1.8179778441        6.6094018197       23.7494656655
  H         1.4253858416        6.1099092527       24.5168360196
  O         4.9163693635        6.1836992242       23.6182755100
  O         5.7441308904        2.3867223029       23.9540669931
  O        10.2665732514        3.6612603653       23.7801816030
  O         1.8212308508        1.2116193909       23.1139973930
  O         7.1354113117        7.1621899815       24.3453948875
  H         8.3976591150        0.7447604160       23.9101231551
  H         4.8597883580        9.0346674180       24.2749189602
  H        12.8751769796        1.5212078833       24.0327196893
  H         6.3179083341        6.7289508212       23.9486880549
  H        12.5934061916        6.2001663925       22.9147981273
  H        10.3914362393        4.1426438585       24.6219846433
  H         5.7636296840        0.7331231747       24.3957390469
  H         9.6407502652        9.4653224779       24.0680426351
  H         5.9611329274        2.9812310314       24.7350156138
  H         4.6655679687        5.9778595543       24.6095160289
  O         8.6670438743        9.5263093455       24.4181711369
  O         5.8624320633        9.3981856591       24.5484592292
  H         2.5268727833        0.5386575496       23.2509373832
  H         7.0479141529        8.1416116421       24.0887551927
 Pt         2.9228600975        9.4432129190       26.8568806878
 Pt         5.7261496397        9.2079752712       26.7109184238
 Pt         8.5292367819        9.3178495127       26.5251504967
 Pt        11.4200791812        9.3309474242       26.7826580816
 Pt         8.6768891209        4.4869582773        0.1207955019
 Pt         4.4224441000        6.9083181535       26.7182248645
 Pt         9.9577670078        6.9650301581       26.7272246215
 Pt         7.1392873784        6.7814676062       26.5094276693
 Pt        11.4837468724        4.5657266558       26.7353647981
 Pt         1.6609284701        6.9156974147       26.7505401403
 Pt        10.0529246058        2.0634673722        0.0927147714
 Pt         7.1650072748        2.0045257887        0.0430788945
 Pt         3.0336363198        4.5674845769       26.8379697034
 Pt         5.7083614707        4.3881185075       26.8018435198
 Pt         1.7004664166        2.1507541688       -0.0329843222
 Pt         4.4151475682        2.1036655763       -0.0064590914
  H         8.7861497696        1.3460712342        9.2504633477
  O         6.2901757168        7.5498283402       19.0539688923
  H         6.6970741254        7.6326722188       18.1224763997
  H         6.8943697099        6.9357787296       19.5634481987
