     243
Tv_1:  11.152900   0.000000   0.000000 Tv_2:   0.000000   9.658700   0.000000 Tv_3:   0.000000   0.000000  26.829700
 Pt         5.8180822212        8.0195476621        2.2152278398
 Pt         7.2510687177        0.7812867099        2.4068892245
 Pt        11.3397012007        7.9507846041        2.2216672906
 Pt         8.6619432726        8.1008046548        2.3214174510
 Pt         8.6253526766        3.1602158007        2.2514039309
 Pt         2.9850978170        7.8824131731        2.3889416880
 Pt         9.9296118149        5.5187709022        2.3192528542
 Pt         7.2344261992        5.6264921699        2.2741941978
 Pt         5.8641902139        3.1826566409        2.4161623247
 Pt         4.4160918555        5.5525861761        2.2967289542
 Pt         9.9897783610        0.7934194858        2.3815005879
 Pt         1.5949775352        5.5608092960        2.4663905446
 Pt         1.7878219385        0.6888159905        2.2880155270
 Pt         3.0867155444        3.0875252416        2.3777342037
 Pt         4.4492046475        0.7358898153        2.4079931395
 Pt        11.5194135186        3.1240689853        2.2644562215
 Pt         5.9310943927        6.4110494527        4.5684330355
 Pt         8.7688759884        6.4414875618        4.6050405026
 Pt         7.4085261085        8.8945714281        4.6053246328
 Pt         7.4607413133        4.0653189890        4.4914742479
 Pt         8.7988233398        1.6363407765        4.7419788051
 Pt         5.9985948951        1.5878657004        4.7135724551
 Pt        10.2542282010        4.0196421005        4.3949848727
 Pt        10.1668435404        8.8826030901        4.6404474638
 Pt         1.7108139915        8.9256576571        4.6666004928
 Pt         0.3016511820        6.6015452771        4.6198006788
 Pt         3.3441409035        1.5671143615        4.6242713091
 Pt         3.1086441552        6.4929222042        4.6511602276
 Pt         4.5753796388        8.7763147161        4.6588662610
 Pt         4.7133901606        4.0235808783        4.7512615690
 Pt         0.4731548464        1.6875176597        4.5622189412
 Pt         1.8258248349        4.0329107905        4.6975435224
 Pt         7.5675176824        2.4617965005        6.9062685726
 Pt        10.2175450257        7.2966001949        6.9190330109
 Pt         8.9542506784        4.9465205562        6.8107822899
 Pt         8.9412854890        0.0671014714        7.0184268043
 Pt         6.1499773473       -0.0313233189        7.0577665605
 Pt         3.3718877160        4.7606272435        6.9838548923
 Pt         3.3025617989        0.0484925791        6.9062768279
 Pt         7.3880530770        7.2474863909        6.7273820215
 Pt         4.8944392071        2.3502002218        7.0783247359
 Pt         2.1952494161        2.5027613547        6.9262272991
 Pt         0.6506526474        4.8425856104        6.9219897698
 Pt        10.3304652008        2.5668387885        6.7745733867
 Pt         6.2786681171        4.8675937226        7.1434946285
 Pt         0.5042322525        0.2192780322        6.8554409640
 Pt         1.9847493178        7.2913390214        7.0152480147
 Pt         4.6190662050        7.2782904916        6.9138252866
  O         6.0543868796        5.2982446860        9.1624273996
  O         2.0292087638        7.6988979138        9.1873758854
  O         0.4725397890        5.1360641190        9.0418248238
  H         3.9213050156        1.6072719943        9.4222922842
  H         7.4829270642        4.1412136022        9.9610020361
  O         0.4415246139        0.2395885485        9.0715232345
  H         1.6185030135        8.6429712488        9.2848441967
  H         3.3673105462        3.9558507798        9.7883884539
  O         9.1156182828        0.5653002122        9.0330725709
  H        10.6242527489        0.3501387065        9.0910146942
  H         0.6486650040        1.2193106193        9.4141791518
  H         1.3922006170        5.0560194840        9.3564498596
  H         0.4135358218        2.8680184067       10.6303335247
  H         7.1607094483        9.0360833613        9.3298248563
  C         7.1996752901        5.1846180703        9.9904802603
  H         3.0194150781        7.7033674022        9.4187690589
  O         8.9852176576        3.3689216211        8.0817169873
  H         5.2618455252        6.4122282062        9.1776485039
  H         7.0147260589        5.5240499237       11.0341958151
  O         4.6702892518        7.3770417052        9.1524839033
  O         4.4020419827        2.4701425652        9.1286961024
  O         1.1510888027        2.4325043952       10.1353926482
  H         1.9063390064        2.3796192771       10.7201844804
  H         9.4034119160        7.2695952521        9.4276265083
  O        10.3124533302        7.3408686973        9.0091876930
  H         5.3080784995        2.4502764717        9.7754027549
  O         6.2994609136        2.1621284587       10.5778292003
  O         2.9953692891        4.8692810748        9.6533132976
  H         8.0470515537        5.8451706054        9.7882465348
  H        10.4994747499        6.1291742549       12.9812461849
  H         6.1067742385        2.3582866355       11.5714698983
  H         0.0354266475        6.0477003420        9.2541081635
  H         5.4301596849        8.1362431380        9.1766947520
  H         6.4272071852        1.1964400163       10.4367199175
  O         6.2541883790        9.3681520481        9.0633417393
  O        10.5668999989        5.1510715255       13.1761136464
  H         3.3585226400        5.5081343244       10.2674783573
  H         8.5605308184        0.4778393346       12.2964247818
  H        10.1546038854        4.6629933760       12.4179220049
  H         9.6955082044       -1.5028743895       11.9607760233
  H         1.9155048228        9.6393906160       12.6393956801
  H         9.3402209603        1.0072392804       13.4248624603
  O        13.0859870108        9.0161432772       11.8176335165
  O        10.5452227454       -1.8061831896       12.3946261034
  O         8.8445725613        1.3576909463       12.6765256842
 Cl         7.7916780609        8.3294622265       11.3488157856
  H         2.8520012135        3.9316947497       12.4207921701
  O        10.0127069875        3.3538813531       11.3354532821
  H         9.5745664149        2.5085443533       11.6610477752
 Cl         3.7353136406        6.4674557069       12.3939084917
  O         6.5658153227        2.5353110325       13.2040534870
  H        13.5799487211        8.2237772016       12.0155111168
  O         2.8987957529        2.9872969358       12.2029996668
  H        -1.4678184153        3.3381680634       10.4294220219
  H         6.3539688989        3.3867261154       13.6589795554
  H         7.4411697126        2.1725102207       13.4204845098
  H        11.3051136886        8.2563566747       11.9286072752
  H         4.6879093927        7.8908328679       13.7338149880
  O         5.7307039190        5.0177223105       14.0725630947
  H         5.1674990089        4.9456304278       14.8603717142
  H         4.4680156526        9.3218921042       10.1693764688
  H         2.4013160134        2.4919507837       12.9411936396
  H         9.1974420734        5.1637361797       14.3347966588
  H         3.0213253066        4.8675033886       15.6041157027
  H         5.2140668945        5.3133549496       13.3616542579
  H        10.3951630438       -0.5717907215       14.2540291012
  H         7.6769261332        5.7739176458       14.6023386649
  O         5.1793645163       -0.9549329563       14.1164746783
  H         5.4823033353       -0.5033160227       13.2735914912
  O         3.8941845994        4.8015124491       16.1177750859
  O         3.6293551415        9.7799550429       10.0248171285
  O         8.5343706408        5.4910720167       15.0323316185
  H         3.8150950530        5.3957213926       16.8941183342
  H         5.9898552810        8.0715441488       15.9140124016
  O        10.2138249299        0.2859552691       14.7114444462
  O         1.6157271151        1.0265526645       14.0293459320
  O         6.2835269239        7.5972178029       16.7886689637
  H         0.6605567497        0.9137744069       14.3723653753
  H        12.0434082648        3.8293612570       16.4621723348
  O        11.3842651133        3.3293504602       17.0498903268
  H         2.8641789617        9.6009457053       10.7145006062
  H         9.6259757573        0.1603202512       15.5213970466
  H         3.7622904408        1.4596156540       16.8413592508
  H         4.1438823753        2.9870589598       16.9764366167
  H         2.2298783487        0.6135112250       14.7185403065
  H        10.4573175430        3.7615514614       16.9493138201
  H        12.0626386136        5.1986837211       13.9793586203
  O         4.1436078414        2.1282724849       17.4618417471
  H         7.2505199965        7.9544865334       16.8010752994
  H         8.4098934393        4.8615819152       16.3492406450
  H         6.0798709741        2.1009057760       17.7644600055
  O         1.7372937022        5.5677957989       14.4838321157
  O         7.0354907686        1.8864251158       17.9819357904
  O         3.3892096228        9.6908757247       15.8585373964
  H        13.5716901574        5.9607059209       13.8850212124
  O         8.6721687399        4.1403322949       17.1231326765
  H         4.1686103051        9.3119323969       15.4053455601
  H         7.5666701014        2.5762062668       17.5524152469
  H         2.8458597946        8.8944825599       16.0582691990
  H         8.1256431827        0.5720868383       17.3420706939
  H         1.2985460733        7.1264891224       15.5395847039
  H         3.2572517820        1.8803341561       18.8792677952
  O         8.5506948928       -0.1624375368       16.8643834069
  H         8.7769161572        4.6722207896       17.9579274198
  O         1.4549343495        7.7885057321       16.1843026568
  O         2.6935949828        1.6153749289       19.6925155220
  H         1.7632307382        1.3918534764       19.3625243285
  H         9.1531956911        9.0171944781       17.5207030460
  O         0.1048628121        1.2433807258       18.7036395979
  H         0.7293093533        7.7615090157       16.7801253646
  H         2.5915470940        3.2442547595       20.3001547724
  H         2.4973811853        6.5473662458       18.2559285627
  O         9.0747684633        5.0055799094       20.3003500279
  H        11.1970938720        1.9996716013       17.9837087066
  H         2.6979715352        4.7796701371       19.7705567880
  O         2.6827934361        4.1988316750       20.5860837644
  H         8.3376919862        5.7065753119       20.5075024245
  H         8.1011735092        2.1266660619       21.0028886961
  H         3.9673671513        6.6180429617       18.8334575205
  H         8.8466096298        4.0764637103       20.1414845996
  H        10.5756909623        1.5255017104       19.3643573327
  O         3.2143421647        5.9642053503       18.5322754449
  O        10.4248750567        8.2893555720       18.2861486495
  O         8.5070521686        2.1616614319       20.1018042102
  H         3.0949134749        9.7217210108       20.4833328150
  H        10.5609033403        5.3037477219       21.0414596359
  H        10.1414112931        8.0605791672       19.1614271584
  O         9.0598100726        8.6936817490       20.7625938543
  H        10.7989975432       -0.3960366182       18.4061180417
  H         9.6728944977        8.8821888104       21.4621685098
  O         3.1768141120        8.7117930621       20.6505922293
  O        11.4046615854        5.0802532902       21.6590017476
  H         7.8055909466        2.0676754020       19.4422267000
  H         8.6444689160       -0.0752189872       20.6344238588
  H         7.7795386326        7.5690136850       21.1441187527
  H         3.2680487772        4.2401503781       22.2422752371
  H        12.2829593915        4.8653047765       21.2068258170
  O         7.1437010001        6.8091619917       20.9098139423
  H         4.0301116360        8.5484076719       20.1830082056
  H         3.3304769532        8.2782447137       22.3695442075
  H         6.6029932702        6.6683616100       21.7688176580
  O         3.5388477651        4.3592435213       23.2218520474
  O        10.7956586195        9.2666896335       23.2467635380
  O         3.1624703801        8.1577212862       23.3665097934
  O         8.6265881367        2.1811061072       23.3139251602
  H        10.8528911321        4.3390841795       23.0017150060
  H         2.6983610560        4.5647350333       23.6768308328
  H         2.3757620421        7.5681305118       23.5274690764
  H         0.1934364069        8.4385472338       23.3861708731
  H         7.6584898301        2.4397182762       23.4357455354
  H         9.1570261170        2.9738189024       23.6632634526
  H         4.8335234806        2.9305756762       23.4204055204
  H         0.2428493654        0.4241370040       23.2572202037
  H         4.8422439494        5.5098243391       23.1147710118
  O         0.9276066676        6.7743150729       23.5715993828
  H         0.7251970663        6.3385864018       24.4455543531
  O         5.3143250854        6.3976630817       23.1705313433
  O         5.6508832448        2.5017271697       23.7643194090
  O        10.6866053140        3.7012075057       23.8141692898
  O         1.5186009501        1.6907289175       23.3830091504
  O         7.1381859158        7.2613676243       24.6412948984
  H         8.5350123128        0.9012454606       24.2756594532
  H         4.5399199075        9.2408351702       24.4519559609
  H        13.0917551260        1.5458740967       24.2796829280
  H         6.4348749337        6.6371799951       24.2358098671
  H        11.7439262127        6.0970840278       22.8632684412
  H        11.1636983182        4.0492057491       24.6139984089
  H         5.5071915040        0.8948803428       24.3681628181
  H         9.4586328048        9.3564826400       24.2913664291
  H         5.7819735906        2.9564883847       24.6297760230
  H         4.4655104264        6.9542188360       23.2719272533
  O         8.5597807272        9.6405095179       24.6301949010
  O         5.4547739421        9.6163025076       24.6347457687
  H         0.8537110860        2.4214888798       23.5385100853
  H         6.8148634757        8.2029440709       24.3842829244
 Pt         2.7854305284        9.4397106614       26.7717961005
 Pt         5.4877333289        9.5849865371       26.8707546003
 Pt         8.3653337775        9.4927156777       26.7606276456
 Pt        11.1263546379        9.5238542449       26.7495292021
 Pt         8.4669839361        4.5828595344       -0.0894217451
 Pt         4.3091306358        7.0646689242       26.8412936310
 Pt         9.8640036365        7.1088638889       26.8256764622
 Pt         7.0409959571        6.9827729532       26.7573067430
 Pt        11.3009322361        4.7433172830       26.8521611879
 Pt         1.6469167465        7.1275677431       26.8662559091
 Pt         9.8403814489        2.3310714947       -0.0237992478
 Pt         7.0553367212        2.2027921897       -0.0559943352
 Pt         2.8267559068        4.6358357516       26.8347139022
 Pt         5.5055208391        4.6103172134       26.7230218039
 Pt         1.4902858516        2.2677124731       -0.0147137072
 Pt         4.2821559842        2.2467999196        0.0919243134
  H         8.7851384677        1.4408242951        9.2909786822
  O         5.1537642116        7.4362131107       19.1056931152
  H         5.6717452084        7.6730198312       18.1972045300
  H         5.8555094279        7.0862970359       19.7095804014
