     243
Tv_1:  11.152900   0.000000   0.000000 Tv_2:   0.000000   9.658700   0.000000 Tv_3:   0.000000   0.000000  26.829700
 Pt         5.8901596480        8.0788029593        2.1135132768
 Pt         7.1681926617        0.8264671582        2.3388815820
 Pt        11.3483940847        8.0370886152        2.3275661826
 Pt         8.5760100319        8.0713344784        1.9746911359
 Pt         8.5129763305        3.1259916245        2.1788265680
 Pt         3.2005194425        7.9962568372        2.3286975823
 Pt         9.9952791266        5.6950868926        2.2243268081
 Pt         7.1621586433        5.6324128035        2.2372873590
 Pt         5.7226115813        3.2117052869        2.4720256432
 Pt         4.5007491759        5.6123495357        2.4012591517
 Pt         9.9514223466        0.7740817280        2.1554513256
 Pt         1.5884500581        5.4558298811        2.1983032504
 Pt         1.6389347211        0.7189046910        2.3340107636
 Pt         3.0395946514        3.1131854383        2.4480917588
 Pt         4.4383370021        0.7229542736        2.3930156187
 Pt        11.3830516180        3.0601130635        2.3111164179
 Pt         5.8945516818        6.5672305657        4.6280840467
 Pt         8.6864479722        6.6881719942        4.3354821376
 Pt         7.2677578176        8.9469252382        4.5909990467
 Pt         7.1321436735        4.2018243523        4.5609139513
 Pt         8.5568736504        1.7895316623        4.4858397718
 Pt         5.7768307255        1.7429954110        4.8399164690
 Pt         9.9287620752        4.1917631834        4.4330578010
 Pt         9.9775577550        9.0778897223        4.6284260298
 Pt         1.7158919894        8.9122412622        4.6919898593
 Pt         0.3196691381        6.5792740908        4.5451801851
 Pt         2.9556734898        1.6852011315        4.7698771991
 Pt         3.0251995056        6.4801024905        4.6191481916
 Pt         4.4569555962        8.9292127468        4.7885802885
 Pt         4.4425193480        4.1143622379        4.7481049020
 Pt         0.3309082215        1.5855668180        4.6396538020
 Pt         1.5173615065        4.1367307958        4.5904632685
 Pt         7.2028017795        2.6728663772        6.9920675669
 Pt        10.1483968365        7.7253472426        6.8470774543
 Pt         8.7687802731        5.2662740623        6.7655701131
 Pt         8.7792923230        0.3404983304        7.0830916790
 Pt         5.9812650914        0.2720324624        7.1509581219
 Pt         3.2032277464        5.1233690146        6.9091113172
 Pt         3.1480792940        0.3444748487        7.0153838757
 Pt         7.3241941721        7.5017371708        6.8192771594
 Pt         4.5885771585        2.6480840357        7.3250810079
 Pt         1.9445583766        2.7284949155        7.0553130850
 Pt         0.3443704805        4.9584634014        6.8942728397
 Pt        10.0918728882        2.6469879650        6.7309890583
 Pt         5.9818803162        5.1550576280        6.8550304442
 Pt         0.4920710316        0.4305616108        6.9635731476
 Pt         1.7909374123        7.6149379473        6.9424940943
 Pt         4.4883860614        7.5696193976        7.1067742314
  O         5.9441884403        5.2175711333        9.1325698108
  O         1.8690840673        7.6092219861        9.3675016774
  O         0.1920266979        5.1732737602        9.1357259440
  H         3.9757766237        1.6814204599        9.6693835316
  H         7.2900803595        4.5556386270       10.5646302230
  O         0.3485303283        0.1750970688        9.0927932126
  H         1.1177120911        8.2393373964        9.3918619403
  H         3.5593211403        4.3749911840        9.5480972669
  O         8.9074890780        0.8119652645        9.0775638647
  H        10.4804310498        0.3159980089        9.1973043145
  H         0.8824349363        1.0926199270        9.6790952759
  H         1.0931544614        5.4417171497        9.4221929632
  H         0.5126214112        2.6258270293       10.5843996579
  H         7.0390791962        9.0152841508        9.4282022665
  C         7.0067791544        5.5075274386       10.0823332013
  H         2.7147325881        8.1189192748        9.6095714198
  O         8.8392959541        3.5890484047        8.0137790111
  H         5.2517920283        6.0129265553        9.2313706438
  H         6.5951107314        6.1512892782       10.8741921745
  O         4.4821672786        7.3441674142        9.1520770008
  O         4.4689158073        2.5541560414        9.4534225464
  O         1.3246880203        2.1041351586       10.3271179666
  H         1.9656877711        2.1881438264       11.1385457344
  H         9.7108425739        7.6516959615        9.7474619782
  O        10.0603625147        7.1315045090        8.9584807991
  H         5.4212498071        2.4607087424        9.7243202875
  O         6.8485267111        2.3138327935       10.3795789215
  O         3.0238403836        5.0665314329        9.1969599809
  H         7.8604407527        5.9404756480        9.5518371432
  H        10.7816191315        6.1457683107       13.0880792397
  H         6.4675117655        2.2231198589       11.3078564687
  H        -0.3992418479        6.2719236136        9.0707557032
  H         5.0891102246        7.9365304691        9.6319904648
  H         6.9577455779        1.4233832944       10.0446714735
  O         6.1545080633        9.5183125728        9.2282659057
  O        10.4158288284        5.3180696142       13.4801433180
  H         3.3045822887        5.8437456677        9.6777477149
  H         8.7773333214        0.6180930162       11.9135363413
  H        10.2761946812        4.6196124728       12.7575362560
  H        10.3568268548       -1.5259124292       12.0602179319
  H         3.4115482338        8.6330391353       13.1606621591
  H         9.5433178844        1.1621799814       13.1262169752
  O        14.0266706668        8.5844094466       12.3085368074
  O        11.1699188862       -1.6763133227       12.6630493999
  O         8.8538932426        1.4520988725       12.3875146084
 Cl         8.5145271148        8.3500578262       11.1864996354
  H         3.0891077859        3.4079501524       12.3377234562
  O        10.3309911580        3.3539274289       11.1055137362
  H         9.5748214668        2.7418148312       11.1935713982
 Cl         3.7818977157        5.6010027722       12.4736162120
  O         6.3613886361        1.9286889209       12.8859779094
  H        14.3030424075        7.6650851879       12.0753997259
  O         2.7558464974        2.4662417603       12.3323701539
  H        -1.0000450152        4.0878005293       10.4498184599
  H         6.3415947321        2.8713843795       13.3088206275
  H         7.3682709013        1.7719443352       12.9350006400
  H        11.9595242915        7.9275495316       12.1236869834
  H         6.0688146353        8.9337191325       14.3431641709
  O         5.9876779666        4.5158914781       14.2089014381
  H         5.5225376119        4.2059267844       15.0046024903
  H         4.5513985153        9.5769318671        9.9447482986
  H         2.3455480342        2.3283577954       13.2478363943
  H         9.0817747435        5.6073479221       14.6015008332
  H         3.3345989570        4.2921120111       15.8406614169
  H         5.3496117232        4.9811823091       13.6529795766
  H        10.9689808708       -0.3023545657       13.6678326757
  H         7.5586296008        5.0567034285       14.7213704856
  O         5.2630911966       -0.1768515028       14.1197575145
  H         5.6317557357        0.6047906794       13.6191615466
  O         4.1919632936        4.0724503173       16.2926569885
  O         3.6188450535        9.9982706729       10.0157807448
  O         8.3138635596        5.4279489878       15.2113120794
  H         4.2439893922        4.6606522677       17.0820665864
  H         7.5958689636        6.8922303703       15.6620677922
  O        10.6947061438        0.6384713034       14.0783169651
  O         1.7387951741        1.7326127920       14.8654853623
  O         7.1654460532        7.6852042387       16.0382078456
  H         1.0062175605        1.2668245331       14.4567058304
  H        12.4635230763        2.5924437783       16.1502588717
  O        12.0336959697        2.9515886820       16.9960861351
  H         3.3885294834        9.7638344861       10.9371867974
  H        10.1537276632        0.4478182980       14.9364576154
  H         4.6380416779        0.7936547014       17.0854300475
  H         4.7355206721        2.3011674798       17.0419087849
  H         2.2574174594        0.9880683345       15.2723178191
  H        11.1609077685        3.3914053519       16.6832550574
  H        12.0976783130        5.4258710884       14.7494582622
  O         5.0794674719        1.5791717094       17.5675863425
  H         7.8730383492        8.3476825270       16.0748985730
  H         8.8956114368        4.3625398277       16.3123546652
  H         6.8976569654        1.4796902681       17.6860652355
  O         1.9026437639        5.4507368585       15.0187808021
  O         7.8857574919        1.5135464584       17.8035039228
  O         3.4328865674        9.6962435445       15.9100249811
  H        13.5306693845        5.5937996030       14.1630856605
  O         9.2619502228        3.6702257871       16.9485260166
  H         4.1210566174        9.5300706217       15.2497331918
  H         8.0819596143        2.4822902946       17.5538552862
  H         3.0809581207        8.8590411446       16.3200123546
  H         8.8815008076        0.4585935295       16.8142635141
  H         1.9075455694        6.8242935443       16.1513192799
  H         3.8983613762        1.6044641903       18.7409290301
  O         9.2615945304       -0.1938339081       16.1669186215
  H         9.6949092734        4.1900526989       17.6653177180
  O         2.1196426325        7.4488200601       16.9492199228
  O         3.1738992574        1.6554917513       19.4747446182
  H         2.3021934955        1.3645126965       19.0230430007
  H         9.9645856673        8.9914202953       16.7057285642
  O         0.3920218554        0.8798233859       18.7084084038
  H         1.2562111491        7.5052828203       17.5199428271
  H         3.1023593813        3.2510787744       20.1558541731
  H         3.3816726132        6.4778513285       18.1090708819
  O         9.8414779784        4.7387342226       19.5622669504
  H        11.6529146350        1.5956410407       18.0411547823
  H         3.5977048950        4.8224032186       19.9458894931
  O         3.3370009357        4.1262071061       20.5949778521
  H         9.0552187012        5.1002570810       20.0372505198
  H         8.8023633686        1.7973059918       20.8518804294
  H         4.8704918582        6.3699652277       18.6566935779
  H         9.6220852604        3.7247498630       19.5149744865
  H        10.7578288894        1.1528453141       19.3248173332
  O         4.0277751871        5.8615216236       18.5916725067
  O        11.1103116221        8.0901891584       18.0101323389
  O         9.2567236751        1.6237044362       19.9941541547
  H         3.8291522812        9.3526770814       20.3158674797
  H        11.4915868313        4.9008803307       20.6945555805
  H        10.5829184823        7.8716678457       18.7822365355
  O         9.6740622268        8.2313837494       20.4896079565
  H        11.5340122779       -0.6801636674       18.2019490142
  H        10.2990375214        8.1738994066       21.2621951091
  O         4.4977780729        8.6491509297       20.5498071165
  O        12.0855717687        4.6795252913       21.4879329231
  H         8.5301451684        1.3834555335       19.2825088392
  H         9.5670659441       -0.4593121315       20.4040087708
  H         8.5296877461        7.2582768818       20.6500661280
  H         3.7249349293        3.5447272538       22.0825534099
  H        12.9863423897        4.5110403885       21.1101108986
  O         7.8743582402        6.4631487833       20.5947567354
  H         5.1066908386        8.5019208735       19.8280474474
  H         4.0733521734        8.0970813659       21.9394108211
  H         7.5562160653        6.2558121589       21.4913125856
  O         3.8819084070        3.0151185036       22.9668283061
  O        11.0887638008        8.5256061042       23.0391927337
  O         3.9164096279        7.8839238794       22.8958851235
  O         8.6117886670        1.9136576658       22.6027548715
  H        11.4420907572        3.4867989835       22.5848124645
  H         3.2916116758        2.2288643719       22.9045444180
  H         2.9707367874        7.6401429347       23.0765052529
  H         0.4532906931        7.6859151293       23.3502338428
  H         7.6663509729        2.2031608090       22.8203173144
  H         9.2571024825        2.6869155282       22.6770329304
  H         5.3385082661        2.7463954314       23.2031278038
  H         0.6397047863       -0.4083806812       23.0780107615
  H         4.8044842406        5.1881846296       24.2295799364
  O         1.4915353313        6.4475843732       23.4101565256
  H         1.4150913022        5.8842041937       24.2421252966
  O         5.3647433485        5.7143170122       23.5515164846
  O         6.1708919959        2.4303539088       23.7143453706
  O        10.8251532917        2.9178248936       23.1673002366
  O         1.7582746772        0.8793293603       23.6766399306
  O         7.6407398390        6.8019700969       24.3950550128
  H         8.7759475909        0.4364952558       23.7379974005
  H         4.8386983140        9.3134879062       23.8975072714
  H        12.8429159147        0.5255890469       24.5576508195
  H         6.7671289851        6.4427858981       24.0350107309
  H        12.3195951497        5.8617252010       22.6549663717
  H        10.6725420701        3.4271558667       23.9942473897
  H         5.8466201889        0.8637737518       24.2634271116
  H         9.9014087722        8.9579406200       23.9880415698
  H         6.2014681828        2.8760504078       24.5717879613
  H         4.6624060061        6.4175437616       23.3263688170
  O         8.8643463104        9.1738936362       24.2306763569
  O         5.7029550622        9.5510229911       24.3492576382
  H         1.1207825912        1.6649393164       23.6733422423
  H         7.8068217869        7.7143546366       24.0358657210
 Pt         3.2158713435        9.3220521001       26.8269600848
 Pt         5.9041451524        9.2128036059       26.5153150295
 Pt         8.7174606910        9.2964128050       26.5483598052
 Pt        11.4010307619        9.3060431036       26.8660529838
 Pt         8.7974778029        4.4041337828       -0.0823789536
 Pt         4.5021905862        6.7222915187       26.8199283252
 Pt        10.1560557376        6.8429660152       26.6813048818
 Pt         7.3033763779        6.7590715152       26.6489612969
 Pt        11.4771293291        4.4449653605       26.5452648823
 Pt         1.7894174290        6.8473266915       26.7337236264
 Pt        10.2773331489        2.0781326750       -0.2642510247
 Pt         7.2495944833        1.9978109874        0.0279125487
 Pt         3.0781305152        4.4715749650       26.8116093101
 Pt         5.7295509341        4.4548499856       26.7785140039
 Pt         1.8005693621        2.0251883039       -0.0941265701
 Pt         4.5448412680        1.9895516735        0.0823853528
  H         8.9723544785        1.7898106624        9.0951029578
  O         6.1257087083        7.4743410880       18.6447381528
  H         6.4211642688        7.6220399968       17.7067371419
  H         6.9093079124        7.1877850315       19.2056723759
