     243
Tv_1:  11.152900   0.000000   0.000000 Tv_2:   0.000000   9.658700   0.000000 Tv_3:   0.000000   0.000000  26.829700
 Pt         6.0210197754        7.9668119233        2.2660132976
 Pt         7.3924573336        0.6687475089        2.3154788838
 Pt        11.5026318621        7.9944251271        2.2227345835
 Pt         8.6835408525        7.9610581541        2.2102496715
 Pt         8.7539030801        3.1368964391        2.2929670501
 Pt         3.1007327081        7.9358924422        2.2743092815
 Pt        10.0541141634        5.5577830670        2.2577669266
 Pt         7.3067781083        5.5121789079        2.1353080749
 Pt         6.0417146191        3.1273574492        2.3060738670
 Pt         4.5272687067        5.4870742657        2.3917581325
 Pt        10.1890038060        0.7398806698        2.2614538343
 Pt         1.7216575439        5.6175083813        2.1027164442
 Pt         1.7033485321        0.8368729077        2.2227042140
 Pt         3.1276252711        3.1864856960        2.3157202937
 Pt         4.5511433226        0.6299965099        2.2215150291
 Pt        11.5513265049        3.1391504405        2.3031832377
 Pt         5.9296669462        6.3623756590        4.4787143164
 Pt         8.6935611264        6.4398335840        4.6191509271
 Pt         7.4115249353        8.9613001926        4.5859410757
 Pt         7.0789382306        4.0829781029        4.5897382759
 Pt         8.7429259957        1.6995042037        4.5871404447
 Pt         5.8998174255        1.6077515433        4.6515033153
 Pt        10.0173611356        3.9923985331        4.5463142041
 Pt        10.1636313586        8.8213466058        4.4659653819
 Pt         1.6715879698        8.8891588933        4.5446264507
 Pt         0.2757821891        6.4243240585        4.5857196284
 Pt         3.1393745885        1.5978680480        4.4562415394
 Pt         3.0633656221        6.4507366278        4.5332117632
 Pt         4.7153815466        8.8726637533        4.6054804467
 Pt         4.4017804016        3.9827031342        4.7134629908
 Pt         0.3661878526        1.5800048367        4.6198559609
 Pt         1.6896656944        4.0696130365        4.5348120076
 Pt         7.2090145222        2.5377553325        6.7902610929
 Pt         9.9294450885        7.4346346113        6.8576661083
 Pt         8.6495344312        4.9580712245        6.9811966117
 Pt         8.5534133996        0.1130884395        6.9032530260
 Pt         5.8150450402        0.1683318900        7.0000022449
 Pt         3.1406115123        5.0175592923        6.9593746496
 Pt         3.0654329250        0.0151143965        6.8468377550
 Pt         7.1588164380        7.3393996550        6.8059462681
 Pt         4.3922305722        2.4451714021        6.9370247873
 Pt         1.7370284488        2.4894049862        6.8495268398
 Pt         0.2266164178        4.8769801618        6.9624974159
 Pt        10.1564830431        2.4517352388        6.8540796592
 Pt         5.9921823257        4.8895307873        6.9520401197
 Pt         0.3060867966        0.0226399527        6.8676844450
 Pt         1.6447636799        7.2859359231        6.8045340790
 Pt         4.4551311642        7.4114936878        6.8130228058
  O         5.7861956930        5.3092841953        9.0930100258
  O         1.7694034327        7.2666481403        8.9592230091
  O         0.1306790512        4.9576696563        9.0500527414
  H         3.7608306502        1.6783567157        9.4400577409
  H         7.1684535639        4.1237925466       10.0852291127
  O         0.3593952939       -0.0565943127        8.9697687358
  H         1.5590855598        8.1681632294        9.2691378796
  H         3.2761098954        3.8457094855        9.4165006334
  O         8.7627375529        0.2194020664        8.9010491762
  H        10.5690624266       -0.2731551178        9.1426130734
  H         0.4366207966        0.9878124196        9.5640890337
  H         0.9967248361        4.7955774002        9.4812539040
  H        -0.2709111241        2.5647092336       10.5647387500
  H         7.1375414661        9.2078642737        9.1765908467
  C         6.8802762736        5.1528552771       10.0418267104
  H         2.7482555482        7.2905914003        8.9995499455
  O         8.6549409778        3.2225093682        8.2286442549
  H         5.3704697276        6.2359095470        9.1529877362
  H         6.6408981012        5.3792847194       11.0685804748
  O         4.4586025840        7.3785650145        8.8998274973
  O         4.3017247051        2.4891526076        9.1238689531
  O         0.5221322717        2.0225939485       10.2653180211
  H         1.2898148801        2.2307786532       10.8977698753
  H         9.3706542398        7.5830421570        9.4532816469
  O        10.0093634641        7.2070314870        8.8586296780
  H         5.1213538745        2.3911573391        9.6899897032
  O         6.5169553048        1.9367194674       10.3120719983
  O         2.7058350294        4.6579839715        9.4369202167
  H         7.7701530479        5.6662025997        9.7745025052
  H         9.9243392018        5.9648719708       12.9222791790
  H         6.1674130100        1.7812180786       11.2110482856
  H        -0.2589811152        5.9156130127        9.1579659937
  H         5.0514041503        8.1158070297        9.0473055330
  H         6.4810165297        1.0355782715        9.8647595995
  O         6.1110255283        9.3663185319        9.0398123767
  O         9.7677518894        5.0346278521       13.1450086610
  H         3.1764362827        5.2457367600       10.0477749438
  H         8.2500685524        0.5789226042       11.8637910048
  H         9.7387666707        4.5945890020       12.2330302443
  H         9.9868807781       -1.3818276826       12.3656108303
  H         2.9673223250        9.1261979309       13.1661407719
  H         8.7449537278        0.9087988301       13.3425400260
  O        13.4613020454        8.9396255395       12.4737004551
  O        10.5930941507       -1.7500025784       13.0862822067
  O         8.3322185655        1.3225214697       12.4856742145
 Cl         8.3331155660        8.1435622222       11.0907496517
  H         2.3860040254        4.0324994106       12.0340079432
  O         9.4913367574        3.3485978511       10.8494225436
  H         8.8033599076        2.6414032000       11.1694897829
 Cl         3.1390285658        5.9086471509       11.9973634026
  O         5.5504452473        1.8852134923       13.0369824100
  H        13.7530965610        8.0038523708       12.2232789208
  O         2.0987222763        3.0832464505       12.1191459377
  H        -2.0655694927        3.5002597688        9.9247200254
  H         5.3754705184        2.7064361055       13.5264199721
  H         6.5569860548        1.7090552693       13.0323076638
  H        11.4767655393        8.3331347038       12.9493644369
  H         5.1626739516        8.7564452174       14.7021486194
  O         5.1323338587        4.4859897342       13.9291279095
  H         4.4812238305        4.4695524099       14.7263700477
  H         3.9646787936        9.1822233390       10.2361522714
  H         1.4749535399        3.0832161454       12.8917332514
  H         8.2177655047        5.2778938388       13.8775061130
  H         2.5515937214        4.9161673905       16.0492922039
  H         4.6420443816        4.8668130744       13.1874456340
  H        10.0263820702       -0.5456559701       14.1878011158
  H         6.6468802636        5.2511988745       14.0748030158
  O         4.4970152447       -0.2569079363       14.4504140789
  H         4.8445148031        0.5274062784       13.8935488852
  O         3.4537125426        4.7626935063       16.4416143874
  O         3.1748923657        9.6749207623       10.0104318400
  O         7.5262902027        5.5119475676       14.4967326252
  H         3.5614407919        5.3230396747       17.2075109245
  H         6.8779596420        6.9260039651       15.4005721046
  O         9.8297756642        0.3433138972       14.6086063939
  O         0.7235349621        2.2254899905       14.9955325313
  O         6.4168681471        7.6996791740       15.8359871547
  H         0.1829705677        1.5219117433       14.6379204299
  H        11.2058790609        3.2654135593       16.6531396583
  O        10.6494066730        3.4072116506       17.4383959585
  H         2.6357888928        9.5078157693       10.8618116977
  H         9.0412296984        0.2021035726       15.1858126820
  H         3.3603241511        1.5874349903       17.0307509551
  H         3.4624496347        3.1211192012       17.2441303445
  H         1.5176464179        1.7605057551       15.4162435695
  H         9.7052510622        3.4921760898       17.2089125717
  H        11.4429587305        5.2214680555       14.3294212026
  O         3.8688107466        2.2595914101       17.5716369035
  H         7.1245026279        8.2877598355       16.1598292675
  H         7.6589565370        4.7325133425       16.0210674217
  H         5.5270210256        2.0502165941       17.6857591042
  O         1.1704834853        5.6470654420       14.5910040302
  O         6.4370422037        2.1473912725       18.0017043165
  O         2.5745954877       10.1079728316       16.3229970599
  H        12.8088784672        5.7657849148       13.7268324123
  O         7.7709062021        4.3371163066       16.9815819040
  H         3.2839461812        9.7427573472       15.7252071204
  H         6.7653883096        2.9439893968       17.4726038095
  H         1.9334574063        9.3053786437       16.4156056806
  H         7.4095360625        0.7946546687       17.0046115449
  H         0.9651170572        7.3675929940       15.6406207911
  H         2.9397251847        1.8911714131       18.9117334709
  O         7.9728927225        0.0568831189       16.6596434444
  H         7.5279014329        5.1514264224       17.5619231320
  O         0.9821733118        8.0727038677       16.3145503149
  O         2.4344089733        1.9405054438       19.7736105043
  H         1.5118115302        1.6494591571       19.6731507917
  H         8.5964610602        9.3848653296       17.2806633876
  O        -0.5411036850        1.3272804072       19.1117729477
  H         0.2007608344        8.0496638453       16.8935400398
  H         2.3773403630        3.4909259282       20.4536108451
  H         2.4497026179        7.0406072270       18.2550562898
  O         9.8091497914        5.9488125374       19.3975950081
  H        10.6677371363        2.0603061083       18.3832317886
  H         2.7523341778        5.0317723041       19.9619345778
  O         2.4424924277        4.4791138578       20.6775278764
  H         8.8289450855        6.0027354852       19.4542498900
  H         7.8745021688        2.0511476023       21.1654088707
  H         3.9823661380        7.0866344204       18.6543136125
  H        10.0495070671        5.5641744200       18.5199075674
  H         9.7182271527        1.6417498215       19.4312808234
  O         3.1386511714        6.4475987992       18.6050284530
  O        10.1497828816        8.7303597195       18.0037010158
  O         8.1127147402        1.7253055624       20.2281092485
  H         3.4542497110       10.4362893235       20.3775727103
  H        10.8007705522        5.5744990995       20.8012389082
  H        10.0154848693        8.1213051406       18.7789552183
  O         8.8827348088        8.7924158772       20.8705424612
  H        10.2998287759        0.0405714704       18.3547639714
  H         9.5789327970        9.1798767251       21.4693876401
  O         4.0771806560        9.7478319484       20.6893639268
  O        11.2252788588        5.2946256311       21.6809532482
  H         7.3601436572        1.9223113546       19.6490163253
  H         8.3991987975        0.0028819984       20.5257430036
  H         7.6820739383        7.6189335698       20.6781744048
  H         2.9989002726        4.7048150009       22.2392603571
  H        12.1239629932        4.9827991996       21.2264799994
  O         6.9835300643        6.9613022058       20.4355030870
  H         4.4269573021        9.3202520446       19.8776586852
  H         3.8311106316        8.8860856484       21.9602813732
  H         6.5247874116        6.6011046504       21.1605191713
  O         3.2827367410        4.7101642317       23.2052287533
  O        10.5590283167        9.3659290548       23.0877801164
  O         3.6894642108        8.4754649857       22.9274445465
  O         7.7954302672        1.8804888274       23.0126959701
  H        10.0444201092        4.4849707857       22.9966908396
  H         2.7275641511        5.2950283292       23.7155724476
  H         2.7640750739        8.2321406395       23.0792722399
  H         0.0277563528        8.6308575737       23.1578726035
  H         6.9038825562        2.3122993437       23.1410510467
  H         8.4828583306        2.5683555406       23.1035198493
  H         4.5558700496        3.4984699738       23.5247617369
  H        -0.0199285332        0.4998553860       23.0294561006
  H         4.8032716321        5.6117709792       23.0198408228
  O         1.2498243462        7.2592280115       23.4118534856
  H         0.9339396815        6.7294173735       24.2202219010
  O         5.4392345315        6.3262268220       22.8073402018
  O         5.4154341225        2.9393672174       23.5985322137
  O         9.8629772776        3.6660498266       23.5309175412
  O         0.7310842416        2.0807461384       22.9358045773
  O         7.4581512505        7.0039630133       24.3319452174
  H         8.2020060120        0.6332088022       24.1784317967
  H         4.7987681104        9.0548271975       24.0753778465
  H        12.6143865041        1.9833745613       23.5988130931
  H         6.6224905917        6.7153316150       23.8823060852
  H        11.9596223322        6.6440107404       22.7097245413
  H         9.6295127703        3.9720898780       24.4167435690
  H         5.4296440016        0.8338335080       24.0967806179
  H         9.4331045363        9.4480002387       24.1162452497
  H         5.5592765179        3.1841421819       24.5482293330
  H         4.9715842557        7.1441656977       22.7475083433
  O         8.6538153333        9.5521982872       24.6504921640
  O         5.6088398118        9.5423694095       24.3212741367
  H         0.1588185503        2.7568525398       23.3595937789
  H         7.5510361975        7.9297640685       24.0758054511
 Pt         3.3111914261        9.5830491220       26.8235499788
 Pt         6.0869125018        9.4732819985       26.7456073249
 Pt         8.9821559591        9.5971560631       26.6755196977
 Pt        11.6684806723        9.5839108898       26.7807601494
 Pt         8.9072678156        4.7414819240       -0.1668778264
 Pt         4.7037117212        7.1558021201       26.7568589301
 Pt        10.1572873080        7.0903953584       26.7625335630
 Pt         7.4369066935        7.0966558132       26.5263895898
 Pt        11.6039504044        4.7527430728       26.6429676114
 Pt         1.8913541167        7.1060505090       26.7863613757
 Pt        10.3452808294        2.3713809683        0.0172375489
 Pt         7.4464772577        2.3425650766       -0.0635688368
 Pt         3.3746170460        4.7101117282       26.6900725079
 Pt         6.0888679953        4.7063281398       26.6812191860
 Pt         1.9729410853        2.2759445855       -0.0713527628
 Pt         4.6784162816        2.4179499866       -0.1369362846
  H         8.4811175264        1.1352413128        9.1203236576
  O         5.2988034172        7.8891620962       18.4068949283
  H         5.4400191279        7.7123033802       17.4414817154
  H         5.9622862340        7.4464131667       18.9470431660
