     243
Tv_1:  11.152900   0.000000   0.000000 Tv_2:   0.000000   9.658700   0.000000 Tv_3:   0.000000   0.000000  26.829700
 Pt         6.0494131338        8.0096081319        2.0240920459
 Pt         7.4494412076        0.7084545156        2.1165890130
 Pt        11.6369611239        8.0252160899        2.2721630432
 Pt         8.9127523600        7.8907030248        2.1100240386
 Pt         8.8726890611        3.2000434694        2.1897507014
 Pt         3.3013570776        8.0734516603        2.2142463975
 Pt        10.3276519553        5.5468797097        2.2776548652
 Pt         7.3694268921        5.4650606800        2.0491620387
 Pt         6.0580272481        3.0126697389        2.2824914721
 Pt         4.6740233074        5.5587682586        2.3433302467
 Pt        10.2712148603        0.7276395193        2.1780520823
 Pt         2.0437392730        5.5650291455        2.1806058450
 Pt         1.9571654901        0.7066614505        2.1622333539
 Pt         3.2405972300        3.0842574196        2.2912408826
 Pt         4.7094130515        0.6565312152        2.2077366866
 Pt        11.7120178768        3.2034836886        2.0963314472
 Pt         5.9660720109        6.5973693288        4.4201724610
 Pt         8.6757698285        6.5853075188        4.4246774995
 Pt         7.1939041904        8.9830290572        4.4251878419
 Pt         7.1952809469        4.1396023512        4.6553907370
 Pt         8.4094684764        1.6647218801        4.3592656156
 Pt         5.5807195710        1.6518486479        4.6392137435
 Pt         9.9737544465        4.1593608380        4.5264486900
 Pt         9.8632695823        8.9309707052        4.5381020849
 Pt         1.6359803945        8.9462885790        4.5354552553
 Pt         0.3513959744        6.5350544197        4.6168561432
 Pt         2.9325342734        1.7161188240        4.5047076553
 Pt         3.0594190401        6.6341634641        4.5151008876
 Pt         4.4456186602        8.9691467563        4.5725200380
 Pt         4.4528153211        4.1839662591        4.6759541568
 Pt         0.1943759829        1.8861368005        4.3799953976
 Pt         1.6529950683        4.2685064101        4.5416278868
 Pt         6.8629952280        2.5275124402        6.8030087395
 Pt         9.7556706301        7.5466615297        6.8819800639
 Pt         8.3333036781        5.2330570497        6.8500953947
 Pt         8.2832734523        0.1741324714        6.7755938713
 Pt         5.4562538244        0.1212838022        7.0010983669
 Pt         2.7311826553        5.1426524915        6.9203795389
 Pt         2.8225749281        0.3462075432        6.7707565710
 Pt         6.9709488492        7.5326540879        6.6641993853
 Pt         4.0884678145        2.7372282644        6.9988004651
 Pt         1.4847043174        2.6950667786        6.7745609508
 Pt        -0.1647849218        4.9402639578        6.9233528056
 Pt         9.7523568562        2.5637817428        6.7405965370
 Pt         5.6774758511        5.1009741699        6.8930470469
 Pt        -0.0444916442        0.2660702949        6.7161498004
 Pt         1.4377576565        7.4746360266        6.9750599915
 Pt         4.0894579542        7.4784831207        6.8350733990
  O         5.4223307637        5.2075782075        9.1128042303
  O         1.5133920423        7.5394057141        9.2547118688
  O         0.0077942341        5.1238276337        9.0740069858
  H         3.4212557794        1.8342649380        9.4565171697
  H         7.3079134336        4.7374714583        9.8513633724
  O        -0.1477631866        0.4249203746        8.9840480033
  H         1.0225965995        8.3370737919        9.4540102675
  H         3.0741861689        4.1815607072        9.6047379155
  O         8.2616861467        0.4779144336        8.8004883854
  H        10.0072421985        0.3543376169        9.1054977902
  H         0.2020744617        1.3278524211        9.4353333235
  H         0.8910023101        5.0721560321        9.4497089481
  H        -0.0909977993        3.3259565958       10.1684193297
  H         6.6932796318        9.3945389436        9.1331192532
  C         6.5942425741        5.5638722867        9.8860108630
  H         2.5018588094        7.7305898366        9.2945996506
  O         8.2385300887        3.4262324840        7.9911416114
  H         4.8048981304        6.0807858653        9.0659589684
  H         6.4201785302        5.9062593440       10.9441825150
  O         4.0955555324        7.3356858427        8.8917267959
  O         3.8480814311        2.7425155556        9.2239816247
  O         0.4710772131        2.5161678492       10.1978622297
  H         0.9759664076        2.5862540954       11.0542746272
  H         9.0731645720        7.5723743035        9.4446801841
  O         9.8830618369        7.2243804536        8.9359723759
  H         4.8208019068        2.6929096765        9.6877204603
  O         6.0589093701        2.2931854278       10.4058917244
  O         2.5703384395        5.0310472568        9.2371341422
  H         7.0224514874        6.4193655028        9.4114748234
  H        10.5071882284        6.6982982904       13.6086155950
  H         6.0902255536        2.2159382133       11.4094551437
  H        -0.5520885809        5.9930722150        9.3314920704
  H         4.7144960983        8.0782350763        9.2690084216
  H         6.0634111605        1.3447121089       10.2090684368
  O         5.6497094013        9.4593212651        9.0216044462
  O        10.2644542534        5.8418917750       14.1308785040
  H         2.8357832386        5.7648677850        9.7779724153
  H         8.9095895512        0.8229187951       12.0865460809
  H         9.9417066744        5.2260058253       13.4145734100
  H        10.2308750712       -1.5612347391       11.9224305443
  H         2.9979724393        8.6238922799       13.0332838972
  H         9.5719490615        1.3306862777       13.3691263243
  O        13.7754345984        8.3110333338       12.1992399310
  O        10.9188891594       -1.4659506632       12.6225517864
  O         8.8267732651        1.5116488294       12.7115209626
 Cl         8.3267083058        8.2846315360       11.3130647962
  H         2.7719137591        3.5490661351       12.1130184434
  O         9.3313150836        4.0167490353       11.9477397570
  H         9.1783254911        3.0528802675       12.2393488431
 Cl         3.7377304312        5.5292219606       12.0501150825
  O         6.3489442126        1.9942219055       13.0196084518
  H        14.0484899640        7.3319014571       12.2082509084
  O         2.0852259578        2.8285415419       12.1740003415
  H        -2.7437405974        4.2980336017       11.7090077152
  H         6.1691892334        2.8369353673       13.5164818330
  H         7.3711347803        1.7808245414       13.0305103268
  H        11.8658378718        8.2306413717       12.2457838294
  H         6.0886399405        8.8090289833       14.6123938370
  O         6.0073210161        4.4094904568       13.9876808363
  H         5.3174998045        4.3519062846       14.6838775205
  H         4.1164349778        9.9031848947        9.7701745561
  H         2.0173810275        2.5725005275       13.1675838385
  H         8.9612640542        5.8711733299       15.2216830350
  H         3.2225635343        4.2659124434       15.7596957840
  H         5.5127326346        4.8455541696       13.2240248774
  H        10.9441254185       -0.3341939980       13.7899390466
  H         7.4662361993        5.2804241668       14.8890758255
  O         5.3770527166       -0.2697752985       14.1502764531
  H         5.8744300520        0.4940696925       13.7524568923
  O         4.1405317124        4.0551941221       16.1217731783
  O         3.1905735719        9.9411246288        9.9697333629
  O         8.0568376554        5.6015376748       15.6305322461
  H         4.1805439780        4.7217297140       16.8533167639
  H         7.5984679237        7.1518234336       15.8478788137
  O        10.9401889765        0.5566462641       14.3559787051
  O         1.7159703291        1.9981809288       14.7204778164
  O         7.4680631445        8.1093341112       16.0075034655
  H         0.8545847761        1.4253313468       14.4896299520
  H        12.2268390691        2.4536595291       16.1005868919
  O        11.5948919099        2.4496154241       16.9497169876
  H         3.0829891724        9.5065926177       10.8267760048
  H        10.5107320908        0.3845222327       15.1629226183
  H         4.8104700408        0.9754346335       17.2566492847
  H         4.7742772744        2.4485261753       16.9316499585
  H         2.3928923031        1.3922842023       15.2037089991
  H        10.6688233409        2.5079515251       16.6277209990
  H        12.1400066660        5.3321368024       14.4827106723
  O         5.1663940810        1.8290376633       17.6337995041
  H         8.2856645326        8.6458861684       16.1879683607
  H         8.1211473428        4.9539195729       17.3790971264
  H         6.8016077265        1.8367333964       17.8027859987
  O         1.9449542609        5.2773134980       14.7026277246
  O         7.7736978216        1.8294679063       18.0740140148
  O         3.6652994905        9.9409456015       16.0680322379
  H        13.6642399938        5.3859318029       13.9192687891
  O         8.3625432573        4.4298036357       18.1775867935
  H         4.4041990718        9.8275360377       15.4370596747
  H         7.8429034517        2.8575301351       18.1396133446
  H         3.1706497332        9.1119396380       16.0902788102
  H         8.8566827451        0.9905505557       17.2143136483
  H         2.1973475055        6.8154724103       15.7012223021
  H         4.1515794502        1.6462142300       18.9462874993
  O         9.4531180025        0.3539822340       16.7174370219
  H         8.1354894151        4.9737206230       18.9644998362
  O         2.3730920146        7.5194379089       16.3575806613
  O         3.6900926952        1.8266476198       19.8176766303
  H         2.7491450810        1.4619285449       19.6301604453
  H        10.0679449382        9.3715882575       17.2050575033
  O         0.7286469182        0.9887734736       19.1983527126
  H         1.5059521082        7.7009147931       16.8283111088
  H         3.6954433486        3.6763641076       20.2460991697
  H         3.7126748638        6.6970282472       17.5812809174
  O        11.2027849167        4.8006096066       18.7640747085
  H        11.9082402069        1.5137205718       18.3368443097
  H         3.6798134698        5.0943987449       19.5947108244
  O         3.7333357827        4.6616182921       20.4377629243
  H        10.2211933393        4.6732181487       18.5870019430
  H         8.9754531025        1.2723720755       21.2087744798
  H         5.0705676664        6.2976135320       18.1374722219
  H        11.5425022950        4.1428425198       18.1309707855
  H        11.0435892509        1.1762455724       19.7070733009
  O         4.1559585675        5.9107660395       17.9166567011
  O        11.2750252311        8.3727321664       17.9781765567
  O         9.3424448178        0.8997733763       20.3634900658
  H         4.3244795046        9.8440998236       20.2319492145
  H        12.0750591875        4.9821751316       20.5417567713
  H        10.9864102301        7.7458214368       18.7048770768
  O        10.0812848899        7.8164010446       20.4517936633
  H        11.6999562458       -0.5259078026       18.4550078281
  H        10.7720814953        7.8175206706       21.1533321158
  O         4.8453694698        8.9731799079       20.4169358291
  O        12.3311503884        4.8650073144       21.4418599582
  H         8.6700778880        1.1882472204       19.7364178092
  H         9.9763280884       -0.8947406866       20.2575789482
  H         8.8852124947        7.0054333639       20.8016855446
  H         2.7263087692        2.5596245663       23.3503433958
  H        13.3267751714        4.6723597806       21.2755069715
  O         8.0375816549        6.4712452845       20.3902919405
  H         5.2934887580        8.6763505939       19.5608855289
  H         4.4347483820        8.3345480806       21.8183586535
  H         7.5003315932        6.1051733656       21.1037331044
  O         3.3455253232        3.3348439299       23.5072862154
  O        11.2373851185        8.6157146851       23.1698650632
  O         4.5013621821        7.9250756676       22.8006426857
  O         8.4916804739        1.8907087575       22.8785834914
  H        11.2026180344        3.9296770050       22.3080079432
  H         3.4105440380        3.4836978299       24.4775627707
  H         3.6861279891        7.5412887979       23.1286532331
  H         0.6390599899        7.7482028354       23.3527248891
  H         7.5791125284        2.3147165320       23.1281855435
  H         9.0792744539        2.6714113303       23.0725102372
  H         4.9663807951        2.7795180498       23.3467577248
  H         0.6577462282       -0.2751329879       23.1992060663
  H         5.9311790334        4.7261249343       22.8761533055
  O         1.6766646213        6.4164816892       23.5312601551
  H         1.9469432442        6.0870983651       24.3958727043
  O         6.2379317608        5.6435589653       22.8565669009
  O         5.9605831040        2.7843257266       23.6184060786
  O        10.5488491864        3.6033221137       23.0612651201
  O         0.9383033499        1.4957486417       23.5556026223
  O         8.0361060000        6.7792829549       24.2614307506
  H         8.6980658143        0.4329361538       23.9321106045
  H         5.3865808823        8.8703545336       23.7923783406
  H        12.0532104601        1.5886346025       24.5488429208
  H         7.1520015598        6.4503363420       23.7979298891
  H        12.7046856334        5.7411836362       22.8092648899
  H        10.6578081694        4.2468524923       23.7984937521
  H         5.8128460212        0.6491057847       23.9948095014
  H         9.9925802800        8.9798762938       24.0339587992
  H         5.9112019596        3.0353855360       24.5652113797
  H         5.5318555789        6.1791036772       22.4366895558
  O         9.0134381204        9.1777277709       24.2991833141
  O         6.1973168454        9.4010619219       24.1094646866
  H         0.3359750615        2.2917062087       23.3783525253
  H         8.0713698350        7.7395655423       24.0901258291
 Pt         3.3669722270        9.4508500836       26.6573464677
 Pt         6.1773379172        9.2523378183       26.4120837435
 Pt         8.9534307745        9.2688668048       26.6760515751
 Pt        11.8112438319        9.4122919517       26.7859948010
 Pt         8.9813513681        4.4527142580       -0.2477799353
 Pt         4.7316346739        6.8982267048       26.5567193809
 Pt        10.2927536237        6.9315092554       26.7512726144
 Pt         7.6661763964        6.7084162123       26.5110732934
 Pt        11.6093939578        4.5458773282       26.5878678280
 Pt         2.0358071367        6.9639572847       26.7127021750
 Pt        10.2858198526        2.1660547988       -0.0605077914
 Pt         7.4550503309        2.0864668183       -0.0758246384
 Pt         3.3387769107        4.6116952745       26.7318054409
 Pt         6.0879326888        4.4520332467       26.7456974314
 Pt         1.8905058056        2.1439740098       -0.1122369256
 Pt         4.6575466361        2.0237323339        0.0147175949
  H         7.8612752559        1.3675313631        8.8706991406
  O         6.1669784542        7.5683037884       18.5409343526
  H         6.5927969491        7.8834714642       17.6812467937
  H         6.9549207243        7.2192309484       19.0708240831
