     243
Tv_1:  11.152900   0.000000   0.000000 Tv_2:   0.000000   9.658700   0.000000 Tv_3:   0.000000   0.000000  26.829700
 Pt         6.1718786655        7.9887432173        2.1167420451
 Pt         7.4664344001        0.8321601024        2.1958823741
 Pt        11.6108510738        7.9430933665        2.1708876618
 Pt         8.7940022515        8.1402573008        2.1879854389
 Pt         8.7901467705        3.1720784671        2.2284183578
 Pt         3.3697039680        7.8853050876        2.0825412162
 Pt        10.2922280012        5.4544987649        2.2030592018
 Pt         7.6003533668        5.6453608531        2.0270208267
 Pt         5.9459347914        3.1147780299        2.1824292945
 Pt         4.6899035287        5.5579771916        2.1519920590
 Pt        10.2970529324        0.7246656011        2.1727329852
 Pt         1.8988002356        5.4414609069        2.1496968543
 Pt         1.9324269578        0.6610163143        2.2751020594
 Pt         3.2271982423        3.0084536080        2.1631666634
 Pt         4.6995330752        0.5960643212        2.1857378387
 Pt        11.6839945411        3.0698804850        2.1752858468
 Pt         6.0757246750        6.4440872669        4.4183957102
 Pt         8.6293185098        6.5353976659        4.4775723955
 Pt         7.2690379249        8.9633606928        4.3978431316
 Pt         7.3013346042        4.0470942542        4.4330876174
 Pt         8.5946959210        1.6026812385        4.4534076752
 Pt         5.8139523428        1.7652313432        4.5287666882
 Pt        10.1627979236        3.9792481867        4.4005904859
 Pt        10.1502953413        8.8683130242        4.4925391143
 Pt         1.6700930269        8.8311050747        4.5671838666
 Pt         0.3439058061        6.5131017010        4.4870047092
 Pt         3.0589126370        1.7086238319        4.5002419021
 Pt         3.1510264457        6.5005017177        4.3703217941
 Pt         4.4167247259        8.9215616190        4.4721505265
 Pt         4.4267211747        4.0911911009        4.5094581598
 Pt         0.2467387845        1.6276922086        4.4806835286
 Pt         1.7318093208        4.0445737413        4.4525323933
 Pt         7.0839514864        2.5360840237        6.7736565003
 Pt         9.7238936213        7.4211881158        6.8103769153
 Pt         8.5153600945        5.0277318091        6.7314175906
 Pt         8.3762090350        0.1547052334        6.7829075536
 Pt         5.6192820583        0.2055450780        6.9819873772
 Pt         2.9320332037        5.0762844382        6.8097669287
 Pt         2.9630489075        0.1961476747        6.7641146585
 Pt         7.0153027407        7.5249123719        6.8294771070
 Pt         4.3515106213        2.6872868882        6.8445002791
 Pt         1.5947868635        2.5661794806        6.6242535143
 Pt        -0.0017547939        4.9742954780        6.8102028297
 Pt         9.9216642358        2.5319179544        6.7447285422
 Pt         5.7516344690        4.9752900299        6.7944683386
 Pt         0.0061912779        0.2173440368        6.8873567229
 Pt         1.3418196930        7.4182523164        6.9264923993
 Pt         4.1272787333        7.4634713828        6.7441860122
  O         5.4171907781        5.1720266565        8.8176188880
  O         1.2893905132        7.6413326126        9.2134565389
  O        -0.1752210888        5.0141995055        8.9690317298
  H         3.3692136402        1.9236569569        9.1321479984
  H         7.0676422071        4.5539504590        9.9127868363
  O        -0.2165405285        0.4555147122        8.8825756891
  H         0.3493651465        8.0528011586        9.2774243190
  H         3.0043425573        3.9704914471        9.1739657748
  O         8.4596029334       -0.0059841919        8.7862808938
  H         9.9310299189        0.4954541176        9.0543516553
  H         0.1997055982        1.3069285933        9.5575650458
  H         0.7764670180        4.9523406948        9.1543829931
  H        -0.5122873233        2.6293059405       10.5020146336
  H         6.6194449270        8.9951939040        9.2679823960
  C         6.4187475618        5.4156912605        9.7686737030
  H         1.9536598643        8.3508717593        9.4208749804
  O         8.4638606309        3.3441339596        8.0098542563
  H         4.8212125827        6.4650086321        8.9451859907
  H         6.0685546152        5.6668650083       10.7998793905
  O         4.2880244433        7.4099970025        8.9076504794
  O         3.9405760632        2.6416917899        8.8638509047
  O         0.4435801975        2.3591694210       10.3647030555
  H         1.0366964597        2.4600432125       11.1556351014
  H         9.2560627120        7.7339968918        9.4224788095
  O         9.9361804909        7.2330799960        8.8403203797
  H         4.9525438212        2.5701625818        9.4229238343
  O         5.9934088116        2.2449190026       10.0435865588
  O         2.3788518445        4.8142716994        9.0941921909
  H         7.0700431469        6.2062839182        9.3440182565
  H         8.4225360971        6.2540376724       12.5881925160
  H         5.7833861865        2.0735609660       11.0550533949
  H        -0.5470639103        5.9103815504        9.2066194344
  H         4.9767273832        8.2286660478        9.0329017143
  H         5.9053714349        1.2784912392        9.6513021568
  O         5.7025669316        9.4421311294        9.1088627995
  O         8.6023568808        5.4187638735       13.0979034619
  H         2.8301973023        5.5595070069        9.6054516151
  H         8.2186568691        0.6551912799       12.1816438527
  H         8.7482600887        4.7400048152       12.3665650019
  H         9.6632932478       -1.1378708249       12.4846142506
  H         2.2826902171        9.4648392373       12.7176978517
  H         8.7656520054        1.4945554699       13.4412030637
  O        12.8563246636        9.0577347611       11.9599178558
  O        10.4322359066       -0.7507728046       13.1142711910
  O         8.3262388424        1.5712473353       12.5488551692
 Cl         8.1443172178        8.1588751960       11.4009639345
  H         2.2985944530        4.2432322425       12.1385014382
  O         9.2592650718        3.3361060224       10.8623016274
  H         8.7500651332        2.6649349056       11.3789102314
 Cl         3.2061095402        6.1239063220       11.7025472633
  O         5.6997694860        1.9286634898       12.6157405416
  H        13.2974525634        8.2053716279       11.7596583747
  O         1.9133286887        3.3129647376       12.3419170047
  H        -2.2973117150        3.2894059313        9.9817552125
  H         5.3897642794        2.7237792606       13.0782142162
  H         6.7151704260        1.9176800236       12.7712378853
  H        11.2164151692        9.0135787551       12.5989940659
  H         3.9830311005        9.0034231337       13.7888687894
  O         4.7162095487        4.5466668572       13.7693497773
  H         4.1950285683        4.2647223946       14.5491242604
  H         3.8373211897        9.9084031706       10.2213646154
  H         1.8053339194        3.2437841393       13.3432498350
  H         7.7596577401        5.4254057116       14.6462514331
  H         2.3446192306        3.8877695634       15.9351405534
  H         4.1650926919        5.1757613409       13.2570635833
  H        10.0366285605        0.4491351892       14.0718928954
  H         6.2251202863        5.4001036175       14.8108397436
  O         3.6702845224        0.2740489595       13.6097887721
  H         4.5524183139        0.7121224385       13.4038854151
  O         3.2595559288        4.0196772205       16.2188421630
  O         2.9236029753       10.0779049460        9.8395634233
  O         7.0529026620        5.6699091465       15.2514879436
  H         3.1961968045        4.8031824988       16.9255966522
  H         6.4666347552        7.5070219923       15.5800928074
  O         9.9030482041        1.2642788428       14.6975412335
  O         1.1043061220        2.4422438185       15.4009293771
  O         6.1044497568        8.3693820925       15.9270966936
  H         0.2166805254        2.0112775946       15.0251008598
  H        11.2651308055        3.5505262311       16.4274794791
  O        11.0213502711        3.8985533708       17.3566268245
  H         2.2998684625        9.9100595783       10.6484841794
  H         9.3406472406        0.9572048669       15.5036074881
  H         4.3228313136        1.3837001161       17.0693423760
  H         4.0216804045        2.9149388880       17.1643895091
  H         1.6156248831        1.7343372770       15.7757762685
  H        10.1016766272        4.1060212874       17.3647478733
  H        11.4135164380        7.3122707929       13.9735884599
  O         4.4727314570        2.1168252032       17.6973705167
  H         6.8538963074        9.0087146223       16.0550611780
  H         7.4894753388        5.6496686638       16.9744995903
  H         6.3515446404        2.3267239266       18.3199414293
  O         0.9038257830        6.6096370127       14.2557403653
  O         7.3115464144        2.4921018952       18.5005358544
  O         2.8788910760        9.9736931950       16.2196986896
  H        12.6754390432        6.5400404348       13.4607852290
  O         7.9002529448        5.4904662640       17.8473374894
  H         2.9836172024       10.1492490083       15.2830569313
  H         7.4381927210        3.3603139431       18.1368304393
  H         2.5817907453        9.0742923192       16.4095518195
  H         7.9038629212        1.0214619769       17.2577574311
  H         1.0438381035        7.2598809845       16.0780417525
  H         3.2253796225        1.6320421605       18.9665416146
  O         8.2751300117        0.2897225686       16.7188796519
  H         7.3537634897        5.9184651088       18.5612907785
  O         1.3781614694        7.6420252722       16.9603919657
  O         2.8584408733        1.7103283182       19.9141283432
  H         1.8724567536        1.7178051244       19.8086496993
  H         9.0921851684        9.6618530631       17.2499423378
  O         0.1118145535        1.8475202062       19.1017983284
  H         0.6099086699        8.2715329257       17.2028921021
  H         3.0144789854        3.4575351657       20.2103926666
  H         2.3686626169        6.5978723276       17.9131731921
  O        10.3785398382        6.2344547655       19.2591501160
  H        11.3445785478        2.7119897007       18.6328352467
  H         2.7753190922        4.9179549236       19.5392309601
  O         2.7820233657        4.4074176759       20.3821969936
  H         9.5670802488        5.7841950322       18.9167431891
  H         8.5902416699        1.8365566912       21.3933723661
  H         3.8452807501        6.3843120269       18.2632528700
  H        11.0605897193        5.8005758102       18.7351080745
  H        10.4943514068        2.1052924880       19.7709390380
  O         2.9957864185        5.8224770079       18.1219574197
  O        10.4732370670        9.1102954998       17.9827787171
  O         8.8946645536        2.0372437518       20.4866282282
  H         3.5801593212        9.9512230283       20.3468258457
  H        11.0836711147        5.2838602812       21.0189481546
  H        10.1871114544        8.6049792098       18.7770531027
  O         9.0090840046        8.5938715367       20.4550604369
  H        10.8303183724        0.3516915156       18.3599649094
  H         9.9551434635        8.7133174215       20.7856889245
  O         4.1968938891        9.2088916816       20.6232181302
  O        11.8285866381        5.0218915554       21.6522328539
  H         8.1067771788        2.2733543772       19.9287005465
  H         8.8201639957       -0.1100545854       20.4464638864
  H         7.6859653645        7.3324866897       20.3120376852
  H         2.9974861139        1.9571297187       23.0014082737
  H        12.5724166456        4.5866769361       21.1181427081
  O         6.9390074947        6.7651501997       20.1756213592
  H         4.4009869229        8.5792416308       19.9073504413
  H         3.8876155926        8.6168362970       21.9811193294
  H         6.4761649505        6.6471618980       21.0777579524
  O         3.8502814254        2.1576381148       23.4941275178
  O        10.6478872839        9.1794089344       22.6836010501
  O         3.7958919959        8.2155214898       22.9451351501
  O         7.9945019719        2.0079210883       23.2032613041
  H        10.9919260617        3.9768367546       22.8297269325
  H         3.6218375573        2.1383842148       24.4787944077
  H         2.8981169810        7.9312255656       23.1660598911
  H        -0.0631878090        8.2569915476       22.7354533629
  H         7.0581644673        2.4776601958       23.2519953887
  H         8.6279113273        2.6325596808       23.5867127199
  H         4.9601403837        3.2192281256       23.2120301381
  H         0.3200524377        0.1020706286       22.8344273997
  H         5.4479420082        5.4123931172       22.5798996806
  O         1.3459096564        7.0702770927       23.1185292997
  H         0.8183559576        6.8744978126       23.9435783114
  O         5.7526220627        6.3248555505       22.5078812666
  O         5.8686563577        3.6611091712       23.2928187714
  O        10.5240747535        3.3431654911       23.4359731341
  O         1.2192402746        1.3960359394       23.4130311689
  O         7.6000669213        7.1400097045       24.2820024203
  H         8.4312696652        0.8031083448       23.9871186642
  H         4.7531813859        8.8916360076       23.9236517598
  H        12.7222439277        1.0219975711       24.3057417861
  H         6.7303263886        6.9590648916       23.8255711048
  H        12.5070169251        6.2156156591       22.5509496708
  H        10.4108400664        3.8233758189       24.3151762613
  H         5.1654896399        0.7370617043       23.9567994374
  H         9.7922664620        9.3203241110       23.8068344304
  H         5.8730179169        4.0462225563       24.2242792039
  H         4.9563092686        6.9037527746       22.7302173757
  O         8.9246757220        9.6776577196       24.3840857091
  O         5.5695619473        9.4984022320       24.2583600107
  H         0.5554734775        2.1381880050       23.5674506077
  H         7.6758341740        8.1052176541       24.3365502926
 Pt         3.3032530952        9.2725702515       26.6622033902
 Pt         5.9870546174        9.3746236757       26.4436651146
 Pt         9.0345227164        9.3647382068       26.4999420177
 Pt        11.7501640231        9.3906184684       26.7204157872
 Pt         9.0739635665        4.4669361978       -0.1824453682
 Pt         4.6040966963        6.8018690161       26.6417122793
 Pt        10.3687521969        7.0068536344       26.6695949802
 Pt         7.4098963008        6.7902994648       26.4607710511
 Pt        11.7705986714        4.5051456497       26.4038879554
 Pt         1.9033016765        6.8807433394       26.5492418706
 Pt        10.3400954531        2.1528614131       -0.0727558103
 Pt         7.4896586666        2.0308459560       -0.1658507835
 Pt         3.3636522194        4.4833291704       26.6461604475
 Pt         6.1752817283        4.3820549441       26.6308632104
 Pt         2.0022358295        2.1286279770       -0.1620197276
 Pt         4.6653544506        2.1049988709       -0.1050986352
  H         8.0938986362        0.8401828471        9.0827195553
  O         5.1038086134        7.5498507054       18.2328750718
  H         5.4960398874        7.8835647706       17.3760251872
  H         5.8824984088        7.4681306007       18.8690129993
