   245
 Tv_1:  11.152900   0.000000   0.000000 Tv_2:   0.000000   9.658700   0.000000 Tv_3:   0.000000   0.000000  26.829700
Pt      5.58967366      8.09852206      2.11376936
Pt      7.12363798      0.87691329      2.20442166
Pt     11.21400303      7.94340778      2.27495326
Pt      8.36523655      8.08100821      2.05645795
Pt      8.52859584      3.10781367      2.31916223
Pt      2.84761235      7.85273015      2.25212565
Pt      9.91515300      5.56099505      2.31340766
Pt      6.98095441      5.63267092      2.31071751
Pt      5.63783073      3.20439424      2.27325867
Pt      4.15116471      5.56865878      2.23772720
Pt      9.88269696      0.76610313      2.24871742
Pt      1.38622860      5.50951218      2.39688123
Pt      1.47032960      0.54179925      2.25852238
Pt      2.91119522      3.17604482      2.33439689
Pt      4.21914582      0.76429207      2.26643816
Pt     11.34241873      2.96340406      2.41997117
Pt      5.87749645      6.62385965      4.40985539
Pt      8.68788906      6.70006124      4.36959758
Pt      7.26947150      9.04955477      4.32566561
Pt      7.45867031      4.25790609      4.57244495
Pt      8.74068809      1.61133545      4.64689167
Pt      5.98146237      1.71725647      4.55596652
Pt     10.03890995      4.10675788      4.47401954
Pt     10.16321258      8.96543290      4.51736121
Pt      1.83748085      8.83538112      4.60990104
Pt      0.40953443      6.67787658      4.61749230
Pt      3.29927149      1.76817313      4.73287578
Pt      3.18838467      6.52355708      4.60637615
Pt      4.58019582      8.96570930      4.54909298
Pt      4.64119958      4.16975619      4.67537264
Pt      0.59940226      1.48837074      4.62342625
Pt      1.64251275      4.07303583      4.60395370
Pt      7.83423908      2.93205244      6.95998922
Pt     10.56985884      7.45953265      6.88089748
Pt      8.98778853      5.29048791      6.92875448
Pt      9.31577600      0.34308521      6.93369520
Pt      6.37980116      0.44981636      6.83903310
Pt      3.54771380      5.08790249      6.97238098
Pt      3.70868165      0.30194587      6.94020767
Pt      7.76858571      7.78481804      6.60856662
Pt      5.20199381      2.90721331      6.94714423
Pt      2.00039514      2.69175356      7.03733238
Pt      0.65665169      5.12331320      6.80839844
Pt     10.50160068      2.70942959      6.64753165
Pt      6.25982033      5.34672245      6.82342764
Pt      1.00587388      0.20553273      7.00274523
Pt      2.22379469      7.38782594      6.92240761
Pt      4.92056395      7.54843475      6.82516850
O       8.30064597      5.72327280      9.65715259
O       2.27025765      7.46383670      9.04213584
O       0.59819160      4.99332910      9.25055114
O       6.73357488     -0.57435970     11.44751267
O       0.82498812      0.45246447      9.18644458
H       2.87001509      8.25882808      9.27787329
O       9.54593611      0.59321522      8.98879335
H      10.90161561      0.57911927      9.21418524
H       1.04831072      4.09275759      9.26809845
H       2.57711305      3.29943793      9.42073653
H       9.19061608     -0.29718075      9.35939582
C       9.01117270      6.20306118      8.75266092
H       3.07415343      6.27601891      9.15037479
O       7.83900543      2.76643290      9.18713204
H       7.11670602      5.27010597     14.15384264
O       5.22859298      2.57138045      8.98997070
O       1.75255032      2.91337984      9.08568702
H       1.30468948      1.29023355      9.28075880
H      -2.62933781      6.28067562     11.58466014
O       9.76825139      7.25688868      8.83190407
H       4.62835041      1.74198376      8.93530925
O       5.36466760     -0.31386771     15.18510483
O       3.62655805      5.36658590      9.02134902
H       8.12381390     10.23530501     16.29999435
H       6.30509657     -0.39301584     15.48018978
H       1.30087919      5.66285293      9.39134711
H       6.05732482      6.44340666     13.55802932
H       4.97371510      8.47900760     15.36648195
O       7.00640085      6.35596240     13.95489643
O       7.99053619      9.55867696     15.48842255
H       4.56127907      5.37915831      9.53794323
H       6.88006821      3.49151668     13.32754517
H       8.70371095      8.93593918     15.66769236
H       8.11490327      0.61282976     13.85805836
H       9.72043612      6.22419336     12.63883758
H       6.17759114      3.70764904     14.74610092
O       8.85568786      6.75411266     12.38626126
O       8.28890911      0.80279121     12.83860780
O       7.07051153      3.84714127     14.22121928
Cl      4.53998861      7.22620192     12.59908754
H       5.85748237      3.81819776     11.30763076
O      10.92179324      5.72698046     13.32710802
H      11.20595583      4.73665435     13.33726659
Cl      1.14914245      2.87024450     13.06502154
O       4.89182614      3.97082213     15.86958833
H       7.78109308      6.56861710     13.23901633
O       6.28250651      3.07409564     11.78387421
H      11.70652721      6.05490374     12.78573627
H       4.14444679      4.16327861     15.12043869
H       4.72888300      3.02671660     16.14275228
H       9.32310705      0.47469895     12.62318992
H      11.22666112      0.82101975     12.63499927
O       3.12649503      4.86486015     13.87484201
H       3.43995140      5.43553835     13.17119694
H       3.56167434      1.41588164     12.42325295
H       6.42097803     -0.39905377     10.54059610
H       4.42851404      0.63851858     16.23684424
H      -0.14497682      3.70259790     16.30943313
H       2.52569752      4.18024532     13.45096805
H       8.78178354      3.72248325     15.10548408
H       3.06631795      1.53730570     16.15478529
O      10.62756598      0.10219558     12.50189657
H      -0.13541462     -0.56534447     11.89365615
O       0.70728455      3.93886975     16.75790807
O       3.73572395      0.03262700      9.04576088
O       3.94739611      1.43366447     16.66753854
H       0.98013293      4.88537408     16.58934157
H       0.92553741      7.93238601     10.24275338
O       9.39082570      3.58103433     15.83231112
O       1.48164006      1.60259585     15.76249218
O       0.30448295     -1.84363233     10.98348555
H      12.51764984      1.87431275     14.83231935
H       9.01896504      5.02936658     16.82005935
O       8.77487127      5.91008977     17.22408054
H       4.74356072     -0.00822712      9.16204318
H       9.00555105      2.84367553     16.39342308
H       4.10945479      1.45465369     18.37069023
H       3.84638984      2.37646699     19.55869081
H       1.42736498      2.49790282     16.22151177
H       7.77617275      5.81604403     17.29530750
H       9.45665601      7.04242147     15.92900057
O       4.29677563      1.53817189     19.36696209
H      -0.59215444      7.71798560     10.59228916
H       5.51266612      4.99259707     17.09717405
H       5.76509244      2.37027362     19.02186924
O       9.95167929      7.81601700     15.63368174
O       6.56329444      2.84046519     18.72602300
O       4.50167683     10.89088161     12.44463253
H      10.46327581      7.42127591     14.86221027
O       6.02397555      5.35044391     17.86844720
H       5.56899142     12.05487146     11.92501552
H       6.34529337      3.78605606     18.56738724
H       4.58834395     10.63376210     13.40024877
H       7.69868430      2.19656622     18.02891859
H      11.23888694      8.69507058     16.35659585
H       4.05557448     -0.05373046     19.95995101
O       8.40220617      1.56220822     17.60313731
H       5.24972795      6.04613421     18.17551535
O       1.01515660      8.85351554     16.73560543
O       3.64291902      8.67123993     20.18710600
H       3.88857898      8.32146411     21.09804138
H       9.24864033      1.59470208     18.27485532
O      11.57305366      3.90268120     19.47703205
H       1.35191367      9.74014757     16.43781281
H       2.14118947      4.31201266     19.64411699
H       2.02109441      7.17278672     16.20607350
O       9.25760094      5.60740524     19.86940280
H      11.63975767      3.96516631     18.45444863
H       3.50253202      4.97578377     19.04476535
O       3.10226298      4.16732812     19.48317427
H       8.50040976      5.03745209     20.02064169
H       9.17080860      2.14337382     20.55648309
H       2.42533197      5.80970755     15.40797098
H       9.14177221      5.72119289     18.86923247
H      10.81709432      4.52676614     19.79495248
O       2.26986279      6.20456163     16.31035275
O      10.43327986      1.60185178     19.30389366
O       8.55111117      2.45810972     21.22607658
H       0.78215768      8.60683878     18.85668834
H       9.47691838      7.17110740     20.93875101
H      11.05091459      0.80628237     19.60002867
O       6.85907976      8.25267926     20.15757459
H      10.97574428      2.40679868     19.50845631
H       6.51925773     -0.81880836     19.48229395
O       0.72831434      8.75734482     19.80436055
O      -1.82377088      7.99115293     21.46816958
H       7.76632566      2.81184330     20.71792802
H       7.71968453     -1.05481629     20.54532858
H       6.73718940      6.68706806     20.74754702
H       3.17805958      4.10175239     21.08560249
H      -0.99836965      8.56937582     21.39294547
O       6.47464074      5.84036964     21.20844185
H       1.64632343      8.86255968     20.10487317
H       5.11876351      6.88321795     22.26869813
H       6.97826462      5.85457934     22.07662955
O       3.12764079      3.92842953     22.07131916
O      10.83243101      0.28527714     23.93503481
O       4.44339205      7.59008935     22.68307570
O       7.12186300      2.41106104     24.25444907
H       9.35741546      3.32157637     22.49259869
H       2.34504994      3.39852259     22.27222663
H       3.85583190      7.08956550     23.34147873
H      11.14129043      8.99730363     23.79885497
H       6.16483379      2.71434254     23.89085910
H       7.79576368      3.12545461     24.16406318
H       4.27509714      2.87752171     22.90258494
H      11.46078961      1.03914962     23.76316202
H       2.73710385      5.15345352     23.02820002
O       0.11237232      7.43650060     23.66975297
H      -0.60942500      6.96826035     24.19041986
O       2.44348342      5.95436983     23.66352371
O       4.68926427      2.48870689     23.68230268
O       9.66057890      3.71963907     23.29282810
O       1.04146437      2.85669915     23.49348555
O       8.33652437      6.67186720     23.57309775
H       7.71144466      0.61046361     23.98673346
H       4.87001557      8.79656973     23.82608647
H      11.26903988      3.19481875     23.36498978
H       7.73172436      7.23556796     24.03254745
H       0.87886400      6.82686845     23.60440287
H       9.59230963      4.68233406     23.22326756
H       4.97911693      0.66135819     24.13760777
H       9.26003877      9.92349802     24.22228697
H       4.16489330      2.81893749     24.43752558
H       2.59615855      5.66378969     24.58853873
O       8.33714610      9.57193647     24.24677202
O       5.42334766     -0.17670105     24.32062971
H       1.21517022      2.92008637     24.44118662
H       8.77402255      7.33619716     22.96035691
Pt      2.70803101      9.32511369     26.57961998
Pt      5.50390297      9.18979225     26.55159921
Pt      8.36518309      9.20516557     26.43078103
Pt     11.10212476      9.44342257     -0.23786781
Pt      8.45774483      4.43009084     26.85167738
Pt      4.15569619      6.87562292     26.58866244
Pt      9.79721942      6.83145216     -0.15789268
Pt      6.98163448      6.76620788     -0.07824168
Pt     11.33742116      4.54574356     -0.12361539
Pt      1.32322765      6.98103689     26.73762366
Pt      9.89693489      2.13446227      0.01311118
Pt      7.13197425      2.03407104     -0.22348594
Pt      2.96599262      4.38431134     26.58546557
Pt      5.63181371      4.42982356     26.55080401
Pt      1.34072856      2.13726051     -0.01015515
Pt      4.20055803      1.99658223     -0.06416357
H       8.28432443      1.89719665      9.47033890
O       3.73167028      6.71810489     18.55809455
H       3.17042066      6.60621415     17.72956903
H       3.46597283      7.52470309     19.13667692
O       6.32700176     -0.37530466      8.72796234
H       6.56358181      8.30368240      8.69549220
O       5.83658452      5.39705170     10.34936395
H       5.64041646      6.04789164     11.12956113
H       6.69562083      5.52467414      9.88699672
H       6.84726866      2.69866564      9.32193275
H       7.54549165      0.29645378     12.27002165
H       5.92321499     -1.00227567     11.84186028
