   245
 Tv_1:  11.152900   0.000000   0.000000 Tv_2:   0.000000   9.658700   0.000000 Tv_3:   0.000000   0.000000  26.829700
Pt      5.76908689      8.02926855      2.19966521
Pt      7.27343573      0.85778473      2.13170098
Pt     11.29876545      8.03602716      2.18533451
Pt      8.50172066      8.07175480      2.04181206
Pt      8.57158885      3.13615135      2.29025104
Pt      2.95002444      8.00329946      2.30116245
Pt      9.97019120      5.57845220      2.18865990
Pt      7.14351317      5.55190258      2.28961285
Pt      5.82029309      3.27508610      2.30488022
Pt      4.27084952      5.56202714      2.20986558
Pt      9.97441531      0.87829167      2.31176259
Pt      1.48137599      5.63674591      2.22931792
Pt      1.54621729      0.66799414      2.14134147
Pt      3.05067835      3.10666854      2.29436846
Pt      4.31648906      0.81002444      2.28335342
Pt     11.38001624      3.09438772      2.30527212
Pt      5.87931497      6.48013039      4.40869453
Pt      8.66278144      6.57041596      4.41381937
Pt      7.26842462      8.96710243      4.43391661
Pt      7.42984162      4.07060588      4.64055420
Pt      8.66073588      1.58870755      4.60710700
Pt      5.82439319      1.64448270      4.48598798
Pt     10.02753655      4.14096617      4.51105530
Pt     10.01419428      8.88347549      4.64116831
Pt      1.61947897      8.86606612      4.50347476
Pt      0.21162084      6.57976037      4.45288655
Pt      3.02587990      1.66393570      4.61900305
Pt      3.04944348      6.50042095      4.61779138
Pt      4.40622681      8.93948171      4.51070553
Pt      4.56087215      4.13666222      4.61702172
Pt      0.22605591      1.57834597      4.66600452
Pt      1.66116067      4.13847842      4.54795124
Pt      7.43868064      2.80713813      6.99839287
Pt     10.04327509      7.52634223      6.94082090
Pt      8.72858922      5.14528437      6.91306678
Pt      8.69834372      0.31570901      6.99274241
Pt      5.84624270      0.28194328      6.91207351
Pt      3.30967260      5.04961196      6.84951321
Pt      3.14092797      0.20802225      7.01008457
Pt      7.47541814      7.53692750      6.80812332
Pt      4.64895941      2.69536033      6.82381184
Pt      1.53833008      2.55130096      6.90763343
Pt      0.44816729      4.99240005      6.81692368
Pt     10.08291829      2.70706134      6.86740848
Pt      5.96523008      5.12487258      6.87281885
Pt      0.43734889      0.21267158      7.00346941
Pt      1.67355630      7.41149663      6.86610381
Pt      4.75592997      7.58156747      6.80555172
O       8.13542656      5.48867287      9.78463959
O       1.99026909      7.28638767      9.03713956
O       0.24162149      4.80373063      9.01414679
O       6.10817735      0.74260376     12.38784433
O       0.26161654      0.38188878      9.18465777
H       2.43732764      8.21829053      9.26667982
O       8.81498746      0.29219738      9.16991935
H      10.41339456      0.43745732      9.33644668
H       0.58179782      3.86373331      9.11386797
H       2.24092867      3.31222309      9.11856073
H       8.69443922     -0.65934462      9.50758981
C       8.62729671      5.86287694      8.73590646
H       2.66497713      6.49821862      9.27064675
O       7.16123989      2.27074833      9.07919859
H       8.22050011      5.84796793     12.98533508
O       4.64271669      2.43758470      8.83548256
O       1.53851154      2.61276534      8.94192178
H       0.77700757      1.22134282      9.27144929
H      -1.10122652      7.27257420     10.48727605
O       9.52574773      7.04464729      8.95085898
H       3.96237136      1.73144429      8.92828148
O       5.19562226     -0.11795644     15.49421248
O       3.24238515      5.01015515      8.98272973
H       8.46228176     10.22325559     16.21494881
H       6.13090485     -0.31062933     15.72592816
H       0.85678347      5.38624953      9.53052391
H       7.40622513      7.23070141     12.82400372
H       5.16420956      9.75926801     14.54254711
O       8.27117375      6.87413660     13.18054848
O       8.22231355      9.66586575     15.40983890
H       4.14616163      4.86494524      9.28133168
H       8.39757528      3.40445385     13.20853372
H       9.06149488      9.07158640     15.37095965
H       8.31357762      0.99961951     14.06140129
H      11.09622566      7.16452035     12.10197111
H       7.25737148      4.16495760     14.08239514
O      10.18931973      7.70259653     11.41887640
O       8.37950571      1.50918395     13.21624877
O       8.11910518      4.27692294     13.52208693
Cl      5.36973416      7.61173857     11.35669788
H       4.94171557      3.15529711     10.99992349
O      11.84426656      6.83000755     12.88398280
H      12.16365028      5.90534116     12.63415397
Cl      1.78979906      4.14522082     12.60000848
O       5.84159127      4.14202086     15.17743509
H       9.36840495      7.35287188     11.87853339
O       4.74686684      2.71125511     11.85692734
H      12.68925722      7.42429711     12.91039280
H       5.05643812      4.65294714     14.82599962
H       5.44057462      3.28943695     15.53389405
H       9.30476471      1.23883395     12.86033017
H      11.45633076      0.37297655     13.24471421
O       3.86410314      5.84581994     13.84567525
H       4.40116158      6.38620656     13.24297711
H       1.73535258      1.69707668     11.45830207
H       5.49646667      1.82443282     11.99678090
H       4.80126108      1.22600677     16.15647899
H       0.35014066      3.98379021     16.15290223
H       3.31086919      5.17934023     13.39245075
H       9.09227411      4.39745477     14.96864949
H       3.62198448      1.96326292     15.71329342
O      10.97786447      0.65008048     12.42941648
H      -0.04550246     -0.04931198     11.79480692
O       1.20944529      3.96270548     16.60743971
O       3.14480957     -0.13042632      9.22419262
O       4.46161723      2.15537488     16.31862656
H       1.71135167      4.87397572     16.37040468
H       3.52432891      8.47001607     12.47027856
O       9.56535454      4.38221994     15.81900223
O       2.03055060      1.96459596     15.10647459
O       2.73547995     -1.06319557     13.00806395
H      13.02914510      2.47516519     14.27449138
H       9.25444112      5.57781774     16.59998908
O       9.11009183      6.45819918     17.05304987
H       4.11836114     -0.26202426      9.20300475
H       9.15771748      3.62667885     16.23965069
H       4.49407882      2.40920044     18.09577294
H       3.88359993      2.87796357     19.47010565
H       1.84551596      2.63779237     15.77539153
H       8.14773261      6.39170189     17.31201450
H       9.87263565      7.33122615     16.15419813
O       4.58253042      2.28347329     19.06848622
H       2.47101892      9.52792774     12.69098570
H       6.36961225      4.83031313     16.61430701
H       6.24127662      2.70237949     19.30408098
O      10.41308602      7.80768062     15.43768714
O       7.25060533      2.83799859     19.17772328
O       2.55105308     10.87333262     11.59769124
H      10.48604151      7.12752877     14.78121526
O       6.55200997      5.02450595     17.58881978
H       3.78541574     11.97762395     11.79077357
H       7.13910612      3.58432293     18.54146125
H       2.84396785     10.48878829     10.67440450
H       8.19886927      2.09705321     17.93673229
H      11.84200719      8.44040333     16.01085559
H       4.29896080      0.68116672     19.59957481
O       8.90356027      1.68947777     17.37031494
H       5.77336334      5.40916373     17.95496043
O       1.66306783      8.54207413     16.17217037
O       4.22063027      9.40509561     19.82851771
H       4.54063369      9.43725698     20.78778521
H       9.53662512      1.22149755     18.00067651
O      11.56475367      3.62697018     19.24091245
H       1.91044833      9.43769142     15.83635731
H       1.76273377      4.13069998     19.70937001
H       2.16538813      6.88272140     16.29225769
O       9.87084482      5.67340808     19.83501707
H      11.39065347      3.85420685     18.32445608
H       3.20715162      5.01868154     19.85418077
O       2.70884441      4.16915053     20.07112179
H       9.26804174      6.20868865     20.37850938
H       8.78556804      1.95240183     21.37798187
H       3.03406883      6.17323697     15.23346525
H       9.53021410      5.92101829     18.97188587
H      10.87326534      4.20968493     19.69140630
O       2.80522639      6.08278436     16.15610939
O      10.82464770      0.70585438     19.06592904
O       8.68211925      2.90353988     21.35300211
H       1.82667698      8.76372318     17.99658586
H      11.34608894      6.33551784     20.26436038
H      11.67528119      0.18679460     19.17101982
O       9.36355247      9.88538068     21.07123059
H      11.14763195      1.63219192     19.00920438
H      10.02169342      0.31246582     20.31558236
O       1.73293973      8.92483385     18.96314038
O       1.08933435      6.75730151     20.58169343
H       7.89392628      3.06006226     20.75517867
H       9.90239147     -0.12399146     21.77743613
H       8.63001665      8.39500473     21.08731954
H       3.00836439      4.07617756     21.75752480
H       1.28583689      7.45514274     19.85884337
O       8.51378153      7.42514121     21.42487566
H       2.65633725      8.94729701     19.42631229
H       6.71334066      7.49735206     22.50091333
H       8.92426202      7.24981814     22.37636230
O       3.19390001      4.09667966     22.73157920
O      11.04261462      0.21728929     23.75643528
O       5.78528121      7.69787773     22.68831931
O       7.32702902      2.52164872     24.51522402
H       9.25819040      3.67326262     22.52102383
H       2.44188462      3.53779603     23.12303543
H       5.22797631      6.93882942     22.87038692
H      11.65056462      9.16754137     23.36375914
H       6.44420019      2.63853316     24.04846078
H       8.06281843      3.11934965     24.18244321
H       4.51661686      3.19108626     23.10801234
H      11.44897985      1.11341832     23.52086771
H       3.32811463      5.58726469     23.64921832
O       0.90676651      7.56471461     23.03964526
H       1.75409609      7.13951226     23.38713440
O       3.39725891      6.57334801     23.75742735
O       5.08910383      2.55554228     23.65644430
O       9.54892984      3.87558788     23.46043728
O       0.87547679      2.63112599     23.40044558
O       9.70107717      6.59556297     23.66540741
H       8.06296982      0.86585244     24.23500851
H       5.48392433      8.80750934     23.82905998
H      11.15310999      3.09065012     23.35895823
H       9.35106635      7.06988332     24.41703736
H       0.87101712      7.20045554     22.02627512
H       9.45991553      4.85623509     23.60158793
H       4.73015227      0.51923116     24.11687674
H       9.40540057      9.86353107     24.15386375
H       4.73627306      2.50232366     24.58115950
H       3.49986617      6.73957180     24.70705198
O       8.42315879      9.62396244     24.32375009
O       5.36321561     -0.09220600     24.48669974
H       1.08353405      2.52213461     24.35989122
H      10.57400163      7.01490675     23.48465248
Pt      2.83581529      9.36914428     26.61324788
Pt      5.65480338      9.26131258     26.71009711
Pt      8.47555035      9.23820312     26.50620974
Pt     11.20467143      9.42004133     -0.27343874
Pt      8.47323859      4.53685246     26.73198472
Pt      4.28763381      6.84408723     26.67906010
Pt      9.98944279      6.90901499     -0.04719093
Pt      7.03912519      6.88336442     -0.09916996
Pt     11.21735701      4.56778250     -0.18284091
Pt      1.52824626      6.83882428     26.65690903
Pt      9.85272023      2.22629611     -0.12996824
Pt      7.07018750      2.09850899     -0.22896707
Pt      2.91869340      4.44262240     26.82696449
Pt      5.61298930      4.48374657     26.69255304
Pt      1.43537439      2.22571671     -0.17747833
Pt      4.37650117      2.02296522     -0.00583700
H       7.71856135      1.44447253      9.15712645
O       4.21161213      6.34405712     18.75662482
H       3.90641144      6.19911826     17.79613229
H       4.37505980      7.30167874     18.87305125
O       5.80965131     -0.07165725      8.93776617
H       6.37809903      8.87541829      9.28013131
O       5.54613544      4.79004447     10.29840052
H       5.83338035      5.66612346     10.62372213
H       6.40707409      4.49652195      9.91061690
H       6.16674072      2.03334378      9.14162958
H       7.11770942      0.96463287     12.43144439
H       5.88392901     -0.16763292     11.96992768
