   245
 Tv_1:  11.152900   0.000000   0.000000 Tv_2:   0.000000   9.658700   0.000000 Tv_3:   0.000000   0.000000  26.829700
Pt      5.67374598      8.13756597      2.08634967
Pt      7.13837038      0.86784042      2.22177416
Pt     11.32134610      7.91954654      2.30099016
Pt      8.49581131      7.98787178      2.30758375
Pt      8.65134168      3.13935460      2.33683325
Pt      3.00422249      7.99950128      2.29519445
Pt     10.03454562      5.50200874      2.34730826
Pt      7.17962285      5.50816192      2.17077865
Pt      5.85971610      3.24306460      2.33582371
Pt      4.49605892      5.55788401      2.36567979
Pt      9.79603657      0.67822910      2.36477673
Pt      1.70533210      5.62558626      2.30353905
Pt      1.52682204      0.72164770      2.34019042
Pt      2.94814388      3.25240524      2.32681068
Pt      4.29287757      0.87033879      2.29498929
Pt     11.43250503      3.11448972      2.33892596
Pt      6.01647653      6.74521050      4.42757281
Pt      8.66595722      6.49088787      4.55210571
Pt      7.20074670      9.02076781      4.41828076
Pt      7.24532642      4.25289742      4.70415213
Pt      8.62781479      1.63738873      4.64853619
Pt      5.87189575      1.71828378      4.63653948
Pt     10.03097474      4.12280293      4.63172563
Pt     10.15706111      8.80151330      4.76205367
Pt      1.66444293      8.73982603      4.67153688
Pt      0.20179846      6.40154898      4.68259868
Pt      3.00771600      1.61094940      4.65465715
Pt      2.90296291      6.32952060      4.69944501
Pt      4.46527400      8.96123294      4.47686606
Pt      4.46894813      4.12703229      4.62932212
Pt      0.25350330      1.59761999      4.63145447
Pt      1.62263579      3.99312624      4.60717914
Pt      7.38147189      2.79551690      6.90091618
Pt     10.14120366      7.59493043      7.14139654
Pt      8.81332193      5.04344086      7.13442531
Pt      8.75334476      0.25318658      6.98418901
Pt      5.97424906      0.17062052      6.94296692
Pt      3.33535537      4.99429337      7.08431309
Pt      3.16915192      0.27496665      7.02947164
Pt      7.45974126      7.56930561      6.83225282
Pt      4.66930468      2.62295037      6.88124307
Pt      1.72191006      2.59138119      6.91955843
Pt      0.35048069      5.16166024      7.04287249
Pt     10.12023407      2.72153434      6.92328644
Pt      6.07633542      5.15705430      6.91947495
Pt      0.38777460      0.23685482      7.09433610
Pt      1.78236866      7.44997823      7.11703447
Pt      4.54395142      7.41875963      6.69124626
O       8.37933663      4.94171122     10.01276030
O       1.96248688      7.30597310      9.17019212
O       0.44173148      4.66898902      9.18079991
O       6.63682088      0.58421530     11.46534899
O       0.11178657      0.43084047      9.17747494
H       2.19080284      8.28557381      9.33400148
O       8.74616764      0.58038221      9.15363435
H      10.19696042      0.68346904      9.27264084
H       0.98777475      3.75833022      9.35538353
H       2.53016665      2.54859673      9.25538600
H       8.52707218     -0.25647186      9.54302760
C       8.89520585      5.34809888      9.00599806
H       2.92373009      6.24134585      9.25168720
O       7.21422055      2.51180736      9.01546505
H       7.79039412      6.21950262     13.38748234
O       4.50207723      2.50367396      8.93818693
O       1.60275616      2.48936140      8.97434654
H       0.69362003      1.30550988      9.23019499
H      -1.91717036      7.40633897      9.92984477
O       9.77380574      6.79305011      9.17971672
H       4.14001386      1.52473290      9.10234532
O       5.64248092     -0.04454103     14.80436915
O       3.30927116      5.23614042      9.18243729
H       8.51824293     10.76616921     15.63779596
H       6.54053516      0.21826538     14.54098379
H       0.90850533      5.39663770      9.66614163
H       6.49978317      7.01573131     12.94613965
H       5.29852170      9.12271229     14.01122065
O       7.49669058      7.03568231     12.99198374
O       8.51018417     10.25068087     14.74987240
H       4.17322752      5.10316002      9.60504296
H       7.03962243      3.96615765     13.16082685
H       8.92639602      9.42704140     14.97274647
H       8.85702250      0.83157929     13.40621241
H       9.74080004      8.27232754     11.35822540
H       6.81257143      4.30482218     14.67327213
O       8.83712638      7.98991066     11.03655314
O       9.03322824      0.94999382     12.35904178
O       7.39070787      4.48489712     13.91857952
Cl      4.94614438      7.57895905     11.68565483
H       5.35039874      3.57210678     11.51589020
O      10.93225689      6.25816598     13.36528263
H      11.21449245      5.32102293     13.36517827
Cl      1.42008204      3.70084099     12.66977606
O       5.23451233      4.43780528     15.46190772
H       8.29605601      7.49111500     11.80923756
O       5.42140278      2.76375772     12.13378330
H      11.32002631      6.80867315     12.59726851
H       4.67507905      4.85611784     14.76506446
H       4.90870001      3.48393615     15.51921344
H       9.47347833      1.91524482     12.05412792
H      11.02057182      3.27218701     11.36898859
O       3.65895677      5.56128639     13.75413228
H       3.83263316      6.29440033     13.13031146
H       2.41550361      0.24872392     10.92923829
H       6.03290597      1.30957421     11.82051997
H       4.60774956      1.11570594     15.30409251
H       0.05280737      4.49244899     15.86651820
H       3.02076757      4.92602289     13.36026051
H       8.77531067      4.09781659     14.82441463
H       3.18527040      1.94613511     15.66329444
O      10.07962470      3.02251308     11.34487693
H      -1.50376001      3.78956876     10.84081090
O       0.69931119      4.48360594     16.61547509
O       3.23081492      0.01225715      9.14208171
O       4.19192769      1.90461643     15.82788270
H       1.25990692      5.27390298     16.41258919
H       0.82760651      8.99811808     11.78678768
O       9.42275206      4.08126530     15.52698293
O       1.39681531      2.02428887     15.14567631
O       0.33490122     -1.47992721     11.47753404
H      12.72407484      2.55775214     14.32855265
H       9.31998152      5.44034710     16.69706436
O       9.07791839      6.25822021     17.20551025
H       4.22056147     -0.16952520      9.33522722
H       9.24571067      3.23571966     16.03838978
H       4.18787415      2.23402419     17.58853000
H       3.77824524      2.61712329     19.04013776
H       0.77340148      2.55822018     15.72533248
H       8.03213017      6.33491702     17.30036889
H       9.58563729      7.27110792     15.76914406
O       4.44722648      2.18779472     18.55364736
H       0.62283543      8.04226726     10.52376113
H       6.14538512      5.22605242     16.76798671
H       5.98395121      2.82477386     18.65230066
O       9.84413963      7.86718574     15.00540584
O       6.93719036      3.01670261     18.73714560
O       2.07834377     10.13499650     11.84242296
H      10.17023273      7.14154236     14.33100123
O       6.44528456      5.58733348     17.64544759
H       4.82130733     12.77045881     12.84063798
H       6.97001558      3.99868984     18.48120152
H       2.02122154     11.06546050     11.84359935
H       8.06910460      2.19000932     17.64425128
H      11.49224011      8.74421968     15.28770584
H       4.18406386      0.48903268     18.97781538
O       8.88617653      1.90707811     17.11666672
H       5.61607034      6.13542875     17.86732886
O       1.10355481      9.11604133     15.72886442
O       3.92993449      9.24169213     19.38065996
H       4.22758904      9.13700662     20.30338965
H       9.60147744      1.53646096     17.79701629
O      11.32385975      3.63902010     18.92117038
H       1.24686891     10.03967450     15.40652161
H       1.71548950      4.29356004     19.56055790
H       2.18635536      7.48167731     15.68804172
O       9.51510482      5.74755617     19.89139570
H      11.58588279      3.88974185     17.98706408
H       3.00224367      5.13812004     19.43606047
O       2.68689732      4.17353004     19.70738897
H       8.74130428      6.08523819     20.39794322
H       8.54992694      1.50494179     20.95052216
H       2.78086534      6.16156857     15.10894820
H       9.40232030      6.11802282     18.96158205
H      10.46282007      3.96670571     19.17346113
O       2.48344751      6.50811555     16.00873000
O      10.72054669      1.09167115     18.62089404
O       8.19335259      2.37699831     21.07227829
H       1.34567195      8.47586509     17.46467062
H      11.03184239      6.22693760     20.23581983
H      11.44627135      0.49053371     18.29573065
O       9.29392061      9.42930495     20.93415631
H      11.26339301      1.99860486     18.90620129
H       9.87335812      0.02659588     20.19119810
O       1.25184610      8.82364106     18.39694744
O       0.66387348      6.87319996     20.29833605
H       7.85132083      2.73894399     20.22302501
H       9.83153782     -0.26550657     21.71847145
H       8.19905192      8.10852528     21.23150348
H       2.98140961      3.78993298     21.39870647
H       0.50972514      7.52881345     19.56607876
O       7.64670315      7.35930468     21.57432797
H       2.19055457      8.94692959     18.69504849
H       6.18685174      8.02445273     22.20211339
H       8.08577401      7.17483760     22.49969549
O       2.84671540      3.74159438     22.39950830
O      10.86521297      0.13368077     23.51884833
O       5.25690152      8.34501330     22.40555314
O       7.48951538      2.42827201     24.37587920
H       8.90642109      3.46698541     22.20765868
H       2.00019546      3.28122667     22.57606262
H       4.85131064      7.57268697     22.87237847
H      11.52999514      8.96647301     23.54562931
H       6.59026201      2.72376485     24.09682889
H       8.14352886      3.14061441     23.99218739
H       4.01629635      3.02974826     23.23948476
H      11.39310583      0.92056441     23.52776437
H       3.19854597      5.60008424     22.97217481
O       0.79056611      7.46957984     22.88351671
H       1.69386585      7.02760382     23.08200916
O       3.41520263      6.43208518     23.51013556
O       4.77459475      2.88138066     23.86691270
O       9.19405040      3.88692783     23.05606582
O       0.66257247      2.82237791     23.56540386
O       9.42112628      6.63368085     23.66513167
H       7.96025937      0.77609956     24.27327540
H       5.39331497      9.25655565     23.50907643
H      10.98688507      3.26086751     23.69533332
H       9.33235764      6.41513281     24.60250388
H       0.71435783      7.35943310     21.90376576
H       9.20293463      4.91571871     23.03841870
H       5.17915077      1.12546181     24.07975135
H       9.51622871      9.74798737     24.24010785
H       4.46019201      3.37140171     24.71638338
H       3.40154868      6.16289792     24.46319726
O       8.50321414      9.58573424     24.48991540
O       5.47039630      0.25103056     24.37386443
H       1.06670036      2.69273678     24.50940113
H      10.37329588      6.79721740     23.54152478
Pt      2.96844112      9.51403643     26.76795129
Pt      5.67990646      9.35213632     26.49672533
Pt      8.48783414      9.34066245     26.62723604
Pt     11.39905965      9.37212517     -0.09623863
Pt      8.47969713      4.57894998     26.68540645
Pt      4.19577335      6.87931995     26.63215623
Pt      9.76302846      6.92159211      0.01094343
Pt      7.05293409      6.99591614     -0.13978170
Pt     11.25281506      4.58215734     -0.09196594
Pt      1.41773073      6.92368421     26.63571960
Pt      9.99974820      2.03611351      0.01364486
Pt      7.25201256      2.03488586     -0.16452030
Pt      2.86753397      4.56008631     26.64557066
Pt      5.56407351      4.42974833     26.70482809
Pt      1.47426462      2.19007731     -0.01935271
Pt      4.32093651      2.12975735     -0.12018473
H       7.75123111      1.64547783      9.26502259
O       4.10770029      6.56372421     18.19275763
H       3.41531409      6.59578647     17.42717029
H       4.13065405      7.41292579     18.67895930
O       5.92740801     -0.44693394      8.97978366
H       6.14867631      8.28665045      9.15792214
O       5.60404957      4.90817074     10.61656047
H       5.52905448      5.75696985     11.13934583
H       6.56930418      4.71928054     10.48948107
H       6.23145134      2.30654224      9.08388892
H       8.17941735      0.72040099     11.86438130
H       6.00914810     -0.09001566     11.17419933
