   245
 Tv_1:  11.152900   0.000000   0.000000 Tv_2:   0.000000   9.658700   0.000000 Tv_3:   0.000000   0.000000  26.829700
Pt      5.69706385      8.13194921      2.20083418
Pt      7.10703291      0.90476463      2.40684673
Pt     11.25762110      7.98171903      2.27864848
Pt      8.42310325      8.21046943      2.06684573
Pt      8.63821364      3.31889564      2.36133461
Pt      3.02637460      7.88865539      2.26263776
Pt      9.92616908      5.67355640      2.26460693
Pt      7.24412659      5.65257805      2.23491817
Pt      5.83376162      3.34317909      2.33967231
Pt      4.45778169      5.60221483      2.28012510
Pt      9.98534535      0.84479733      2.37453261
Pt      1.52342487      5.60540508      2.22151523
Pt      1.58467448      0.62584818      2.24623530
Pt      3.01625864      3.19837820      2.35041857
Pt      4.33031569      0.89761904      2.39879924
Pt     11.46814926      3.16720997      2.25757710
Pt      5.77364723      6.57711964      4.48833915
Pt      8.55438869      6.55713493      4.53667337
Pt      7.26779013      8.88469809      4.58368523
Pt      7.25153277      4.16016528      4.69310351
Pt      8.67959449      1.67639540      4.56568686
Pt      5.89290443      1.74776229      4.71027095
Pt     10.02212769      4.13925767      4.57465843
Pt      9.98818049      8.86505887      4.61221971
Pt      1.65928454      8.86778338      4.59630166
Pt      0.20193599      6.52958683      4.66151569
Pt      2.97571927      1.66695326      4.62473852
Pt      2.91750820      6.54612652      4.53322794
Pt      4.36947896      9.02379934      4.63123876
Pt      4.46134321      4.15588230      4.66637754
Pt      0.27085685      1.55317073      4.66804886
Pt      1.61726822      4.03611671      4.60345072
Pt      7.49310739      2.61058308      6.97034772
Pt     10.24800394      7.55157444      7.07408172
Pt      8.87335733      5.03100544      6.92448578
Pt      8.72444086      0.10444439      6.97464921
Pt      6.02704407      0.16239714      7.02161509
Pt      3.37228184      5.15842276      6.84068472
Pt      3.27320921      0.29530986      7.02400336
Pt      7.47340141      7.42732964      6.92423820
Pt      4.63015181      2.69372122      6.93052913
Pt      1.78805559      2.69855211      7.01751453
Pt      0.58034478      5.12385385      6.98255258
Pt     10.24153947      2.61819340      6.87498897
Pt      6.15214861      5.10962547      6.95811439
Pt      0.33261512      0.23985484      7.01130621
Pt      1.91456354      7.53392751      6.85430405
Pt      4.71720988      7.48014763      6.84650845
O       8.50575326      4.81732710      9.88159113
O       1.91996238      7.51128530      8.83471857
O       0.82276387      4.90440728      9.07059750
O       6.23010897      0.67372471     11.46050179
O       0.26859224      0.48919186      9.11316319
H       2.72497784      8.77005218      9.34566769
O       8.75624913      0.49865681      9.13447576
H      10.47077184      0.62971314      9.24761671
H       2.54069512      5.00132438      9.48864500
H       1.23274302      3.45805981      9.34464920
H       8.54357785     -0.27151695      9.83962517
C       8.84490779      5.23832925      8.85183414
H       1.05504180      7.11621429      9.10867810
O       7.19847899      2.49541098      9.02167810
H       7.53014829      5.95963523     12.44915363
O       4.56142626      2.76606965      8.95691535
O       1.72336723      2.55774844      9.17749011
H       1.04075696      1.75522722      9.29216745
H      -1.55323053      7.32315828      9.73816749
O      10.01300743      6.72641697      9.02829420
H       3.80338534      2.20184227      9.27203546
O       5.29105174     -0.44561768     13.98390635
O       3.46530614      5.08075946      9.14788499
H       8.53148980     10.42140691     15.81213293
H       5.59806820      0.04565211     13.15920320
H       0.15652838      5.39326486      9.61402417
H       6.43554367      7.03433145     12.72478171
H       4.57252929      8.71997391     13.50128823
O       7.02035732      6.71745856     12.05696751
O       8.34068177      9.81911746     15.00351572
H       3.74033077      4.12368340      9.16790827
H       8.35813390      3.77908465     12.85779123
H       8.75106421      8.93602100     15.13955470
H       8.42528110      0.80541217     13.75272105
H       9.61713203      8.44717176     11.72757164
H       7.20438478      4.29389754     13.83856651
O       8.90380963      8.36786658     11.07942685
O       8.29529769      1.42103147     12.88081916
O       8.10971110      4.46842134     13.47951899
Cl      3.46315136      7.80022219     12.10460707
H       6.30587432      3.89678780     10.89363386
O      10.72280145      6.94638435     13.26878142
H      11.05015201      6.07973329     12.96998881
Cl      0.82388692      4.31433757     12.16906876
O       5.68604942      3.80777829     14.74270030
H       8.28093704      7.74157611     11.49191727
O       5.87634335      3.44059678     11.68191343
H      11.42017717      7.47301278     12.76540096
H       4.91371103      4.27537995     14.29580825
H       5.37162663      2.89144085     14.88892780
H       9.26535141      1.65655618     12.46112734
H      11.30469702      2.49388008     12.29268095
O       3.80119874      5.13719006     13.14411759
H       3.67518205      6.00174719     12.69766011
H       2.08161226      1.83121610     11.78766412
H       6.05277703      1.65158021     11.42579948
H       4.98903872      0.76697247     15.37755620
H       0.06098809      4.19368210     15.74100234
H       2.95893588      4.62538505     12.98222073
H       9.01154956      4.29631246     14.88462707
H       3.86213800      1.80468195     15.85844760
O      10.80194665      1.60185013     12.36065483
H       0.25156071      0.81579248     12.20970361
O       0.98892574      4.00405797     16.15302720
O       3.31186583     -0.05489693      9.30639205
O       4.87911541      1.59818586     16.02466617
H       1.66247443      4.70126285     16.01882378
H       1.74546596      8.56005717     12.02413660
O       9.41785471      4.14210613     15.78391545
O       2.18742681      1.47174156     15.46100126
O       0.83297613     -0.79018728     11.67108786
H      13.37785672      1.60303160     14.47090065
H       8.66766854      5.31779985     16.97452497
O       8.26858744      6.16398574     17.23645374
H       4.25716204     -0.32973339      9.45960223
H       9.27317258      3.15763818     15.96187718
H       4.67366798      1.59785006     18.10861794
H       3.99997115      2.17544501     19.19638798
H       1.66854110      2.30745665     15.69148879
H       7.28452177      6.05279867     17.20628507
H       9.54531375      7.16256277     16.43547197
O       4.46368477      1.34625090     19.03425358
H       1.01896342      8.94186284     10.71149573
H       5.99868407      4.20533995     16.46291197
H       6.20100290      1.79773454     18.76247856
O      10.06584471      7.78679484     15.86418906
O       7.03495779      2.32923311     18.69830548
O       2.74722807     11.36482185     12.45373103
H      10.16926235      7.26747306     14.94843218
O       6.20146496      4.45422697     17.43092178
H       5.11510089     13.69956292     11.90436061
H       6.55791818      3.20537912     18.30442152
H       3.01246540     10.39914816     12.35378792
H       8.33814557      1.81709168     17.75432316
H      11.76468479      8.11627725     16.09314568
H       4.02690519     -0.56849982     19.31983379
O       8.99451776      1.61842685     17.02258354
H       5.34734963      4.83399193     17.76017243
O       1.57521277      8.37602673     16.26345601
O       3.71313782      8.22623873     19.62937800
H       3.98833861      8.20177817     20.58048696
H       9.71314011      1.15141589     17.53545382
O      11.80171042      3.93703836     18.88651927
H       1.61321427      9.34780346     16.21231824
H       1.97677381      3.72473005     19.48959536
H       2.49175964      6.78220845     15.78984215
O       8.44198165      6.13958611     20.00657659
H      11.77875709      4.15152201     17.90776698
H       3.40218443      4.46329143     19.26804233
O       3.02832604      3.62916103     19.67681167
H       7.97369059      6.87844317     20.51683531
H       7.77400857      3.08361162     20.39795698
H       3.25196925      5.77291289     14.76518107
H       8.45999209      6.29110816     18.98967238
H      11.40656982      4.69883626     19.37702430
O       2.88298367      5.87143791     15.69950953
O      10.60611172      0.81458688     19.12382916
O       7.75002921      3.72518433     21.14422837
H       1.27546388      8.20261033     18.10806571
H       9.99520468      6.30462993     20.22796139
H      11.31546195      0.17243051     19.19557582
O       9.51441596      9.75649560     21.53612126
H      10.96731817      1.72985727     19.12528390
H       9.74478597      0.52720518     20.68375392
O       1.06346951      8.48733140     18.98771003
O      -0.16379226      6.28441886     20.36965613
H       8.00291490      4.62640866     20.83787118
H      10.32511531      0.04849326     22.10534980
H       8.20616933      8.51797745     21.71563372
H       3.22404936      3.48255098     21.24514996
H       0.15939367      7.07657824     19.84009976
O       7.56104135      7.78992437     21.84444308
H       1.88093064      8.45738604     19.48469559
H       5.69956953      7.54192961     22.30107989
H       8.07826098      7.20562856     22.49745133
O       3.07851826      3.57079469     22.28191127
O      11.16132827     -0.08153273     23.84540365
O       4.87358709      7.86713518     22.73409772
O       7.28032329      2.27939799     24.67895979
H       8.98559455      3.69842596     22.38585841
H       2.16190281      3.32261598     22.46459538
H       4.43066805      7.00498097     22.99574107
H      11.57698654      8.69239102     23.54440345
H       6.59802956      2.65968952     24.07420030
H       8.11342480      2.75329713     24.48026172
H       4.04895812      2.86308500     23.08463205
H      11.73071724      0.74733905     23.94477442
H       3.13098775      5.22039839     22.86461564
O       0.71703905      7.38497605     22.75294447
H       1.40083150      6.85005753     23.18500587
O       3.10662743      6.05454832     23.44091942
O       4.87746664      2.74725690     23.67768379
O       9.31562655      3.76448389     23.31823503
O       0.82498968      2.56654594     23.55114654
O       9.41050562      6.41253094     23.59427936
H       8.21829533      0.57303085     23.82309129
H       5.38798623      8.86740847     23.86409952
H      11.01274362      2.86342664     23.45561361
H       9.16421451      6.54824284     24.58220816
H       0.35724679      6.90287163     21.97049256
H       9.50575741      4.70354793     23.48908379
H       5.20995503      0.78807808     24.16259914
H       9.82778182      9.67650418     24.23443556
H       4.77814234      3.31874633     24.47245212
H       3.19876380      5.67107556     24.33414532
O       8.77755961      9.54820964     24.35861797
O       5.71121764      0.01978073     24.50572681
H       1.03019066      3.13067215     24.35881260
H      10.33230449      6.76406725     23.47034260
Pt      2.91821196      9.27729845     26.75812356
Pt      5.68800049      9.30268058     26.57016373
Pt      8.61694800      9.32634933     26.53737387
Pt     11.33773311      9.29158203     -0.04942268
Pt      8.59741094      4.56923587     26.57218298
Pt      4.35581843      6.90852511     26.76610686
Pt     10.09932038      6.87430143     -0.15316062
Pt      7.17615577      6.89994747     -0.04703495
Pt     11.43963612      4.49909059     -0.25315809
Pt      1.66295888      6.86261148     26.50667756
Pt      9.96898572      2.14781264     -0.01494201
Pt      7.19734535      2.13172695      0.16565635
Pt      2.99736585      4.37202620     26.74787133
Pt      5.70808763      4.52359132     26.64852547
Pt      1.50799295      1.99410155     -0.05859597
Pt      4.33544109      2.02502229     -0.04215769
H       8.05719230      1.26887791      9.28507716
O       4.16337750      5.74475923     18.33299015
H       3.75590943      6.07236041     17.51853294
H       4.47686138      6.56061705     18.89509321
O       5.84618530     -0.38991852      9.03133038
H       5.98236543      8.32524060      9.15458283
O       5.71922281      6.40761798      9.53491740
H       4.84205083      6.25563827      9.90646768
H       6.30382558      6.50626970     10.34626130
H       6.26434499      2.49414322      9.24458306
H       7.68158388      0.96007968     12.20821160
H       6.06777626      0.21813565     10.60015231
