   245
 Tv_1:  11.152900   0.000000   0.000000 Tv_2:   0.000000   9.658700   0.000000 Tv_3:   0.000000   0.000000  26.829700
Pt      5.54418070      8.13240375      2.04634136
Pt      7.12556182      0.86821093      2.19680864
Pt     11.23989131      7.82312205      2.33106748
Pt      8.27038960      8.03596700      2.01814896
Pt      8.45394807      3.20896793      2.30101511
Pt      2.85047443      7.92390740      2.39780581
Pt      9.86283692      5.47243779      2.16175033
Pt      7.00920360      5.63277348      2.18858232
Pt      5.75389564      3.22606414      2.29120525
Pt      4.15388004      5.60482056      2.31270354
Pt      9.90120917      0.66695676      2.39563135
Pt      1.40216867      5.45195698      2.35054110
Pt      1.45135169      0.61120725      2.48498014
Pt      2.89439842      3.11770745      2.33205887
Pt      4.23436358      0.81575169      2.31284577
Pt     11.27479353      2.99746781      2.32494482
Pt      5.87863596      6.63109821      4.53457882
Pt      8.67187607      6.54875765      4.35232093
Pt      7.33963693      8.94914116      4.43288104
Pt      7.20559174      4.19649309      4.52609113
Pt      8.73240531      1.68347944      4.60525394
Pt      5.92434605      1.62901476      4.61498067
Pt      9.96964224      4.15210159      4.57682877
Pt     10.01182817      8.91941102      4.60934704
Pt      1.63021296      8.81421798      4.67865962
Pt      0.23512769      6.41496073      4.61157724
Pt      3.07937630      1.66573632      4.71666485
Pt      3.00315803      6.48292103      4.69772053
Pt      4.47268528      8.94753172      4.62392760
Pt      4.46012139      4.09393344      4.65329105
Pt      0.30457972      1.60907125      4.75401318
Pt      1.62942767      4.01429361      4.62637870
Pt      7.58610722      2.68403602      6.84254354
Pt     10.32830109      7.50054577      6.90854652
Pt      8.73661092      5.12420334      6.84804467
Pt      9.03527904      0.29401827      7.05212215
Pt      6.19381958      0.19986059      6.96314702
Pt      3.31963495      5.01421600      6.98328355
Pt      3.41252208      0.24319231      7.06790414
Pt      7.59398182      7.52838455      6.86215947
Pt      4.75442679      2.64235105      6.94422651
Pt      1.90448355      2.60547085      7.02332876
Pt      0.53407541      5.07172750      7.01153563
Pt     10.25156908      2.81731370      6.90418527
Pt      5.93917676      5.06684997      6.90315370
Pt      0.76218839      0.18879070      7.05044739
Pt      2.03103938      7.40159975      7.03256593
Pt      4.81075256      7.52852562      6.84569145
O       7.46586147      6.24291385      9.40519027
O       2.03039375      7.38132187      9.15499094
O       0.04263320      5.12623885      9.09637397
O       8.49399691      1.99266211     11.70981670
O       0.40349425      0.49345230      9.06662073
H       2.68912717      8.24702353      9.38700944
O       9.14609661      0.49214575      9.14026359
H      10.26828920      0.51705656      9.31198127
H       0.67782457      5.33695018      9.83765979
H       0.95854435      3.15557488      9.36663264
H       8.73909218     -0.11542746      9.81856792
C       8.01121161      6.33716145      8.38280362
H       2.62687930      6.51926751      9.40313796
O       7.56269101      2.86888130      8.96466464
H       8.42135345      7.92034607     11.48859001
O       5.12658814      2.64094404      9.03344923
O       1.79149284      2.77585735      9.06084783
H       0.89492215      1.32135916      9.33319435
H      -0.90059081      7.88372178      9.49765401
O       9.86356877      7.18945254      8.88517089
H       4.72748404      1.75846677      9.30362955
O       5.94369007      0.93091552     13.41387559
O       3.11678816      5.05398938      9.11298354
H       8.50234922     10.65601604     15.81715650
H       6.80586402      0.73446623     13.82109713
H      -0.60300713      6.02209443      9.13474500
H       7.06540240      8.67660714     11.46817561
H       5.52207388      9.66890393     13.23487443
O       8.01965341      8.80869426     11.28164825
O       8.25920210     10.03544109     15.07124813
H       2.60968730      4.16258603      9.19868859
H       7.75819259      3.36925959     12.79711167
H       8.17344780      9.11003897     15.40701008
H       9.76914686      0.36278221     14.21208236
H      11.74468572      7.83799472     11.28562447
H       6.65002699      3.85097675     13.91014890
O      10.94870322      8.37117732     11.18881031
O      10.72284655      0.32151599     13.80816170
O       7.47705930      4.09493349     13.42137976
Cl      4.81340086      7.74293764     12.05322241
H       4.99278859      4.09733119     11.33442440
O       9.04770845      6.45958611     12.89066239
H       8.56920128      5.67157535     13.28151122
Cl      0.88031653      5.59328909     12.03087075
O       5.26667614      4.01931597     14.86012457
H      10.67575640      8.40841446     12.15410039
O       4.91447910      2.97782960     12.03939991
H       9.94481106      6.06087591     12.57717773
H       4.75015083      4.72861299     14.34134167
H       4.67272201      3.22238706     14.75822121
H      10.62648490      1.02569672     13.16091208
H      11.74629876      3.27370715     12.00088685
O       3.15377677      5.99503812     14.11967236
H       3.69623812      6.79099718     13.90957320
H       3.17203933      0.86069575     10.72951402
H       5.60585253      2.46203799     12.48383145
H       4.79757906      1.32585398     14.69800912
H      -0.49583481      3.94632439     16.36239197
H       2.39646126      5.93997141     13.40088053
H       8.21063814      3.96741385     14.90307044
H       3.14761421      1.43168608     15.09746891
O      11.35783781      2.38571236     11.78667846
H       0.98766344      1.84682626     11.48319468
O       0.50814322      3.80356937     16.45872691
O       3.54642616     -0.15384397      9.19466002
O       4.10122534      1.70982242     15.35830201
H       0.92529775      4.68649868     16.25543607
H       1.49463543      8.78720148     13.27564148
O       8.79547367      3.91722136     15.76517987
O       1.21144867      1.25784989     15.57340637
O       2.40512453     -0.55249291     13.18507433
H      11.75954212      0.99702639     14.84566344
H       8.45114758      5.13832474     16.77776364
O       8.11937005      5.97131440     17.21935200
H       4.53439585     -0.30290033      9.17083443
H       8.86413003      3.06464728     16.26275001
H       4.32131466      1.29258477     16.94364750
H       3.77220230      1.74711337     18.41890819
H       0.97679667      2.17374271     15.80851553
H       7.15351749      5.71633443     17.10734929
H       8.71911030      6.97984746     16.15734723
O       4.43626799      1.18512412     17.98480819
H       3.01138024      8.47315107     12.71548302
H       5.54569124      4.62555666     16.43290816
H       6.07702658      2.23509167     18.78572460
O       9.26628712      7.57360414     15.55021383
O       6.93463062      2.72653182     18.82961765
O       2.87049374     11.14886265     11.46785993
H       9.29267134      7.13305888     14.65781910
O       5.78898922      4.90361109     17.36606670
H       4.11912729     12.01975561     11.72007463
H       6.72854017      3.55675712     18.34241461
H       2.62969543     10.44324132     12.28015541
H       8.00609810      2.08714815     17.97039868
H      10.63926429      8.14514194     16.53122472
H       4.24126408     -0.23182533     18.78302690
O       8.82099067      1.89575630     17.40383648
H       4.99973890      5.37575566     17.66645194
O       0.32837958      8.54262447     16.80671786
O       4.05120982      8.49050669     19.30413943
H       4.57825820      8.61202863     20.12107534
H       9.59973828      1.66912458     18.04518934
O      11.83445487      4.16506999     19.09268596
H       0.51378970      9.39916897     16.32330358
H       2.24889530      3.65564320     19.46963320
H       1.27488069      7.22156298     16.33524353
O       8.69659146      6.06344317     19.86147222
H      11.81102448      3.91596287     18.04595546
H       3.58919642      4.38833139     19.06358213
O       3.29586721      3.62012854     19.57733498
H       8.15286340      6.71270575     20.35393185
H       7.98811812      3.13268108     20.38045226
H       2.32922024      6.44954816     15.34385161
H       8.48228781      6.14944943     18.89942513
H      11.57335343      5.07633399     19.24029429
O       1.74049829      6.40241867     16.19631763
O      10.62272791      1.54501782     19.57883339
O       8.58230674      3.56374572     20.97453114
H       0.73683095      8.74400888     18.36643307
H      10.11822187      6.35674452     20.54345588
H      11.31985987      0.84942114     19.49985312
O       8.92068945     10.13715461     21.35077629
H      11.19166772      2.36476845     19.82134450
H       9.47261375      1.00445042     20.70379189
O       0.99647141      9.06565925     19.31697490
O      -0.05338380      6.59625543     20.75996858
H       8.59448353      4.48830621     20.62685056
H       9.55894680      0.09510028     21.91606092
H       7.92689266      8.51525482     21.25330835
H       3.52720984      3.74126281     21.30745529
H       0.18426458      7.43763105     20.21481122
O       7.59637876      7.72917192     21.56865169
H       1.97736685      8.96513038     19.36837414
H       5.93948566      8.08033473     22.06247015
H       8.14919554      7.66577285     22.39025490
O       3.42426070      3.71593448     22.27414544
O      11.13883170      0.15678058     23.32091192
O       4.99716114      8.33651481     22.25358490
O       7.83336146      2.39961453     24.55793295
H       9.20970726      3.49960452     22.44047789
H       2.39364728      3.50440656     22.49917890
H       4.53029187      7.50472798     22.47935130
H      11.79510625      9.00033295     23.34176263
H       6.90892440      2.60993120     24.17063524
H       8.65210072      3.02854445     24.17628294
H       4.46659546      2.98849795     22.95578558
H      11.61659302      1.01709355     23.28655205
H       3.27588949      5.35613588     22.82325917
O       0.75791885      7.22906454     23.31505484
H       1.71381812      6.91286380     23.51898518
O       3.26188237      6.24780282     23.31254468
O       5.15762125      2.65901182     23.70168075
O       9.62867426      3.75984622     23.37639421
O       1.00813247      2.82577884     23.16738466
O       9.36289452      6.29865678     23.50866793
H       8.30412325      0.85233554     24.32458641
H       5.28221320      9.13796610     23.63434269
H      11.22267411      3.12165523     23.11191390
H       8.95752969      6.51004117     24.38140333
H       0.55230772      6.87930846     22.41508292
H       9.38548289      4.79387134     23.39968796
H       5.29778687      1.04817469     24.22173119
H       9.83188104      9.84019940     24.00067961
H       4.80522429      3.13985526     24.53574169
H       3.51115785      6.05140140     24.25541315
O       8.79671258      9.62788454     24.31182827
O       5.63114037      0.10477665     24.38963834
H       1.09662373      3.08817181     24.11605778
H      10.31174955      6.68533922     23.57684113
Pt      2.93970200      9.22504940     26.81429760
Pt      5.61780909      9.20998557     26.46223884
Pt      8.44189135      9.19360875     26.44514423
Pt     11.21624861      9.21658647     -0.07370934
Pt      8.49941876      4.46868075     26.74412392
Pt      4.21771065      6.81337023     26.73377294
Pt      9.93253969      6.84754667     -0.02814759
Pt      6.99765565      6.78896860     -0.25035502
Pt     11.33379990      4.33227351     -0.20037767
Pt      1.51222520      6.85599151     26.71581148
Pt      9.97349001      1.94394515     -0.01461236
Pt      7.15015279      2.06220041     -0.13293892
Pt      2.79829038      4.43344390     26.86623794
Pt      5.64973917      4.41215378     26.68633808
Pt      1.45475377      1.92265406     -0.04998514
Pt      4.28056741      1.91260434     -0.07198409
H       8.26518604      2.19748991      9.25614500
O       3.59953778      5.94868856     18.07426911
H       2.88570919      6.21473510     17.42405453
H       3.69922903      6.70215850     18.74344679
O       6.21055664     -0.02620516      9.05314301
H       6.55646068      8.79968799      9.34620492
O       5.00610059      4.96870623     10.65977510
H       4.93210406      5.77328313     11.20664492
H       4.21942018      4.98017049      9.91449402
H       6.47913073      2.59595671      9.07388469
H       8.21344850      1.05575533     11.67387914
H       9.43215027      2.11396213     11.65720515
