   245
 Tv_1:  11.152900   0.000000   0.000000 Tv_2:   0.000000   9.658700   0.000000 Tv_3:   0.000000   0.000000  26.829700
Pt      5.44807896      8.14762974      2.00547363
Pt      6.97244248      0.80491513      2.28876029
Pt     11.18856193      7.86646270      2.26705485
Pt      8.15292025      8.22463325      1.87728422
Pt      8.47969986      3.10050429      2.27755220
Pt      2.88698081      8.02060758      2.25223040
Pt      9.88787495      5.50177040      2.16381282
Pt      7.12538223      5.65447003      2.19691014
Pt      5.76226536      3.13032892      2.23130908
Pt      4.29153620      5.64553965      2.23052817
Pt      9.83748403      0.63963972      2.31239554
Pt      1.54597680      5.51312978      2.41149905
Pt      1.49646378      0.74254673      2.30488047
Pt      3.02872919      3.22878128      2.30312516
Pt      4.17430006      0.75870979      2.24658935
Pt     11.27042115      3.07470300      2.21328054
Pt      5.88101536      6.52037087      4.47190876
Pt      8.69412471      6.59012114      4.23487854
Pt      7.23200984      8.99208185      4.51055507
Pt      7.25945222      4.11819273      4.49737830
Pt      8.74692916      1.62637676      4.59680079
Pt      5.87514820      1.75613786      4.62898576
Pt      9.98282796      4.13995948      4.53510935
Pt     10.04341058      8.86618802      4.53095090
Pt      1.72382297      8.85131985      4.63110988
Pt      0.32097195      6.44784736      4.63286318
Pt      3.09664014      1.58815449      4.75603951
Pt      3.24658620      6.52535426      4.57067782
Pt      4.52082167      8.99222840      4.60576580
Pt      4.50362163      4.07375525      4.65664883
Pt      0.30056074      1.62133755      4.54053704
Pt      1.66458931      3.98273881      4.62621547
Pt      7.45258493      2.81576222      7.00001649
Pt     10.52565179      7.42393826      6.89850306
Pt      8.93487506      5.11371758      6.91756660
Pt      9.05203079      0.21887158      6.94504137
Pt      6.12468453      0.30137852      7.05001038
Pt      3.44952239      5.08272981      6.96514928
Pt      3.36005313      0.19986232      7.14307493
Pt      7.61601610      7.55428750      6.86573582
Pt      4.72269530      2.75119892      7.08317000
Pt      1.81884326      2.64986874      6.94971899
Pt      0.69395364      5.06206313      7.00249818
Pt     10.25315043      2.76584355      6.86566975
Pt      6.11449410      5.20240791      6.85124764
Pt      0.61759536      0.07652311      7.09187570
Pt      2.13135761      7.49326972      6.90397313
Pt      4.83135259      7.50376751      6.89785025
O       7.77247744      6.09113200      9.59426968
O       2.09980815      7.45968842      8.98331621
O       0.55813391      4.90318718      9.02497044
O       6.61423306      0.91287913     11.44488610
O       0.35282871      0.45296897      9.14796861
H       2.59808654      8.34791665      9.18804919
O       8.94930430      0.42890448      9.04717071
H      10.48204198      0.55338416      9.29820865
H       1.36090805      5.33649700      9.34910470
H       1.26529855      3.40791858      9.23901203
H       8.28949326     -0.25669759      9.13854923
C       8.14662361      6.15803054      8.47099918
H       2.70449506      6.73018435      9.38523219
O       7.55400749      2.69206717      9.13629686
H       8.36471842      7.04856730     12.50748657
O       4.82316628      2.62866732      9.07347437
O       1.69072183      2.51843686      8.96680041
H       1.11413024      1.72449693      9.24892324
H      -0.84850346      7.81593548      9.74689205
O      10.18344730      7.05587915      9.04997854
H       3.87752526      2.53754683      9.33730262
O       5.46879269     -0.69112478     14.33705172
O       3.29542303      5.18987788      8.99564920
H       8.56625606     10.48038043     15.92488465
H       6.42581776     -0.77367780     14.55493522
H      -0.30777462      6.36460565      9.32167038
H       7.27157401      7.83483210     11.74554452
H       5.33625104      8.78521145     13.38203541
O       8.13863120      7.90706241     12.20996828
O       8.45880104     10.05277560     15.04145359
H       4.08730415      4.82543322      9.48583771
H       8.19354607      2.84239658     13.46268659
H       8.77497618      9.12422174     15.25851668
H       8.66448534      0.85140006     13.59474597
H      11.10768856      8.44367194     11.63080339
H       6.99354595      3.61905027     14.13805829
O      10.28681458      8.51883319     11.03041697
O       8.64735276      1.27168635     12.63344653
O       7.93966899      3.72737160     13.94261129
Cl      4.87288417      7.41953947     11.50638101
H       4.98806296      3.17075862     11.62556327
O       9.64600696      6.02451330     13.74815685
H       9.15504411      5.19922984     13.87042922
Cl      1.19173878      5.05337804     12.11340888
O       5.26663873      3.52461913     15.20377617
H       9.46733788      8.14707424     11.46094696
O       4.74130784      2.30531597     12.10508278
H      10.49351542      5.83169585     13.27867380
H       4.74567522      3.99589169     14.56506171
H       4.85907907      2.66704891     15.21179443
H       9.56868183      1.35194804     12.23212026
H      11.48443620      3.31569222     12.15211259
O       3.47997796      5.35620479     13.84634826
H       3.95579909      6.20259473     13.62798414
H       2.92299483      0.76937609     10.36371859
H       5.75489694      1.58282374     11.66605523
H       4.25160080      0.45654986     15.25358915
H      -0.50389370      4.24581009     16.40378683
H       2.74557032      5.24162648     13.10786418
H       8.41061246      3.74004738     15.46207555
H       2.88964601      1.11447523     15.25031893
O      11.32330236      2.30880898     12.20590794
H       0.99457192      1.91524865     11.90290086
O       0.40941401      4.09356418     16.58806305
O       3.56026129     -0.11033999      9.20192953
O       3.68616734      1.07481361     15.76041358
H       0.96696656      4.84877293     16.25723601
H       0.95963865      8.22405508     13.55061757
O       8.58219131      3.91062962     16.44856012
O       0.87426184      1.60177851     14.84844320
O       1.26277388     -1.60815787     12.67119172
H      11.84152946      1.85638131     13.90537935
H       8.39241089      4.93728908     17.33238777
O       8.32070539      5.88446105     17.78927048
H       4.50723392     -0.17621845      9.52118713
H       8.46065387      3.00920597     16.86576181
H       3.33023891      1.19037863     17.53971320
H       2.78242724      2.10421268     18.65149674
H       1.10106548      2.41592436     15.36854645
H       7.37417845      6.12819496     17.68622543
H       8.99434581      7.06706544     16.68831014
O       3.18656743      1.20425870     18.55297566
H       1.30512306      7.02582035     12.52442113
H       5.36581177      4.51715251     16.63613276
H       5.06490926      2.17090500     18.87268284
O       9.35382858      7.59864878     15.89578532
O       5.84484390      2.72016779     19.01707406
O       2.57277650     10.69281117     11.26467321
H       9.49867502      7.02815778     15.11461226
O       5.51902545      4.83647351     17.56548894
H       3.87302540     11.60115065     11.74788768
H       5.70260458      3.53490435     18.37187689
H       2.41946836      9.83157927     11.71782273
H       7.49815891      1.74342734     18.21760793
H      11.00390142      8.36451167     15.74089591
H       4.67362377     -0.23922107     19.80796483
O       8.22925347      1.42234401     17.60527344
H       4.84721687      5.57194181     17.78107778
O       0.83909369      8.45711127     15.50664362
O       4.51490013      8.44851354     19.99212420
H       4.71346552      8.40138435     20.97576413
H       9.01854424      1.21577941     18.19289524
O      11.34488505      4.05115278     19.07951158
H       0.88278720      9.42111124     15.24223906
H       1.65352865      3.88778633     19.56464562
H       1.38082260      6.87835908     15.60757238
O       9.58267218      6.11855671     20.23533387
H      11.62611124      4.19441956     18.11140654
H       3.03951067      4.56704308     19.23804687
O       2.63711929      3.68847450     19.59202503
H       8.87764533      6.67628876     20.74971566
H       7.33614146      2.01583988     21.61477442
H       2.53533122      5.90575966     15.17945748
H       9.06974190      6.15212762     19.39912688
H      10.71733004      4.70802451     19.42539842
O       1.92173323      6.13907425     15.91061557
O      10.39497365      1.39944148     18.99187848
O       6.49045760      2.46112054     21.87346803
H       1.80667453      9.55875381     18.29496854
H      11.34539275      7.11847100     20.33916098
H      11.07315648      0.70254279     18.67999353
O       9.41201980     10.83727752     21.65150797
H      10.88979188      2.26087227     18.81773053
H       9.84158460      1.20330841     20.75364361
O       0.92228225      9.15950595     18.41222180
O       1.04118132      7.34477756     20.72701946
H       6.00893443      2.69940051     21.10814137
H      10.17544503      1.19694568     22.29867022
H       8.49446913      8.72526089     21.98627823
H       2.63798118      3.68767605     21.24221180
H       1.22626618      8.07368495     20.06164356
O       8.27273402      7.77720839     21.94882559
H       0.74198032      8.80368000     17.50505368
H       6.33849816      7.54979663     22.56294439
H       8.92972457      7.44032963     22.67475551
O       2.85364014      3.81996595     22.19654979
O      11.40030716      0.25869062     23.72656308
O       5.39042835      7.81580860     22.70412749
O       7.35833369      2.52044593     24.27590937
H       9.05800190      4.29305296     22.10167306
H       1.95138245      4.03141213     22.57766341
H       4.82983657      7.01983160     22.98549022
H      11.85817393      9.09874859     23.42913302
H       6.78451137      2.67154300     23.42482425
H       8.17746538      3.05461115     24.24109082
H       3.28420069      2.41901020     22.99504446
H      12.06792256      0.94034141     23.83006130
H       3.76578464      5.21193968     22.78878277
O       1.36891020      7.70411032     23.12291344
H       2.18714673      7.34162204     23.58256562
O       3.73686082      5.87168657     23.53270570
O       3.56730682      1.80756319     23.72155008
O       9.32046191      4.22320476     23.03923477
O       0.75852022      3.30146681     23.62261266
O      10.15844601      6.68692433     23.61257621
H       8.31176151      0.90801709     23.99775817
H       5.21001876      8.97992205     23.76037901
H      10.96540746      3.52247680     23.42772833
H      10.25351810      6.82410406     24.55463018
H       1.41453482      7.55093190     22.05498974
H       9.64469166      5.13589851     23.31735463
H       4.72863337      0.92557898     23.97847034
H       9.76360063      9.84506363     24.20044333
H       2.93577313      1.53546090     24.39592417
H       3.82057801      5.41060397     24.42666181
O       8.78562586      9.67583823     24.22614716
O       5.32511792      0.13306021     24.33615468
H       0.92168316      3.85889416     24.45934797
H      11.11394920      6.84081149     23.33238282
Pt      2.81882572      9.40865143     26.73511532
Pt      5.45829480      9.25163810     26.40544632
Pt      8.39018632      9.23238191     26.26356064
Pt     11.20229334      9.37891388      0.01134115
Pt      8.43687490      4.53969752     26.70243409
Pt      4.07078018      6.87334423     26.59003521
Pt      9.84471102      6.90552123     -0.04292260
Pt      6.87834374      6.83638791     -0.29670373
Pt     11.15141238      4.57079508     -0.04709120
Pt      1.45562925      6.94454790     26.67951978
Pt      9.83209833      2.04600889     -0.01657860
Pt      7.06902517      2.04977562     -0.02008224
Pt      2.78138414      4.47705406     26.83744280
Pt      5.61187167      4.48663830     26.60555685
Pt      1.36786116      2.14839208     -0.03203109
Pt      4.29403278      2.08028622     -0.00389267
H       8.04384369      1.75408422      9.35098326
O       3.55603206      6.44645528     18.50034886
H       2.93903619      6.64673896     17.76943379
H       3.84559523      7.34171265     18.84034377
O       6.27814841     -0.38160942      9.09358797
H       6.11466476      8.29158557      8.99466591
O       5.63749916      4.53731661     10.86724063
H       5.26064437      5.32273334     11.36410146
H       6.53807697      4.79209405     10.52995388
H       6.58233667      2.51504781      9.25897344
H       7.50188818      1.14071883     11.86747190
H       6.66047740      0.47733654     10.48201242
