   245
 Tv_1:  11.152900   0.000000   0.000000 Tv_2:   0.000000   9.658700   0.000000 Tv_3:   0.000000   0.000000  26.829700
Pt      5.81912185      8.00212175      2.06569313
Pt      7.17772718      0.89424390      2.15216461
Pt     11.42364659      8.05634511      2.17022824
Pt      8.56242833      8.10225165      2.23512671
Pt      8.62715902      3.23246237      2.28170459
Pt      3.00146622      7.91720896      2.33376844
Pt     10.08973989      5.63225753      2.31652152
Pt      7.17699133      5.63058125      2.20443828
Pt      5.84118765      3.25295262      2.23793802
Pt      4.36803003      5.56325818      2.33190703
Pt     10.08829419      0.78718008      2.19301943
Pt      1.65081892      5.50795139      2.29422174
Pt      1.68116921      0.70106948      2.30562367
Pt      2.99818608      3.10873225      2.28107490
Pt      4.40298797      0.84485539      2.24002134
Pt     11.33664506      3.17696085      2.31029724
Pt      5.89273907      6.59769898      4.37087275
Pt      8.67212876      6.65103029      4.49071951
Pt      7.27140505      8.96204902      4.50450220
Pt      7.20411853      4.13952340      4.49349115
Pt      8.49758351      1.71656622      4.40338450
Pt      5.81349828      1.62442093      4.54233918
Pt      9.88025801      4.15828713      4.52881356
Pt     10.05344598      8.93150929      4.46949029
Pt      1.64220190      8.88022679      4.53866437
Pt      0.39755749      6.39770293      4.52767912
Pt      2.93649154      1.66836906      4.64668748
Pt      3.14183623      6.36284799      4.66992959
Pt      4.45968694      8.94178594      4.57892403
Pt      4.47354531      4.02170940      4.57073835
Pt      0.21902801      1.59621540      4.52364964
Pt      1.57888255      4.07399770      4.67433680
Pt      7.18307257      2.56939880      6.82141891
Pt      9.99635711      7.50238069      6.83904271
Pt      8.59897549      4.98752022      6.94669358
Pt      8.42180841      0.15556220      6.76343652
Pt      5.73280663      0.04569560      6.98871642
Pt      3.00065481      4.91665401      7.04757822
Pt      3.04092057      0.10050610      6.99370802
Pt      7.34999166      7.37687340      6.91943473
Pt      4.27742042      2.49196787      6.85747436
Pt      1.48715443      2.48064356      6.88807254
Pt      0.22042062      4.89003531      6.99417992
Pt      9.97815830      2.56434238      6.70532957
Pt      5.73261689      4.95724046      6.68359267
Pt      0.16992002      0.14107818      6.79967141
Pt      1.56787976      7.31043062      6.84323311
Pt      4.39077818      7.33299186      6.83023237
O       7.40491512      6.00494584      9.57420243
O       1.80083941      7.35175969      8.93186129
O      -0.05535374      4.98569834      9.07075551
O       6.50280283      1.30447416     11.55784990
O       0.08710550      0.22182147      8.97776914
H       2.51575053      8.18376609      9.03198278
O       8.62306441      0.44530418      8.79432625
H      10.21992763      0.25713856      8.92847684
H       0.86493116      5.22742032      9.35602283
H       0.58396071      3.20852176      9.12362878
H       8.23275588     -0.36319846      9.27427654
C       7.69497212      6.09317465      8.43147552
H       2.37284118      6.50733940      9.04652723
O       7.17118072      2.60966952      9.01007250
H       8.41977983      8.60615106     11.60855083
O       4.57522759      2.42620849      8.85379621
O       1.21942679      2.47758697      8.86732244
H       0.53557475      1.19928126      9.13528592
H      -0.57460284      7.71538592      9.42990162
O       9.88635197      7.20812103      8.88396738
H       3.82356250      2.80413906      9.29318046
O       5.61578536     -0.86598461     14.81696086
O       2.90200146      4.95083347      9.11450466
H       8.42524876     10.75836923     15.75846966
H       6.32092919     -0.25417712     14.52748465
H      -0.77950319      6.08056875      9.03374879
H       6.94254288      7.98313123     11.92439928
H       5.42330781      8.33254725     13.95460611
O       7.45188971      8.69450104     11.37943477
O       8.11661811     10.38159210     14.85492468
H       3.81102197      4.88049532      9.46772260
H       8.16219161      3.28599395     13.02505382
H       8.38095231      9.45940599     15.08435525
H       8.41089697      1.48407239     13.23877435
H      10.81016333      8.60230106     11.88773590
H       6.88713862      3.87642736     13.76524563
O       9.99575092      8.19492321     11.43058359
O       8.73760833      2.03823082     12.49954392
O       7.70747921      4.16554066     13.30434898
Cl      4.83075451      7.30158741     12.02559120
H       4.61470410      2.99600345     12.41721538
O       9.16883888      6.60496100     13.40912202
H       8.62254996      5.84787883     13.15772937
Cl      1.09691402      5.26389674     12.47873210
O       5.44665239      3.99386144     15.11586523
H       9.95959746      7.25485782     11.80894186
O       4.48822869      2.03384084     12.73655626
H      10.04210149      6.14018010     13.57541793
H       4.67241052      4.49508943     14.78158575
H       5.12751754      3.07035634     15.03941689
H       9.77793076      2.08297052     12.51797310
H      11.66250849      3.31547072     12.43066074
O       3.39075219      5.80980695     14.52104248
H       3.82471995      6.52409230     14.04507965
H       2.63863649      0.66610355     10.53378684
H       5.69236441      1.58448202     12.23254468
H       4.65116731      0.53270099     15.39467132
H      -0.13860112      4.12910181     16.19132084
H       2.59302393      5.60591337     13.95030154
H       8.64238267      4.06856759     14.82665797
H       3.45342088      1.50048936     15.26381066
O      11.51828837      2.31631040     12.42394041
H       0.98396728      1.76089318     11.89337346
O       0.70491515      4.02687283     16.72453049
O       3.10415611     -0.23536649      8.94418297
O       4.29044309      1.40238269     15.78335376
H       1.33824081      4.85803281     16.62251033
H       0.98649322      8.66801281     13.73906110
O       9.24057467      4.00724391     15.65647579
O       1.44015937      1.81104467     14.87762489
O       1.10031718     -1.10014930     12.65749882
H      12.21057960      2.10515395     14.01346612
H       9.04857584      5.13880423     16.90069633
O       8.81725709      5.61737035     17.74868705
H       4.18911006     -0.26009309      9.11384477
H       9.04902324      3.21223966     16.10884511
H       4.03688068      1.10499044     17.38413029
H       3.68482549      2.11527223     18.61989932
H       1.14094116      2.42376339     15.55837211
H       7.78260577      5.53422520     17.76392387
H       9.09323740      7.32320301     16.68334594
O       3.84580781      1.17066700     18.38833327
H       1.32237161      7.61347948     12.53599880
H       5.76560088      4.61996848     16.59835889
H       5.71234048      1.93024886     18.87428739
O       9.38266890      7.94613237     15.90959258
O       6.53812649      2.52541210     18.70390259
O       2.41981135     10.57216583     11.48831348
H       9.19472299      7.37669413     15.08548637
O       6.04299136      4.86103426     17.50766547
H       3.69189001     11.27241573     12.21173096
H       6.18965834      3.45877042     18.48880762
H       2.31299956      9.71480497     11.99427561
H       8.03881496      1.91060622     17.88102256
H      11.03337194      8.51305773     15.59916786
H       4.22955272     -0.44500107     19.43640194
O       8.74786418      1.74383070     17.20758125
H       5.29271873      5.35298205     17.90738151
O       0.78543193      8.69454606     15.29938614
O       4.18400611      8.33796372     19.92289804
H       4.81427906      8.44678500     20.71860116
H       9.51747032      1.44845842     17.88409203
O      11.59780599      3.49708207     19.42292570
H       0.95167155      9.63301977     15.35541605
H       2.15505514      3.55441851     19.72148545
H       1.76213990      7.29045691     16.67722500
O      10.21677357      5.99936218     19.82670664
H      11.65175485      3.74738917     18.46684015
H       3.36341870      4.42799168     19.38162444
O       3.13560960      3.55655311     19.75528460
H       9.59283868      6.29396645     20.52876175
H       7.69144708      2.91536299     20.46624073
H       2.73857935      6.36101843     15.90394136
H       9.62016978      5.90647174     19.04746757
H      11.10970198      4.20911254     19.91454349
O       2.19971575      6.43845546     16.73950415
O      10.40518388      0.73357479     19.14247122
O       8.65018533      3.26345015     20.51114949
H       2.13301878      9.75058148     18.59845282
H      11.59059581      6.59711098     20.48658758
H      11.10697021      0.14828505     18.76863184
O       9.46686299      9.58851478     21.68122483
H      10.84423300      1.55663674     19.41760120
H       9.83586517      0.30864673     20.83463737
O       1.44326571      8.99969837     18.63938527
O       1.21252891      7.16006553     20.84533564
H       8.86567069      3.67892419     19.64190684
H       8.79037401      0.55797209     21.92880258
H       8.67848132      7.81976643     21.74944727
H       3.42369691      3.49422311     21.31837436
H       2.05657694      6.60184477     20.77443199
O       8.16608144      6.95532874     21.80101218
H       1.50764027      8.44707299     19.44172226
H       6.27853881      7.63789103     22.23159276
H       8.45963328      6.59258728     22.62006261
O       3.37105133      3.66033013     22.32967804
O      11.41826956      0.00817499     24.54155537
O       5.44330286      8.02708305     22.41250965
O       8.05652394      2.06396198     23.26877106
H       9.94334167      3.57957375     21.89579052
H       2.64407427      3.13400484     22.74311758
H       4.82029267      7.30185609     22.61921474
H      11.82339809      8.82285435     23.98319581
H       7.28454381      2.65052697     23.36127229
H       8.80767861      2.69816770     23.03002032
H       4.76945097      3.34096610     23.13769100
H      11.94256958      0.86402343     24.24352727
H       3.44672567      5.48793435     23.12983399
O       0.85113714      7.44575967     23.34101577
H       1.62477596      7.00701758     23.72037823
O       3.56910619      6.35909850     23.54616643
O       5.51392586      2.99457643     23.76334932
O      10.29411471      3.61373425     22.80326860
O       1.22018410      2.20296134     23.67612140
O       9.76196801      6.13273602     23.73255087
H       8.47017151      0.77609639     24.14158716
H       5.61666420      9.21940317     23.79250951
H      11.56023488      2.69436377     23.32787345
H       9.49107733      6.19625136     24.69324709
H       1.02764255      7.53325498     22.32151320
H       9.97118319      4.54950598     23.13190258
H       5.64122385      1.06736947     24.29671765
H       9.83932531      9.58915612     24.47144594
H       5.56154739      3.49168799     24.59582709
H       3.81754629      6.08376489     24.44377803
O       8.84818200      9.59178365     24.54804433
O       5.96698991      0.21080608     24.46432889
H       1.47290789      2.67478634     24.50634089
H      10.56051087      6.66016643     23.69019704
Pt      3.05109401      9.37474490     26.74622483
Pt      5.74358509      9.44636591     26.59880967
Pt      8.71901435      9.38328325     26.69247479
Pt     11.41034690      9.35546693     -0.17982469
Pt      8.71779437      4.52147100     26.76964264
Pt      4.46810681      6.91817327     26.70226953
Pt     10.10813197      6.96565614     -0.06666073
Pt      7.23016814      7.02038290     -0.20999015
Pt     11.54084717      4.62216160     -0.20822084
Pt      1.71866677      6.99624350     26.79768101
Pt     10.20371937      2.20813542     -0.14818655
Pt      7.43928658      2.21652426     -0.13994517
Pt      3.13831953      4.67006959     26.77487456
Pt      5.91501194      4.59911735     26.68435334
Pt      1.68146606      2.20909642      0.09891681
Pt      4.58066447      2.19700949     -0.13025868
H       7.55723816      1.63788080      9.13841757
O       3.70798135      5.95714278     18.81213630
H       2.97090436      6.17157993     18.15071187
H       4.06255335      6.85507307     19.13181421
O       5.63957325     -0.29232913      9.02966132
H       6.04055908      8.55477206      9.43996836
O       4.96364554      4.34639860     11.58681466
H       4.78863461      5.34410343     11.87191461
H       5.89951930      4.43234466     11.33516594
H       6.18241238      2.57219126      9.17856988
H       7.29658187      1.84051094     11.82473567
H       6.86455169      0.25602075     11.52339747
