   245
 Tv_1:  11.152900   0.000000   0.000000 Tv_2:   0.000000   9.658700   0.000000 Tv_3:   0.000000   0.000000  26.829700
Pt      5.57779816      8.08176679      2.12599436
Pt      6.95093075      0.89338872      2.25181887
Pt     11.18571617      7.98998605      2.24773889
Pt      8.29416428      8.05426412      2.04713841
Pt      8.47781395      3.13105564      2.34018628
Pt      2.88346541      7.95146173      2.23934365
Pt      9.83772404      5.57769572      2.18387614
Pt      7.04235065      5.68241341      2.22165646
Pt      5.72474336      3.24205719      2.30801124
Pt      4.27859909      5.60616264      2.25313783
Pt      9.78063839      0.68546234      2.32378698
Pt      1.51281319      5.52374341      2.30726567
Pt      1.36816628      0.69269794      2.39196140
Pt      2.85574328      3.16418120      2.37871127
Pt      4.07882013      0.72678861      2.29218272
Pt     11.24359816      3.15719406      2.39956583
Pt      5.79672538      6.41198146      4.49239641
Pt      8.66913018      6.60873280      4.45399968
Pt      7.29525591      8.92195032      4.47410336
Pt      7.30193963      4.10837521      4.53026958
Pt      8.73728294      1.62065268      4.56279019
Pt      5.90179269      1.61457802      4.67131441
Pt     10.08259253      4.18525032      4.54330822
Pt     10.03792894      8.90454190      4.53321384
Pt      1.66256289      8.96447267      4.57133421
Pt      0.29367592      6.52775383      4.52912425
Pt      3.14229457      1.66658062      4.63931192
Pt      2.98018418      6.54023934      4.59275316
Pt      4.50675214      8.97960676      4.52675086
Pt      4.39401314      4.04326084      4.63251975
Pt      0.39508404      1.69195891      4.65664620
Pt      1.68853546      4.10381640      4.64663158
Pt      7.64912875      2.57818057      6.91309216
Pt     10.51598472      7.50291953      6.92428213
Pt      8.84041017      5.05945107      6.91311377
Pt      9.10726969      0.15885394      6.98403022
Pt      6.26963210      0.14968129      6.99620889
Pt      3.36659007      4.95172890      7.12896777
Pt      3.52216946      0.09278204      6.91053289
Pt      7.72588692      7.50021204      6.89073141
Pt      4.75235061      2.60387079      6.91462380
Pt      1.86272979      2.61152976      6.96173407
Pt      0.53800115      4.95144970      6.83574544
Pt     10.34545658      2.57491100      6.83352738
Pt      6.09713642      4.91892127      7.03587443
Pt      0.82282145      0.10778753      6.94503825
Pt      2.05669777      7.34424389      6.94942837
Pt      4.80350899      7.29821479      6.82015783
O       7.87894722      6.25043001      9.54550451
O       2.17709127      7.37548074      9.21923891
O      -0.03856316      5.08229460      8.88536028
O       7.21357155      1.54729434     11.55501600
O       0.59974522      0.33295170      9.06065046
H       2.91964336      8.11547135      9.30632623
O       9.12990599      0.32909999      9.07399736
H      10.64629561      0.44363241      9.14702651
H       0.62641145      4.95812100      9.61214560
H       2.20156413      3.45722006      9.32646812
H       9.18413332     -0.62941389      9.39930699
C       8.00960763      6.17187295      8.34070792
H       2.52866285      6.47923949      9.52290847
O       7.63902512      2.63110241      9.11429162
H       8.13293081      8.28228340     12.00701534
O       4.98617489      2.64676831      8.93602815
O       1.77920736      2.67016082      8.95328459
H       0.86180576      1.29410138      9.18639934
H      -0.03925306      7.71045247      9.36771464
O      10.31410620      7.45355223      8.92086699
H       4.49432660      1.90817236      9.41585910
O       5.92900200     -0.64296916     14.74620677
O       3.12792124      4.94543361      9.19106568
H       8.69790869     10.01947160     15.71184154
H       6.92517448     -0.55853356     14.59902275
H      -0.35960359      6.06829448      8.91377773
H       6.51086419      8.28237340     12.04353291
H       5.48192874      8.76218967     13.91266825
O       7.29394409      8.71814749     11.68953386
O       8.59594339      9.50260273     14.88228893
H       4.01874268      4.76799658      9.52357583
H       8.43515792      3.24464940     13.39831856
H       9.22051839      8.71938315     14.94838369
H       9.28533282      0.98536139     13.94876413
H      10.56670575      8.61215254     12.00511438
H       7.22723654      4.11683413     13.85558366
O       9.77518478      8.23424596     12.34682502
O       9.40121378      1.81687029     13.41003688
O       8.16028083      4.20554890     13.52400630
Cl      4.36969637      7.74047984     12.15679442
H       5.18928826      3.43885236     11.80457570
O      10.46706706      5.64985588     13.35068144
H       9.59994835      5.27587181     13.09519103
Cl      1.29834472      4.67236274     11.46547672
O       5.44590537      4.08293982     15.15869201
H      10.08963212      7.36271271     12.65915616
O       5.11673562      2.54976538     12.20979967
H      11.17334186      5.28543926     12.77417374
H       4.84923996      4.58786788     14.47581878
H       5.22621353      3.09564400     15.21078892
H      10.38716367      1.91187135     13.24414231
H      12.53746251      2.78467649     12.47887500
O       3.47329768      5.40315208     13.73059687
H       3.76753673      6.17605986     13.23741942
H       3.12248855      0.81665762     10.31694597
H       6.21400400      1.97446907     11.89231123
H       5.22800402      0.70152322     15.49112507
H      -0.05663304      4.13884289     16.48844556
H       2.79793237      4.93996415     13.16262446
H       9.25943246      4.02982589     15.05864587
H       3.85633862      1.42235985     15.85319294
O      12.23467775      2.09768232     13.14848979
H       1.42307982      1.30760663     12.80595449
O       0.77145290      4.22034272     17.05757331
O       3.59506820     -0.34642230      8.96348939
O       4.78522719      1.31896794     16.18020167
H       1.13025281      5.10648808     17.00386560
H       1.77533168      8.77681472     13.34921550
O       9.52282365      3.92476390     15.98834892
O       2.08948939      1.98582123     15.50548141
O       1.53407033     -0.69672051     12.43229226
H      12.69530175      2.13922543     14.64977532
H       8.88958589      5.21315275     17.09781646
O       8.70247776      6.08118499     17.56956909
H       4.62009877     -0.39977277      9.14417092
H       9.30479735      3.01120272     16.25216740
H       4.74890466      1.22270940     17.74736912
H       4.37099279      2.03350439     19.00025204
H       1.82732384      2.78254424     15.96733205
H       7.74351771      6.15349332     17.58851992
H       9.30194576      7.16453622     16.14881976
O       4.86549381      1.22159759     18.77738629
H       1.95427045      8.23526674     11.97620675
H       5.44673177      5.04766843     16.63950749
H       6.19243356      2.28663080     18.86904545
O      10.03810838      7.52407016     15.52678543
O       7.03796044      2.81744769     18.63956794
O       3.07805297     10.76290457     11.31825148
H      10.30337741      6.70496777     14.98699888
O       5.84400648      5.08211421     17.57157746
H       4.33277365     11.73944173     11.75497164
H       6.70879302      3.67304386     18.33848396
H       3.33803827      9.91986996     11.83454174
H       8.25972040      1.94968034     17.52036389
H      11.83878326      8.72422925     16.00507751
H       4.30015009     -0.42657896     19.48596859
O       9.04857557      1.56179170     16.99411281
H       5.35181584      5.70096259     18.13205133
O       1.50551498      9.06980322     15.66679567
O       4.13258396      8.41692132     20.04725221
H       4.52771590      8.50543730     20.95160798
H       9.71604683      1.34149363     17.74155730
O      11.36718869      3.58140540     19.48030770
H       1.50685807     10.04596797     15.87441608
H       2.38707614      3.21761040     19.28270066
H       2.24510498      7.61215280     15.85826482
O       9.20901848      5.78309798     20.29188951
H      11.65382673      3.89694878     18.49934275
H       3.36300256      4.52770665     19.44470720
O       3.13418846      3.58438241     19.74335537
H       8.57721778      6.52517775     20.75560886
H       8.32589740      1.87531040     21.03955078
H       2.77879182      6.14172011     15.39121143
H       9.12718907      5.77877620     19.33750053
H      10.46429358      4.03507321     19.59227406
O       2.42494132      6.67535626     16.18531887
O      10.83023219      1.14223717     18.85587147
O       8.02244975      2.79589327     21.14411253
H       2.25139502      8.81256140     19.87925216
H      10.80544496      6.29082950     20.79373080
H      11.60100237      0.46080519     19.06370179
O       9.25955823     10.23498423     20.74431048
H      11.07178146      1.96431634     19.29320514
H       9.90789981      0.88093820     19.99353497
O       1.25908054      8.83618488     19.68327128
O       0.63006429      6.34244603     20.82157142
H       7.64892264      3.03442376     20.21190469
H       9.92131915      0.51209745     21.52311782
H       8.35621945      8.55068464     21.13235336
H       2.83370007      3.84641128     21.37535262
H       1.07199778      5.55835498     20.39979479
O       8.04985417      7.75438001     21.61431507
H       0.84354239      8.00127779     20.05745878
H       6.37783914      7.75775379     22.30784714
H       8.53265376      7.44284499     22.45609582
O       2.63312458      4.04141013     22.35994667
O      10.64039475      0.07419061     23.46234475
O       5.46739941      8.03231503     22.44806639
O       7.12393158      2.52424035     24.42090180
H       8.58488407      3.65088061     22.13501300
H       1.81778368      3.49076719     22.51525918
H       4.85766144      7.40144823     22.91554218
H      11.46605132      9.14178377     23.53650168
H       6.18397487      2.86713902     24.20541541
H       7.72867986      3.23984515     23.98491009
H       4.04330931      3.18199491     23.01291185
H      10.95478236      1.03261980     23.59719253
H       3.22916824      5.52935841     23.01109575
O       1.01247140      7.44953661     23.30629068
H       1.84726148      7.25361284     23.79045665
O       3.80990639      6.19159239     23.50266763
O       4.64739656      3.01051994     23.82745542
O       9.02807428      3.83826632     23.08133639
O       0.19216978      2.55166854     23.64586225
O       9.56513269      6.53593351     23.43973308
H       7.91117323      0.90049273     24.37568183
H       5.35225305      8.90045730     23.74475815
H      10.41856731      2.97523075     23.42885395
H       9.16372324      6.73093170     24.30650476
H       1.22208093      7.11946300     22.33510695
H       9.14742207      4.84199313     23.20845018
H       4.83911170      0.83289855     24.25414524
H       9.26661959      9.63819184     24.01284950
H       4.16391661      3.33529690     24.53994826
H       3.82723347      5.97826666     24.42149105
O       8.30431494      9.63820311     24.39695211
O       5.38766895      0.02714040     24.46899127
H       0.42775668      2.73480677     24.60506018
H      10.47831950      6.88160231     23.42065651
Pt      2.62809047      9.42834840     26.77144573
Pt      5.33609030      9.32818573     26.56698270
Pt      8.43375549      9.35188837     26.54560762
Pt     11.10051592      9.38347935     -0.03618963
Pt      8.34348052      4.52282444     26.79929580
Pt      4.17636858      6.85947556     26.65782354
Pt      9.67794788      6.85150380     -0.16946367
Pt      6.94585564      6.90011891     -0.10945622
Pt     11.08534081      4.52655675     -0.09078558
Pt      1.27784576      7.00036432     26.75667909
Pt      9.60387577      2.15994758      0.05737880
Pt      6.95260647      2.16291396     -0.20863694
Pt      2.64702931      4.55120572     26.79834857
Pt      5.51503268      4.54802742     26.82871830
Pt      1.16997157      2.07347644      0.02800760
Pt      4.15296383      2.16767767      0.06034287
H       7.97209155      1.76299434      9.36376034
O       3.35143683      6.17513069     18.81566760
H       3.12662292      6.30223339     17.82142633
H       3.66032526      7.07095339     19.12307431
O       6.26201401     -0.16313037      8.98362871
H       6.68073495      8.62534904      9.15256256
O       5.59265090      4.79167104     10.89166143
H       5.38352799      5.75617667     11.10753708
H       6.45717760      4.78545359     10.43727353
H       6.60659585      2.48370938      9.22522610
H       8.03846701      1.74053205     12.11276891
H       7.17907124      0.37024117     11.68572434
