   245
 Tv_1:  11.152900   0.000000   0.000000 Tv_2:   0.000000   9.658700   0.000000 Tv_3:   0.000000   0.000000  26.829700
Pt      5.79685508      7.88648544      2.12576895
Pt      7.16386401      0.69902010      2.06641475
Pt     11.36433662      7.95576937      2.31624807
Pt      8.53378460      7.97235571      2.21713859
Pt      8.68356920      3.09877245      2.27942042
Pt      3.04342676      7.91928343      2.05447600
Pt      9.97164918      5.56279293      2.24622068
Pt      7.10822737      5.46568138      2.11444904
Pt      5.82853635      3.17508682      2.14422082
Pt      4.36483207      5.58163114      2.18035987
Pt      9.96524810      0.70338399      2.37277626
Pt      1.63831307      5.58620433      2.38022479
Pt      1.67612866      0.61626756      2.16713474
Pt      2.94226274      3.14243953      2.30788521
Pt      4.47629648      0.60073078      2.17237801
Pt     11.48749193      3.04747670      2.37504266
Pt      5.78020574      6.52590094      4.40550413
Pt      8.65057066      6.47981867      4.43372852
Pt      7.34247389      8.86178839      4.51389844
Pt      7.23698353      3.98894499      4.40014991
Pt      8.76160625      1.58488000      4.48539885
Pt      5.85262273      1.59192169      4.46905774
Pt      9.99285394      4.13913182      4.48440523
Pt     10.06162059      8.86221857      4.66079034
Pt      1.71577111      8.79441578      4.47642236
Pt      0.33650305      6.46261523      4.59925219
Pt      3.12578518      1.51998535      4.54438691
Pt      3.05077326      6.36155294      4.65123252
Pt      4.58139028      8.84889058      4.52956019
Pt      4.47595612      3.99623583      4.57118729
Pt      0.38922970      1.52922568      4.60582364
Pt      1.72856580      3.94705116      4.66059537
Pt      7.39134941      2.67230742      6.77921635
Pt     10.13574519      7.35671316      6.96702209
Pt      8.74418487      4.93627213      6.87627693
Pt      8.60003749      0.21845810      6.93813803
Pt      5.91279342      0.06016694      6.85355706
Pt      3.30534444      4.89985562      6.93889653
Pt      3.17756965      0.17186802      6.87601080
Pt      7.42081791      7.39414697      6.95531675
Pt      4.59594077      2.53831609      6.79175861
Pt      1.67301550      2.42712577      6.96909473
Pt      0.48488791      4.96597435      6.90151283
Pt     10.08075716      2.60317302      6.74319512
Pt      5.95880016      5.02175270      6.81961374
Pt      0.32403462      0.11410823      6.94267514
Pt      1.78554247      7.37295051      6.84058263
Pt      4.57719240      7.41350636      6.78507068
O       7.44331226      5.56043126      9.51076155
O       2.00490955      7.35963491      8.86784460
O       0.17961619      4.87495197      9.15193678
O       6.05914256      1.62353515     11.69029779
O       0.19737976      0.23557040      9.06012797
H       2.80456328      8.56125821      9.00875839
O       8.71631077      0.49525143      9.01835763
H      10.26478486      0.22549171      9.18623610
H       1.05670775      5.11562340      9.44534489
H       0.86247406      3.20159418      9.17349837
H       8.27359455     -0.26808342      9.43317633
C       7.54144891      5.74299753      8.32968198
H       2.62057357      6.53399578      9.09470879
O       7.21479605      2.76461435      8.90726956
H       7.44315058      8.18960848     11.42497427
O       4.80926745      2.74057257      8.84275471
O       1.43258674      2.44425150      9.01577191
H       0.57483656      1.16433691      9.25429322
H      -0.33504893      7.51419399      9.31641028
O      10.04829421      7.04576300      8.98430524
H       4.15297465      3.43140965      8.97994565
O       4.82168360     -0.40971664     15.47665737
O       3.24351489      4.85054074      8.96706518
H       8.13862414     10.20823163     16.35915120
H       5.75103083     -0.12041534     15.57534854
H      -0.35434215      5.78990216      9.26551155
H       8.04258056      7.42175103     10.23362646
H       4.68939693      9.11443855     14.48900320
O       7.30197512      8.01418455     10.41881773
O       7.85853322      9.94214598     15.42538919
H       4.05057976      5.35877520      9.21819204
H       8.14333190      3.49973703     13.70236921
H       8.12614886      9.02899604     15.26808645
H       8.26515803      0.95861770     14.10390173
H       8.77007770      8.96649531     12.77996661
H       7.16387032      4.38894633     14.61269121
O       8.11172380      8.30709876     12.84146929
O       8.31344291      1.43324684     13.17025543
O       8.12192092      4.27565669     14.33383946
Cl      4.19771845      9.08228497     12.41898266
H       4.86666874      4.53892908     11.48252634
O       9.59729484      6.26211604     13.44908588
H       9.00093230      5.56045678     13.62587408
Cl      1.29256277      5.50956803     12.19318153
O       5.44954395      4.54232020     15.10316512
H       8.54392858      7.42283334     12.86700794
O       4.73123311      3.73395745     12.00266547
H      10.42008167      5.90497651     12.96294345
H       4.80433780      5.17007316     14.64479525
H       4.89426592      3.64993264     15.22551565
H       9.25440302      1.67680861     12.89986384
H      11.30441870      3.75433943     12.67984494
O       3.51014246      6.24934206     14.17416887
H       3.72559985      7.07046866     13.65585665
H       2.16796305      2.15356352     10.67805994
H       5.33724819      2.60566227     11.80655343
H       4.41569887      1.32921338     15.56710743
H       0.27829857      4.09664729     16.80825693
H       2.86107425      5.79623038     13.50978612
H       9.00756804      3.85620451     15.66441524
H       3.30523767      2.21885754     15.44311392
O      11.14888509      2.90483987     13.08844920
H       0.58993225      2.36890473     12.52636914
O       1.13211443      4.24594807     17.19912311
O       3.30594965     -0.08059199      8.97971743
O       4.26500733      2.28604786     15.56836550
H       1.31596502      5.18474288     16.99771186
H       0.73947369      7.81901438     12.04486900
O       9.33059943      3.75269065     16.57720801
O       1.54318121      1.96535781     15.43780656
O       0.00031499     -1.34089700     11.61687964
H      12.17183697      2.40486684     14.76935679
H       8.98004209      5.11423821     17.34291323
O       8.69497635      6.06950966     17.69333586
H       4.40641344     -0.13722314      9.09868222
H       8.93062287      2.99497653     16.94367104
H       3.92565726      2.08052999     17.84615295
H       2.93481263      1.07875612     18.58015089
H       1.59032933      2.65257541     16.16870571
H       7.70748813      5.99137634     17.71711982
H       9.38578768      7.19620253     16.59234466
O       3.59508414      1.79335444     18.72189637
H       0.43631172      9.16460508     11.43837128
H       5.81757997      5.18237770     16.68971545
H       5.57789538      2.66202616     19.20791559
O       9.57239490      7.79269738     15.80765719
O       6.42569597      3.16128871     19.04494097
O       2.52773188     11.70376187     11.63471261
H       9.65712916      7.17066328     15.00936639
O       6.05677207      5.33461425     17.66760422
H       3.71107581     13.23029177     11.85963907
H       6.20584381      3.94237481     18.45730946
H       3.00800904     10.84698910     11.66986299
H       7.51496250      2.04998337     18.25852793
H      11.07859156      8.56408338     15.90824085
H       4.89430138     -0.04312567     19.42976105
O       8.14957145      1.61631974     17.71782446
H       5.24645823      5.87535080     17.93396611
O       0.83804873      8.87383334     16.18791043
O       5.12092314      8.69602412     19.47875200
H       5.32686042      8.53752746     20.45182012
H       8.96748364      1.44890228     18.32426990
O      11.11484677      3.97894627     20.48520473
H       1.11983700      9.66267671     15.68527722
H       3.02209529      3.17446825     19.64784809
H       1.77568916      7.64656331     16.31956753
O      10.06821859      6.33089657     20.08876439
H      12.05656132      4.16848046     20.11967501
H       3.21008951      4.81815059     19.67856865
O       2.79522652      4.04527097     20.10627306
H       9.41661128      6.76244156     20.71775443
H       8.33443284      2.27690230     21.39412432
H       2.70571409      6.57598720     15.65851407
H       9.61483605      6.29533091     19.19937550
H      10.72133779      4.88240115     20.24748795
O       2.10257833      6.68346458     16.50688177
O      10.36685717      1.74958606     19.33086371
O       8.12595541      3.26597494     21.29256768
H       0.95487197      9.76653203     17.94330849
H      11.49949800      7.20579790     20.20736191
H      11.20158910      1.16728755     19.34976218
O       9.55070368     10.16804689     21.50313687
H      10.61262859      2.68003646     19.61345927
H       9.84887864      1.10164325     20.69442392
O       1.35520987      9.82580346     18.89426711
O       1.29913604      7.53037766     20.16774286
H       7.47677207      3.23596395     20.41814011
H      10.17013045      0.76158620     22.23084056
H       8.89080895      8.71421268     21.54699655
H       2.49366307      4.07949268     21.76590755
H       1.87842298      6.78379447     19.85294263
O       8.38630820      7.84049259     21.84090477
H       1.41719986      8.90831933     19.27216920
H       6.80967067      7.74587144     22.12898058
H       8.92858791      7.72658464     22.65517735
O       2.66242290      3.94948247     22.78241635
O      10.97531213      1.06662452     23.70544968
O       5.83725824      7.92241045     22.25556117
O       7.21105700      2.40150575     24.46150144
H       8.49073416      4.16311267     22.42330558
H       1.73003818      3.74138437     23.06560775
H       5.42661192      7.07500582     22.45268502
H      11.74126411     10.13218752     23.87821702
H       6.36584652      2.67634665     23.94351648
H       8.02025716      3.00110466     24.20285622
H       3.90827956      3.00804791     23.02851721
H      11.25827634      1.94122788     23.43487592
H       3.09553812      5.56482417     23.22886967
O       1.21101764      8.05288039     23.11470494
H       1.98388987      7.45592189     23.44307384
O       3.29758128      6.48546738     23.38085323
O       4.73472928      2.61430176     23.48237397
O       8.78093174      4.37356334     23.43631761
O       0.05592444      3.44945109     23.03803048
O      10.06929052      7.33310382     24.06883990
H       7.77626907      0.75596672     24.44303593
H       5.65094727      8.75262420     23.60057575
H      11.18376357      3.71675349     22.06088220
H      10.33436330      6.42765171     23.79450577
H       1.36182646      7.93250219     22.17726701
H       8.13622864      4.89191025     24.00303851
H       5.36257229      0.64117997     23.82971235
H       9.24443592     10.00699030     24.33294108
H       4.54264738      2.77759451     24.50232310
H       3.63549420      6.49028690     24.29408754
O       8.36579123      9.64896231     24.54728811
O       5.70757483     -0.14962382     24.28884908
H      -0.77588341      3.84228089     23.42438602
H      10.98048517      7.82050264     23.83466064
Pt      2.86237816      9.35858503     26.57051593
Pt      5.61442659      9.38212298     26.54917675
Pt      8.50571413      9.31697496     26.61323469
Pt     11.19477008      9.32080346      0.01986046
Pt      8.53182947      4.54049547     26.76179861
Pt      4.26225914      6.88465417     26.58087177
Pt     10.04676396      6.80149055     -0.03685605
Pt      7.04105399      6.95030485     -0.15663892
Pt     11.32839216      4.46353489     -0.01777325
Pt      1.54869783      6.93147574     26.71035572
Pt     10.02890981      2.03195706     -0.09745892
Pt      7.21573613      2.16868643     -0.22874291
Pt      2.92771383      4.49899494     26.72953517
Pt      5.59770243      4.56238582     26.59446461
Pt      1.45245627      2.11920186     -0.21391220
Pt      4.15366029      2.11619622     -0.05070787
H       7.67274405      1.81600102      9.18890611
O       3.55003594      6.46182974     18.70955913
H       3.16904075      6.71710702     17.79491107
H       3.93365403      7.30700910     18.99127950
O       5.71050854      0.02142221      8.82525325
H       6.20571738      8.89700488      9.14251507
O       4.83669285      6.33437469     10.59197864
H       4.21896771      7.00626091     11.05537149
H       5.72892768      6.76417841     10.65589400
H       6.18338950      2.73297685      9.06848156
H       6.87592640      1.56225934     12.27147154
H       5.35208187      0.80436068     11.77289511
