   245
 Tv_1:  11.152900   0.000000   0.000000 Tv_2:   0.000000   9.658700   0.000000 Tv_3:   0.000000   0.000000  26.829700
Pt      5.82852083      7.98586474      2.11646250
Pt      7.34804036      0.74929396      2.09864788
Pt     11.41914852      8.02814547      2.33034416
Pt      8.63920533      7.97407962      2.28346939
Pt      8.61818953      3.05856533      2.30235597
Pt      3.07276300      8.04337224      2.32703494
Pt      9.90171938      5.53553804      2.25499967
Pt      7.15240528      5.44023509      2.15436982
Pt      5.84154562      3.06401628      2.18137246
Pt      4.40544666      5.56281498      2.25899001
Pt     10.04301168      0.71347357      2.26891206
Pt      1.55766931      5.54622902      2.31613626
Pt      1.68856676      0.78114485      2.36253061
Pt      2.99460031      3.20863866      2.40318022
Pt      4.46567737      0.78894663      2.29520648
Pt     11.39145937      3.20456655      2.25354077
Pt      5.84501938      6.46345730      4.47170674
Pt      8.65515009      6.53254127      4.49042530
Pt      7.21740199      8.90725115      4.51616215
Pt      7.27120289      4.10995619      4.50810226
Pt      8.73957025      1.58792032      4.56344583
Pt      5.97138768      1.68585082      4.60263066
Pt     10.01809784      4.13754285      4.59108976
Pt      9.99289079      8.88651754      4.60235062
Pt      1.66451530      8.93516951      4.65889050
Pt      0.23604948      6.47185346      4.65293099
Pt      3.13414125      1.68884216      4.67534001
Pt      3.00546623      6.42960824      4.52141530
Pt      4.50899754      8.91589757      4.54805430
Pt      4.49824962      4.06363405      4.54178534
Pt      0.22965415      1.66000549      4.58398290
Pt      1.71651959      4.07881106      4.62625514
Pt      7.22276823      2.45804983      6.95674288
Pt     10.13636366      7.36735385      6.83490103
Pt      8.66790239      4.94174526      6.89810765
Pt      8.57653718      0.09362003      6.86814991
Pt      5.76498933      0.10011000      6.95612087
Pt      3.16929854      4.98670979      7.02293170
Pt      3.03110357      0.09513966      6.87819919
Pt      7.34912286      7.34956737      6.89408255
Pt      4.37246244      2.60008852      6.96435344
Pt      1.66608520      2.56438258      6.90303111
Pt      0.30053879      4.92503264      6.94586361
Pt     10.00042414      2.53416856      6.87090208
Pt      5.87585439      5.02136960      6.86406982
Pt      0.23684527      0.08628001      7.02298550
Pt      1.74366295      7.31768217      6.87251072
Pt      4.43190016      7.38846634      6.74542552
O       7.44800439      5.83793895      9.44667325
O       1.70673855      7.52262045      8.97922423
O       0.22146079      4.99993043      9.06194354
O       6.46933882      2.53297047     12.09226730
O      -0.03543222      0.18757203      9.00961563
H       2.40841514      8.24272726      9.02989087
O       8.75262081      0.11368469      8.87303776
H       9.74386683      0.28629274      9.03415683
H      -0.38782578      4.35350739      9.49843016
H       1.26924939      2.98296736      9.33658671
H       8.28543685     -0.54554962      9.42773186
C       7.40526977      5.77996283      8.26772611
H       2.12396810      6.62414451      9.23410144
O       7.15761603      2.71497573      8.95105062
H       7.90223454      7.27637090     11.00284605
O       4.68532441      2.70579257      9.06040317
O       1.64302773      2.19744093      8.93141085
H       0.31216325      1.09628102      9.18103607
H      -0.48441206      7.85361243      9.48816515
O      10.04811674      7.20722216      9.03472563
H       4.09405681      2.28025618      9.72719027
O       4.38526234      0.13744756     16.27930717
O       2.98356020      5.23949928      8.97690826
H       7.87298192      9.88904156     16.22275626
H       5.33212215     -0.06702971     16.03336478
H      -0.56601364      6.33481054      9.24507729
H       7.68942036      8.70590891     11.50371746
H       4.17982719      9.34152380     17.11074543
O       7.67193140      8.16979705     10.70106182
O       7.22460081      9.30616532     15.73963230
H       3.87775364      5.48999720      9.29902035
H       6.97404895      3.93356791     12.98291485
H       7.27387937      8.40153694     16.22777695
H       7.44726003     -0.16791956     13.68350540
H      11.76991199      7.55901823     11.73891094
H       6.09283982      5.09108359     13.80955820
O      10.87504739      7.88822562     11.46658554
O       7.77369169      0.18834458     12.80009765
O       7.01677655      4.65761069     13.63951750
Cl      3.11772205      8.37298447     11.72558591
H       1.04163476      3.86731968     11.58186824
O       9.18499513      5.85244619     12.09476529
H       8.52843551      5.46908350     12.68598368
Cl     -1.28931930      3.07705702     10.44411980
O       4.39919687      4.79328945     15.18537289
H      10.22615189      7.18439120     11.77303417
O       2.02099893      4.06391134     11.37340827
H       9.34903595      5.05294924     11.46656552
H       3.80328814      4.95845691     14.38235913
H       4.19767451      3.90627104     15.49286677
H       8.75156360      0.18902569     12.95574931
H      10.00602742      1.06633342     11.69223799
O       2.89734075      5.45927035     13.17847910
H       3.14517947      6.22595853     12.59521373
H       2.53755717      0.76942366      9.17207398
H       2.17666129      4.43640822     10.49275293
H       3.87750053      1.75868841     16.27593249
H      -1.73609612      5.23798874     16.41162702
H       2.45456369      4.82559371     12.53066442
H       7.75775275      4.29360051     15.13056829
H       2.59920278      2.40665593     15.64660218
O      10.32281615      0.52683058     12.44276493
H      -0.63203734     -0.43365710     12.13570246
O      -1.11698376      5.81885860     16.94727671
O       3.11089804      0.01403992      8.92064508
O       3.23645060      2.49201532     16.38066920
H      -0.48426540      6.05095924     16.24622852
H       3.26027681      9.04768666     15.10500101
O       8.16470903      4.32974574     16.06737951
O       1.01578056      1.51851185     14.78571621
O       2.42146396     -0.79070686     14.59195795
H      11.42017912      1.61713479     14.19461407
H       7.17093140      4.75926734     17.41904778
O       6.72191939      4.79881931     18.39003179
H       4.53307031     -0.06591783      9.33954417
H       8.26382262      3.36450188     16.29679576
H       3.96247769      1.24289629     18.64073712
H       3.76398043      2.55430759     19.42480819
H       1.45160096      0.65931838     14.51072778
H       5.85797093      5.25972684     18.24588429
H       7.93966740      7.39778564     19.07901162
O       4.20230014      1.63205074     19.51428336
H       2.86501374      8.63891986     13.74531592
H       4.45495671      5.62809779     16.68640397
H       6.20600325      1.78853146     19.15622870
O       8.29436690      7.72510861     18.20309971
O       7.08026650      2.31360305     19.08145301
O       3.68512428     11.51821931     11.18265150
H       8.78544769      6.89460058     17.88133353
O       4.52202556      5.94333347     17.62911711
H       2.98810633     12.17283027     11.38841437
H       6.91514743      3.28280649     19.06165939
H       3.39093252     10.56321613     11.45456731
H       8.13928249      1.86823041     17.81974510
H       9.72355818      8.42995350     18.64183386
H       3.55338533      0.12629114     20.43091849
O       8.61009237      1.78681060     16.88216776
H       4.21149842      6.87201558     17.78685157
O      -0.50708251      8.87523106     18.90771496
O       3.30199040      8.85662442     20.62707083
H       3.69052685      8.68288957     21.53178023
H       9.61555925      1.72390344     16.90721725
O      12.08593655      3.88548410     17.64456027
H       0.06278977      8.18761824     19.33538682
H       2.08472223      3.92241855     18.81078139
H       1.66193661      7.56837375     15.52027185
O       8.68134951      5.43043586     20.29714075
H      11.33050390      4.54093520     17.50645944
H       3.36385403      4.83668213     18.73940403
O       2.87173709      4.28897671     19.34587489
H       8.30429890      5.91395979     21.06696792
H       9.04092968      1.55919282     21.47085495
H       2.22733732      6.13270234     15.74340593
H       7.83957212      5.02822209     20.03197429
H      11.78984512      3.02874564     17.21190651
O       1.58999861      6.74588350     16.09007475
O      11.19548061      1.31051692     17.18852808
O       8.47800901      2.39280032     21.49022609
H       1.84600730      7.70296337     20.56107773
H      10.33779292      4.66695318     20.38466059
H      11.14874699      0.45347044     17.72189286
O       9.75629337      9.76236793     21.40335087
H      11.70398654      1.14521516     16.35380298
H      10.22168725     -0.08581150     20.53551881
O       0.98321894      7.28303340     20.78831676
O       0.17213083      4.68297775     20.54808208
H       8.15621886      2.44790266     20.51449415
H      10.46383113      0.08965444     22.06028959
H       8.39668721      8.49473709     21.67044011
H       3.22270425      4.33678525     21.03124005
H       0.58236129      3.89084987     20.24171048
O       7.71811462      7.83463082     22.05185706
H       1.04700993      6.35338365     20.45383090
H       5.89675383      7.89183936     22.47992541
H       8.23838538      7.66191078     22.87801820
O       3.30987445      4.37111960     22.01729947
O      11.28723279      0.32642962     23.48048680
O       5.12370207      8.27421946     22.93227293
O       7.53757884      2.44740539     24.45848129
H       9.00973256      3.41425515     22.49124590
H       2.44537295      4.06546683     22.34349681
H       4.63913074      7.49685974     23.42174759
H      11.80045329      9.25765133     23.95689606
H       6.75231884      2.88560161     23.98810783
H       8.36549497      3.13476265     24.17234176
H       4.66587642      3.53863557     22.97643753
H      11.60479869      1.26379833     23.72290227
H       3.46096267      5.77360949     23.04246426
O       1.11178264      7.68931606     23.49467802
H       1.80795425      7.10390070     23.80822066
O       3.53936039      6.46006432     23.79826230
O       5.02530044      3.15805741     23.80519081
O       9.46665685      3.69632498     23.36486359
O       0.87422753      3.02764184     23.60624133
O       9.91942155      6.30010961     23.65833970
H       8.19870539      0.63821651     24.34589793
H       5.21047417      9.24524455     23.83908247
H      11.14493842      3.47899213     23.42258644
H       9.91867179      6.07086780     24.62831624
H       1.12292705      7.75013744     22.48313989
H       9.48565262      4.65426634     23.43596108
H       5.42611531      1.24739352     24.32167481
H       9.77232865      9.73888622     24.13981022
H       4.32320244      3.24255630     24.45784936
H       3.68287949      5.92301763     24.63284729
O       8.82898493      9.54532512     24.51287385
O       5.71858392      0.31011890     24.46627982
H       1.22173846      3.37201961     24.45711338
H      10.77598931      6.65741620     23.40021357
Pt      3.03161674      9.30629028     26.78386647
Pt      5.77021253      9.47940608     26.53684871
Pt      8.66094157      9.40072273     26.60919264
Pt     11.55266044      9.48588775     -0.00800171
Pt      8.68529426      4.65788525     26.79525851
Pt      4.40941168      7.04859148     26.72258015
Pt     10.07495969      7.01183690     -0.04444247
Pt      7.30212004      7.02646315     -0.06155540
Pt     11.52467496      4.55997352     -0.11041712
Pt      1.66786326      7.06069949     26.82517032
Pt     10.20295119      2.27650301     -0.11702330
Pt      7.34437028      2.27930491     -0.19658922
Pt      3.09468045      4.53886876     26.54808496
Pt      5.75083966      4.60039038     26.65815314
Pt      1.68493002      2.11949963     -0.01863377
Pt      4.53915986      2.21850533      0.01552158
H       8.04553145      2.63111746      9.35917286
O       3.12794235      8.18697771     18.09948763
H       2.53322765      7.54944310     17.75064216
H       3.05929229      8.23240782     19.11300853
O       5.53572005     -0.11302117      9.09719638
H       5.83986352      8.62933748      9.39585995
O       4.88740775      6.78467513     10.03617605
H       4.50011487      7.22950897     10.83149468
H       5.75143486      6.44593097     10.34539746
H       5.71161911      2.55900094      9.26784701
H       6.95559051      1.65090829     12.22713174
H       5.59447459      2.25584768     11.72175359
