   245
 Tv_1:  11.152900   0.000000   0.000000 Tv_2:   0.000000   9.658700   0.000000 Tv_3:   0.000000   0.000000  26.829700
Pt      5.77716007      7.93180640      2.19803247
Pt      7.22016886      0.67011550      2.26608116
Pt     11.35618098      7.98040462      2.21111350
Pt      8.58687727      7.87673342      2.11577386
Pt      8.62693423      3.07318359      2.16622978
Pt      3.04708156      7.88994681      2.34863769
Pt     10.03949725      5.53874515      2.21504960
Pt      7.10872224      5.60887945      2.29004946
Pt      5.81316158      3.03728049      2.26418800
Pt      4.36020826      5.34210213      2.25110900
Pt      9.94584372      0.57378958      2.30117451
Pt      1.65097850      5.52769668      2.26358988
Pt      1.58084951      0.68169099      2.39028674
Pt      3.05411518      3.05373913      2.36544886
Pt      4.44072926      0.64250188      2.12344113
Pt     11.48960390      3.14806724      2.33781806
Pt      5.72758578      6.54960086      4.53347131
Pt      8.67420807      6.52322429      4.55987578
Pt      7.21047874      8.74782830      4.48371818
Pt      7.24780099      4.05373934      4.38755480
Pt      8.62382685      1.64370118      4.47791138
Pt      5.74387681      1.55262450      4.52006279
Pt      9.97360756      4.10408118      4.57730671
Pt      9.90786067      8.85249524      4.64858313
Pt      1.58472232      8.89174720      4.68656897
Pt      0.25965753      6.43996355      4.52074250
Pt      3.05756815      1.60124009      4.60764852
Pt      2.88835123      6.41905310      4.68747046
Pt      4.31462004      8.83400094      4.62010815
Pt      4.35872868      4.08116461      4.63105317
Pt      0.22979224      1.68268273      4.63380636
Pt      1.58022004      4.05294679      4.67432216
Pt      7.14248315      2.50055802      6.79543543
Pt      9.89164875      7.39404077      6.93083495
Pt      8.60511316      4.88408463      6.78281823
Pt      8.63026006      0.11064673      6.98103743
Pt      5.79060550      0.07133214      6.88651651
Pt      2.92543180      5.03854116      7.08261169
Pt      2.98085118      0.19252413      6.99618707
Pt      7.21177838      7.38931988      6.98943182
Pt      4.38178710      2.53407884      6.83827203
Pt      1.51989537      2.57888316      6.97935965
Pt      0.20919923      4.99317402      6.88985771
Pt      9.86051431      2.64527086      6.80365618
Pt      5.79581254      4.85801268      6.83965677
Pt      0.33361503      0.08735053      7.00599586
Pt      1.70241299      7.43207280      7.02840538
Pt      4.51398904      7.33040734      6.89293765
O       7.27201570      5.36157617      9.34588938
O       1.59350173      7.59119803      9.01806632
O       0.11430814      4.93780003      8.99716949
O       6.14607367      2.08956067     11.39476378
O      -0.03212739      0.39524645      9.02300125
H       2.50379265      8.72476254      9.21166778
O       8.65329237      0.45530080      9.01374285
H      10.16702838      0.67779545      9.14679000
H       1.07355029      5.20253217      9.21802527
H       0.47365250      3.30662140      9.05348642
H       8.47705757     -0.30869566      9.61437823
C       7.18181333      5.43868770      8.15450580
H       1.98245049      6.78683952      9.39987749
O       7.15285942      2.45873196      9.00016076
H       8.29007587      7.47549033     10.05434479
O       4.62093635      2.84309964      8.82935365
O       1.11546545      2.55731260      8.98221090
H       0.42243520      1.33363937      9.10724433
H      -0.43758035      7.60701408      9.33741752
O       9.89141568      7.08430261      9.07102551
H       4.06331730      3.56351847      9.12627033
O       5.00562844      0.57648877     15.61425393
O       2.97813156      5.15894943      9.13491941
H       7.64566327     11.19444341     15.62634210
H       5.94432696      0.59666031     15.28282770
H      -0.91479315      6.13318396      9.22240787
H       7.86465205      8.40999423     11.23262060
H       4.54049265     10.10429096     14.76115936
O       7.56920149      8.10869750     10.36098101
O       7.78111302     10.64472352     14.82802171
H       3.68682174      5.75013543      9.44019447
H       8.29518248      3.97277403     14.13849487
H       8.54709848     10.03081801     15.01865917
H       8.12092971      1.97335600     13.69427047
H       9.87224599      9.32989976     11.94394076
H       7.31814322      5.09463550     14.69567658
O       9.09702906      9.06615801     12.48816395
O       8.12888949      2.74869316     12.93369080
O       8.28026740      4.92379862     14.41817128
Cl      4.32661941      9.61407955     12.54393330
H       4.56870864      4.74334757     11.34577019
O      10.03975809      6.97177220     14.12027055
H       9.47125620      6.13962782     14.06213796
Cl      1.20327805      6.20143976     12.05779411
O       5.60607829      5.23574730     15.24349399
H       9.47059042      8.24452559     12.95091837
O       4.58454616      3.95650522     11.91279156
H      10.84446158      6.85987232     13.48739853
H       5.05670813      5.97224912     14.90699006
H       5.01323447      4.47696827     15.10082043
H       8.91831805      2.54255700     12.38314143
H      10.50657626      3.14603062     10.88481979
O       3.66442314      6.93977120     14.05044864
H       4.17574853      7.72381989     13.68839058
H       2.20656459      2.36759619     10.33771580
H       5.43604877      2.92677908     11.49347082
H       4.59222904      2.09783774     15.45393705
H       0.08540012      5.25413591     16.99961392
H       2.91560585      6.73374033     13.37775005
H       9.28188262      4.80017631     15.82614315
H       3.35042631      2.93181249     14.81276556
O      10.14318189      2.26750249     11.27794668
H      -0.27313557      1.66970698     11.51277919
O       0.96745538      5.54782812     17.26728264
O       3.10614034     -0.02874476      9.05664269
O       4.11168155      2.99408411     15.39417298
H       1.21525513      6.44438272     16.92692087
H       0.87685957      9.50482103     12.93868211
O       9.66001281      4.53627965     16.68024858
O       1.86837241      2.87496935     14.09718642
O       0.51226354     -0.28081961     12.04510805
H      12.41081450      3.61421604     14.35823286
H       9.05221486      6.24350744     17.40398205
O       8.71032343      7.05450303     17.92308487
H       4.12715673     -0.15249730      9.21428331
H       9.07588903      3.73579015     16.81682929
H       3.38211426      3.56516262     16.82637136
H       2.20390382      4.48919269     17.42576276
H       2.02622405      3.01939330     13.13537044
H       7.74806242      6.95773210     17.72730762
H       9.54617151      8.47164192     16.58753521
O       3.02075396      3.94333208     17.69425383
H       1.03128528      8.55947736     11.77789225
H       5.94764732      5.77943612     16.80261166
H       5.62293169      3.30292942     18.13262117
O       9.75652646      8.85576621     15.77428822
O       6.30936443      3.53887318     18.77161668
O       2.60528702     12.02744579     11.31980194
H       9.65324036      8.00421299     15.22616996
O       6.20610253      6.26866628     17.70616351
H       3.77089461     13.04560909     11.69659501
H       6.26583234      4.50369987     18.62410450
H       3.19066753     11.20445519     11.44736948
H       7.49501235      2.77468035     17.69311828
H      11.15456250      9.68290273     15.25005776
H       3.73776787      1.69928584     18.20182072
O       8.24005198      2.39016439     17.14988657
H       5.43025332      6.84223215     17.80979531
O       0.91736669      9.74713517     14.97037555
O       4.23539135     10.93146952     18.91934933
H       4.52776765     11.62512897     19.54710055
H       8.95507648      2.03031788     17.82975137
O      11.57550212      4.00821718     20.47763881
H       0.97714670     10.70689283     14.79901731
H       3.43302406      4.66869020     18.96184201
H       1.88759634      8.75273402     16.17743885
O       9.97546315      6.18166901     20.33196646
H      12.31864309      4.36816274     19.96665131
H       3.77333825      6.06729964     19.73319822
O       3.32968855      5.22056777     19.90460135
H       9.47011229      6.80327725     21.02084300
H       7.12739573      2.10294908     21.57124394
H       2.92037591      7.70646534     15.59650324
H       9.52841503      6.30667488     19.48367287
H      10.84585931      4.76252357     20.50153550
O       2.41870042      7.97095410     16.38007938
O      10.29522051      1.64922171     19.32937184
O       7.13151971      3.06738421     21.38257923
H       2.27981908     10.15644583     18.74116199
H      11.31861072      7.10452645     20.10151189
H      11.17296839      1.05048325     19.15608386
O       9.49997649     10.19436544     21.57024077
H      10.65980554      2.57997699     19.47979071
H       9.85486530      1.00556771     20.76225339
O       1.37904112      9.94718587     18.39532923
O       1.04807217      7.51247030     19.97539684
H       6.98061852      3.08224910     20.38140282
H       9.88165580      1.02480056     22.31677347
H       8.98859796      8.41184544     21.95112956
H       3.44484647      4.44993823     21.22903868
H       1.50800218      6.99322813     19.34326756
O       8.79588608      7.46933662     22.25521176
H       1.07730589      9.12069230     18.78544588
H       7.09109542      7.44629731     22.55104869
H       9.56598935      7.16436433     22.79755028
O       3.23330059      3.92706048     22.07537335
O      11.58032715     -0.13631527     24.09972327
O       6.11698486      7.56135832     22.60890761
O       7.37722369      2.69197923     24.38843241
H       8.93040979      3.35915403     22.17485063
H       2.29304577      3.71208933     22.00449309
H       5.54343710      6.75793037     22.51648756
H      12.05840198      8.74124808     23.51627147
H       6.70347128      3.39070851     24.24391083
H       8.24788316      3.09932423     24.12131215
H       3.94113929      2.64020301     23.22171747
H      11.65886616      0.77049213     23.74475474
H       3.74763397      5.22163208     23.19502989
O       1.45391163      7.60382445     22.71098072
H       2.28639886      7.07165067     23.00822950
O       3.84156585      6.18016219     23.39376591
O       4.17060215      1.77834294     23.73846187
O       9.60008136      3.34431657     22.94023434
O       1.08952670      2.69770648     23.32097709
O      10.67903673      5.77636010     23.62082105
H       7.98918408     -0.11437746     24.05642971
H       5.78714586      8.50094673     23.88692123
H      11.28810151      2.94058033     22.99686556
H      10.57264722      5.43932289     24.53689950
H       1.52835332      7.61652424     21.71646887
H       9.93325272      4.21678593     23.21349095
H       5.37846638      0.47310745     24.12346183
H       9.64558501      9.51824551     23.97629858
H       3.33114494      1.36342462     23.88289523
H       4.38990836      6.17844057     24.24823250
O       8.86716568      9.94713627     24.36437128
O       5.90362765     -0.29960455     24.43696779
H       1.10790915      3.09789739     24.23199973
H      11.53804069      6.16211151     23.49451632
Pt      3.13981269      9.16786304     26.78042560
Pt      5.94543542      9.11528088     26.59258445
Pt      8.79172009      9.23850857     26.59582037
Pt     11.58989408      9.18493005     -0.18640867
Pt      8.74983210      4.47265239     26.76234771
Pt      4.51153670      6.75268357     26.56282208
Pt     10.22704650      6.86925243     -0.15965444
Pt      7.40451300      6.74897252     -0.10480692
Pt     11.63495678      4.36666386     -0.07343536
Pt      1.85299052      6.73265146     26.60367530
Pt     10.28043869      1.95658588     -0.03491057
Pt      7.38773678      1.99091440     -0.09618157
Pt      3.23537845      4.34077328     26.69483707
Pt      5.97754873      4.47251067     26.72897593
Pt      1.76367297      1.93645113     -0.02760222
Pt      4.48863684      2.00357337     -0.17863152
H       7.77003128      1.61359096      9.06304001
O       4.03149616      7.72624817     18.53824316
H       3.38630868      8.00144750     17.76975100
H       4.35842941      8.66416234     18.81060251
O       5.67476224     -0.06202484      8.88367922
H       6.34571273      8.94020417      9.18769189
O       4.78101161      6.59652564     10.56498218
H       4.35390841      7.18425533     11.24269449
H       5.78105212      6.63220407     10.71295379
H       6.20552984      2.19292934      9.17091936
H       6.91785598      2.47626152     11.99694578
H       5.69035552      1.28037974     11.83119692
