   244
 Tv_1:  11.152900   0.000000   0.000000 Tv_2:   0.000000   9.658700   0.000000 Tv_3:   0.000000   0.000000  26.829700
Pt      5.80416981      7.92436794      1.91717248
Pt      7.17884891      0.59977180      1.92272111
Pt      0.27364608      7.75227746      1.94667300
Pt      8.56333066      7.89059994      1.81846237
Pt      8.64155561      3.00795664      1.89924196
Pt      3.05251506      7.88600273      2.01532519
Pt      9.80819487      5.47120179      2.00800831
Pt      7.08241984      5.26577864      1.94869603
Pt      5.70578535      2.93609401      1.95272639
Pt      4.40161660      5.31333393      1.74989522
Pt      9.97881498      0.52781545      1.95039832
Pt      1.60837602      5.40139244      1.92563782
Pt      1.49784666      0.61652727      1.98507136
Pt      2.89705163      3.01624363      1.95279969
Pt      4.37449224      0.65562002      2.02906290
Pt      0.09924577      3.01961940      1.88471989
Pt      5.08133067      6.58556090      4.17589964
Pt      7.92409704      6.56208322      4.07521477
Pt      6.59564593      8.96720114      4.30714430
Pt      6.61179345      4.09700610      4.21132791
Pt      8.07649684      1.70596307      4.15752724
Pt      5.18373904      1.73807380      4.37576572
Pt      9.36269072      4.17242978      4.30155058
Pt      9.42702825      9.01236123      4.30434269
Pt      0.95596483      8.83342522      4.33510100
Pt     10.65146716      6.57089601      4.47740280
Pt      2.40201619      1.74469067      4.28459391
Pt      2.39889503      6.42280693      4.25933912
Pt      3.78772682      9.05040411      4.34875117
Pt      3.86761166      4.13371907      4.30424629
Pt     -0.30930738      1.58149551      4.34119719
Pt      0.96052732      4.16019489      4.34776360
Pt      6.06491545      2.77521680      6.61403766
Pt      8.47496693      7.59830473      6.54003342
Pt      7.29399493      5.18049977      6.51905490
Pt      7.46644795      0.39161137      6.64329841
Pt      4.59769870      9.98245379      6.63280738
Pt      1.57517156      5.31979342      6.76471813
Pt      1.95613930     10.08996888      6.66215686
Pt      5.79153930      7.62825233      6.63485878
Pt      3.13737058      2.89438758      6.67714572
Pt      0.42355724      2.91685629      6.68339004
Pt      9.97888706      5.24497492      6.72476649
Pt      8.78651083      2.81238457      6.50764797
Pt      4.43529209      5.24177246      6.62490328
Pt     10.17967970      0.62636849      6.73066724
Pt      0.30671429      7.86220544      6.72130542
Pt      3.14774048      7.59538296      6.63258173
O       4.54534300      5.40645194      8.70301860
O       0.29094008      7.93833504      9.08780069
O      10.01762168      5.53979344      9.02079511
H       1.49587665      2.18910538      9.74339923
H       6.43337505      6.09796409      9.81033254
O      10.10343333      0.43565258      8.89193755
H      -0.18089144      8.98010756      9.07514437
H       2.95932686      2.50130159     10.29594358
O       7.42166917     10.09576821      8.90911770
H       8.38486622      0.38271169      9.18143142
H       9.09536913      5.61433253      9.41651715
H      -0.66800464      1.27553962      9.26022658
H      -0.60881753      6.34814233      9.26724486
H       5.33191116      3.94204999      8.85259607
H      -0.62713929      4.04924978      9.65016237
C       5.28835403      6.39372082      9.50638925
H       1.29662467      8.01775997      9.12761739
O       5.72937132      2.99785939      8.82891776
H       3.88442802      9.82334661      9.44512522
H       4.96536681     11.07041866      8.98904394
H       4.66820293      6.54028210     10.35513575
O       4.57375600     10.21857026      8.76765731
O       2.27578480      2.75929137      9.61481200
O      -0.68506412      3.07473259     10.01290839
H      -0.50429242      3.09593112     10.98720825
H       6.32859825      8.70683445     11.46304417
O       7.13954426      8.29807291     11.00683019
H       4.55093002      2.12681910     11.95527253
O       4.19117844      2.80491488     11.34981990
O       1.82423084      5.25160277      8.84367812
H       2.84771022      5.50847506      8.89832861
H       5.26589750      7.39493894      8.96946047
H       2.04038069      3.82307509     13.49794386
H       3.77815743      3.41479084     12.00250078
H       7.98649197      8.62496469     11.43365527
H       2.58911568      5.98990704     12.66767190
H       3.14410405     -2.30835864     13.04320281
O       2.66231214      6.91506611     12.27703152
O       2.85804255      4.38468155     13.34564849
H       1.94009303      4.35114848      9.20494615
H       8.69680755      2.79753369     10.12197231
H       3.21969576      4.53668139     14.25197891
H       9.15197604     10.13322964     12.49702333
H      11.04148912      9.77492695     11.34456428
H       7.69873497      3.30768822     11.34696502
O       0.83535313     10.00770818     11.24809584
O       9.38482093     -0.31500076     12.03001995
O       7.74642592      3.00893547     10.38555867
Cl      5.38016409      0.31031824     12.84984817
H       1.96953725     -0.46137679     10.51335574
O       7.79279716      5.88069558     10.45710552
H       7.71065811      5.42584773     11.33464879
Cl      0.08528102      2.72081492     12.90422274
O       8.02724606      1.49044397     13.68766691
H       0.82053500     10.76959696     11.87204207
O       2.73234169     -1.00235584     10.13210290
H       7.77764004      6.77919551     10.78419477
H       7.68911551      2.41458987     13.41275020
H       7.24776601      0.86239482     13.59623698
H       9.96763871     -0.90313724     12.66498706
H       4.98414722     -4.02479399     19.19619456
O       5.92328071      5.19981698     14.73521704
H       5.13680832      4.86879240     15.28914499
H       6.43930342     -1.17490234     14.17764391
H       3.01784798     -1.52086152     10.94988002
H       8.52270531      5.00264764     13.24820699
H       4.23667065     -0.78051307     14.25859896
H       5.77946587      6.15039976     14.79510252
H      11.87868220      1.00780760     14.44294964
H       7.05006872      4.86854829     13.57843587
O       5.70301072     -4.56321276     19.64973211
H       6.28408144     -3.85797781     19.99894227
O       3.47460652     -1.22699278     14.65769912
O       6.90952517      7.81999858     14.70176081
O       7.67124151      4.64741945     12.86682605
H       2.61902873     -0.71383389     14.71767652
H      10.53565211      4.41238922     14.08601290
O       1.06634175      0.27706761     15.00735061
O      -0.04472553      7.78182585     13.39184295
O      10.01570535      5.29568765     14.22697972
H       0.15689783      8.34250370     14.12689366
H       4.45204742      3.41597215     16.76767302
O       4.11851230      4.37972592     16.42986864
H       7.85178261      7.98366690     15.04152873
H      11.81491688      0.51184553     15.89808852
H       6.15288432     -0.98719831     16.55719595
H       4.61897619     -0.96965996     16.22964796
H       0.78647259      7.78619232     12.81247197
H       4.16640099      5.10413081     17.14884443
H      10.36350588      5.79741330     16.09526922
O       5.23694738     -0.79221281     16.94582336
H      10.44650952      6.01042263     13.71879918
H       8.25874073      1.58059740     15.36043861
H      10.79419016      1.06123281     18.41571925
O      10.36322978      6.07622628     17.06447614
O      11.24273135      1.28430261     17.57105265
O      -1.19292764     10.40962025     20.09574986
H       9.52438513      5.57082776     17.36564080
O       8.59173090      1.77206925     16.26805074
H      -2.16881532      0.78413042     19.86215679
H      10.58432361      1.92776321     17.33067112
H      -0.94455803     11.10707709     20.74121343
H       8.49831565      9.76445447     16.72022706
H       0.42623294      6.00137676     18.13709624
H       1.90826855      1.25797853     18.24009701
O       8.43498928      8.73006326     16.92455237
H       8.25339948      2.62258399     16.67337808
O       1.20314145      6.02577914     18.75633706
O       2.72146020      1.62802269     18.71647492
H       2.47566823      2.37763689     19.28838683
H       9.35253606      8.34582894     16.80413232
O      11.25492894      2.72990657     21.75504371
H       0.96181800      6.86265122     19.32554021
H       1.07668061      3.44302942     20.84132225
H       4.02811190      7.10221926     17.81665763
O       7.50578469      4.20769235     16.90049073
H       0.59396154      2.31966911     22.50039556
H       1.58226531      4.50945275     19.75040836
O       1.88331415      3.73047764     20.29077922
H       7.10289809      4.60204718     16.07571800
H       4.25526223      1.92171029     17.96508750
H       2.81072512      6.17344905     18.41081538
H       6.72627834      3.97182531     17.47436933
H      10.66874570      3.46864920     22.13337034
O       3.81534064      6.25032094     18.25646141
O       0.60228122     -1.54671228     20.17812571
O       5.13390052      2.01945267     17.53160801
H       3.04571751      0.37643412     20.12718978
H       9.43814614      6.19998270     20.42700681
H       1.40336279     -0.98819299     20.40118349
O       7.43525936      9.38705787     19.35325091
H      -0.10580837     -0.85128223     20.27507663
H       7.64990986      9.16587722     18.43037881
O       2.93758437     -0.15778699     20.97087571
O      10.01990198      5.47695115     20.84777157
H       5.14107847      1.17324244     16.97549829
H       6.76753038      0.44739106     19.36369011
H       7.19584127      7.98547007     20.42145567
H       4.90752224      4.26946776     20.78416511
H      10.77576449      5.95359188     21.09383635
O       7.06110877      7.11931423     20.78675932
H       3.76914187      9.01472870     21.25782371
H       4.20941297      7.26630357     22.31707657
H       7.53854944      6.85552564     21.60977344
O       4.33579287      3.83884513     21.49612629
O      11.30154691      8.65455512     23.81241333
O       4.77982153      8.07297415     22.02228482
O       7.86076505      1.77580205     22.77742928
H       9.32633111      4.86488372     22.36158248
H       3.39042759      3.86798876     21.27601004
H       5.58562641      7.86960767     21.47595015
H      11.67785201      7.74149872     23.53691860
H       6.95219034      1.95886292     23.04820454
H       8.38010025      2.63231757     22.87515332
H       4.80625098      2.49558851     22.44036117
H      11.92303231      9.37867346     23.55969545
H       3.74816002      5.29823400     22.63150913
O      11.60891955      6.11489764     23.04818868
H       1.41599347      6.04424930     22.86272061
O       3.32848919      6.15677083     22.99178377
O       5.12534844      1.91523396     23.23832780
O       9.26641943      4.12985093     23.01817978
O       1.61026184      1.10314429     23.32156430
O       8.02601086      6.84000431     23.25179126
H       8.42613916     10.20212310     23.66396501
H       5.53751434      8.53171498     23.51447244
H       2.08497666      1.41463382     24.12709219
H       8.37875888      7.74269763     23.52529578
H      11.46043947      5.55429061     23.87783599
H       9.04111235      4.60230483     23.88987086
H       5.39781128      0.41127270     23.73370712
H       9.75019395      9.23205399     23.98790725
H       4.76510923      2.32836658     24.07015705
H       3.19780824      5.96826356     23.96324972
O       8.77616658      9.44659552     24.22568378
O       5.91443349      9.28074504     24.09415578
H       2.37220193      0.77748051     22.78134766
H       7.24763780      6.83655620     23.90621647
Pt      3.13055945      9.25737013     26.46455563
Pt      5.79435157      9.25027265     26.32109804
Pt      8.79081716      9.23804321     26.32016711
Pt      0.33734194      9.05788281     26.47456197
Pt      8.81275205      4.33851452     26.43391647
Pt      4.39051898      6.91565389     26.30817417
Pt     10.03125370      6.74240360     26.47505027
Pt      7.21105604      6.81403815     26.50919845
Pt      0.36090572      4.34745183     26.33492296
Pt      1.64258241      6.71443637     26.44221263
Pt     10.09971373      1.97411566     26.33745750
Pt      7.18127643      2.13147607     26.44851164
Pt      3.02276456      4.38828335     26.32613233
Pt      5.79983909      4.36787430     26.25664913
Pt      1.73089418      1.87031812     26.30973331
Pt      4.38806342      2.07962600     26.45140119
H       6.84596398      9.38157783      9.31299866
H       6.54791562      3.00120009      9.45842992
