   244
 Tv_1:  11.152900   0.000000   0.000000 Tv_2:   0.000000   9.658700   0.000000 Tv_3:   0.000000   0.000000  26.829700
Pt      5.51302902      8.01264027      1.84302887
Pt      6.79267687      0.78670819      2.02132713
Pt     -0.11758314      8.02152944      1.89572902
Pt      8.16603206      8.09807695      1.76695728
Pt      8.27876322      3.12423812      2.06807051
Pt      2.67956182      8.03027158      1.97596930
Pt      9.50613159      5.60320809      2.11173977
Pt      6.71981146      5.50950887      1.92682946
Pt      5.31150230      3.22177081      1.98297992
Pt      3.91849645      5.64186243      1.91358490
Pt      9.53871264      0.77600463      1.88506174
Pt      1.23764693      5.59107051      1.95872097
Pt      1.35654746      0.83255966      1.91370521
Pt      2.62594845      3.14973761      1.98881702
Pt      4.06162765      0.79011055      1.91981093
Pt     -0.21113967      3.17803492      2.00643614
Pt      5.25706669      6.46173809      4.27734742
Pt      7.93701420      6.50586510      4.27674947
Pt      6.54686737      8.89202741      4.24616515
Pt      6.57807684      3.97592760      4.27158101
Pt      8.06189936      1.52526942      4.39513000
Pt      5.20628203      1.70706870      4.36846623
Pt      9.46173948      4.16126219      4.37137026
Pt      9.42378127      8.94056269      4.25360441
Pt      1.16688091      8.94074831      4.19021160
Pt     10.80162804      6.60255091      4.26927459
Pt      2.40519795      1.67940970      4.23826281
Pt      2.47983278      6.53606345      4.35816617
Pt      3.92085307      8.97206302      4.22521158
Pt      3.85086665      4.08428919      4.29725246
Pt     -0.33271900      1.65342395      4.17224462
Pt      1.13629321      4.28829983      4.35162161
Pt      6.42062095      2.62711315      6.58938047
Pt      9.21201384      7.39674688      6.39049133
Pt      7.92769633      5.02265821      6.54270253
Pt      7.57035613      0.07835420      6.78232876
Pt      4.91915148      9.99840977      6.66486624
Pt      2.25438277      5.16396275      6.67421095
Pt      2.12439746      9.92413740      6.50668582
Pt      6.40552133      7.40388879      6.58500853
Pt      3.59806383      2.64335414      6.50596450
Pt      0.86672254      2.70574906      6.44058215
Pt     10.67486114      5.04683729      6.78220638
Pt      9.25059495      2.70761415      6.50992685
Pt      5.06594432      5.12505562      6.55973716
Pt     10.56931167      0.24331624      6.53763032
Pt      0.84438946      7.48525500      6.68940481
Pt      3.71777522      7.68086139      6.60030712
O       4.89570547      5.05189006      8.68493873
O       0.97928766      7.42581796      8.94134798
O      10.62587770      5.19018571      8.97278030
H       2.36650190      1.83482029      9.49791648
H       6.71310982      5.95676416      9.33393795
O      10.80070667      0.02114959      8.60054522
H       0.49032401      8.33763537      8.87254451
H       3.53119648      2.30132012     10.28914151
O       8.17656040      9.70900548      8.86422097
H       9.16797195      0.11607649      8.84375191
H       9.67091518      5.39501952      9.35133230
H      -0.00242571      0.87183760      8.91358812
H       0.00096428      5.98404334      9.24365257
H       5.68967468      3.61319357      8.85821806
H      -0.21527850      3.43570982      9.22069760
C       5.57523132      6.11146351      9.37273061
H       1.90652289      7.73673102      9.13787116
O       6.24307663      2.79207796      8.77054793
H       4.48036642      9.41214444      9.25749427
H       5.19506704     10.81631590      9.05342126
H       5.15235265      6.08818340     10.39029211
O       5.20566261      9.89686279      8.75398158
O       3.19757818      2.31953592      9.35144304
O      -0.11453208      2.66373138      9.86615788
H       0.01773187      2.99478376     10.78938103
H       7.20843978      7.97003317     11.62990212
O       8.03041072      7.90869703     11.10028114
H       4.41828077      1.58553140     12.25082757
O       3.80190393      2.31338070     12.02466422
O       2.42042070      4.87291540      8.85922967
H       3.50693230      4.93360019      8.76450425
H       5.34186700      7.01237645      8.76347185
H       2.23056288      4.26301198     13.33792005
H       3.77622095      3.00863034     12.76029641
H       8.76511625      8.41540656     11.60012342
H       3.69626881      6.25353804     12.49472525
H       4.45392822     -1.92157549     12.36049088
O       3.61461091      7.20721935     12.21936129
O       3.25894288      4.47451294     13.42069911
H       2.37042010      3.85239101      9.14698856
H       9.14192777      2.70621416      9.96676183
H       3.49899172      4.53820246     14.34204687
H       9.75623806      9.97950046     12.65480737
H      11.91849100     10.10345271     11.61744008
H       8.26258842      2.27065957     11.17428329
O       1.72625038     10.29844198     11.52369747
O      10.16463829     -0.39058739     12.08672200
O       8.27395563      2.91915218     10.37254521
Cl      5.66203878     -0.19467241     12.90757183
H       2.56063237     -0.57767896     10.59253459
O       8.33017952      5.55268932      9.86385628
H       8.14367882      4.77780218     10.40253080
Cl      0.28161343      3.45052204     12.91593515
O       8.38178823      1.50215107     12.53559678
H       2.15404547     11.05464910     12.01673338
O       3.21844089     -1.10296059     10.01655659
H       8.35936796      6.42192908     10.39830838
H       8.54441039      2.28742955     13.15301552
H       7.56900674      1.16138646     12.93508455
H      10.65729047     -1.02245769     12.73272044
H       5.25596103     -3.84651071     19.23843503
O       6.47577808      5.29644334     13.54633338
H       5.58434234      4.93038914     13.52585321
H       6.59085547     -1.11464690     14.70721673
H       3.55044401     -1.79837711     10.59936138
H       9.28108059      4.09208374     13.52558640
H       4.52337007      1.58692857     15.52009706
H       6.49465002      5.97667618     14.23773574
H      12.01997932      1.89068155     14.45975757
H       7.66095043      4.26881879     13.74533960
O       5.78913222     -4.33635026     19.94510077
H       6.42859735     -3.64468070     20.34295066
O       3.78901943      1.99158108     15.93817621
O       6.71028578      7.86591766     15.37652770
O       8.51473073      3.75916899     13.99377605
H       2.93583245      1.57433907     15.64578140
H      11.57515674      6.33983760     13.47928297
O       1.26748640      1.17954322     15.05618649
O       2.64992720      8.31168869     14.76893762
O      11.54707663      7.24224415     13.76992483
H       2.21945737      9.18155991     14.69298016
H       4.16391117      4.00995737     16.10915632
O       4.28474807      4.95592454     15.89254283
H       7.58927958      7.90914099     15.73209027
H      11.82969472      1.13966756     15.81558527
H       5.47302180     -1.18270766     16.48549756
H       3.87006499     -1.14693810     16.27881085
H       3.14471618      8.15061965     13.95207005
H       4.27583265      5.47577059     16.76065283
H      10.98984846      6.22133357     15.63467225
O       4.59391872     -0.93303474     16.92528859
H      12.44011955      7.52588474     14.15348393
H       9.05115552      3.32399489     15.73707833
H      10.63262846      0.78281333     18.15583753
O      10.52561031      5.96825017     16.48996261
O      10.55480876      0.81620941     17.13489959
O      -0.72993718     10.01696882     20.03726409
H      10.37009017      5.05322897     16.33780213
O       9.50100423      3.40057269     16.60792682
H      -1.72731951      0.35356432     19.83839365
H      10.05222086      1.71236916     17.02656693
H      -0.59182113     10.79340005     20.67808409
H       9.62504203      9.21510158     16.84877700
H       0.80679095      6.07814888     17.85152548
H       3.46798795      0.97658417     18.18030975
O       8.99548608      8.43056549     16.96086363
H       8.82058546      3.65942102     17.25380965
O       1.20985515      6.04984351     18.72406029
O       3.46857580      1.43532886     19.06361025
H       2.87260556      2.23385957     19.09189209
H       9.61696045      7.63514230     17.10310435
O      11.06665255      2.30674091     21.71844306
H       1.10302405      6.86981774     19.31043803
H       1.02630911      3.20389130     20.23518795
H       4.17291633      7.44770247     17.80900135
O       7.77431566      3.77030060     18.53642673
H       0.80438079      2.18844711     22.13398068
H       1.55176766      4.37615666     19.41485532
O       1.80778987      3.55558362     19.84620951
H       7.13126385      4.50004516     18.84954597
H       5.54691798      1.83915682     19.49334300
H       3.30889904      6.52666753     18.68564813
H       7.42155555      3.00056057     18.96208805
H      10.49066984      2.78120048     22.37738440
O       4.20300867      6.57203342     18.26025353
O       1.04004903     -1.55431923     20.27118201
O       6.48209837      1.81761599     19.71692986
H       3.33483061      0.54508700     20.48382506
H       9.09582353      4.50542294     19.41387921
H       0.77423344     -1.80832407     21.16300372
O       7.79497168      9.19953837     19.31079980
H       0.38674648     -0.83540100     20.02782757
H       8.09214295      8.98037933     18.37426265
O       3.10776962     -0.05607913     21.22871423
O       9.79101244      5.11616941     19.85713947
H       6.62020684      1.78562803     20.67644338
H       7.18070207      0.32463334     19.27081132
H       7.86272232      7.75635066     20.45050412
H       4.64624038      4.85258015     20.90526446
H      10.48708421      5.23378481     19.22046273
O       7.99119896      6.85783854     20.87621450
H       2.30262293      8.98274608     20.94665168
H       4.17988206      8.47601818     21.92740962
H       8.72874759      6.39501382     20.34934496
O       3.91973130      4.34517534     21.38484272
O      11.06628598      9.29441980     24.11110415
O       4.59410897      7.86324922     22.57958318
O       7.36185399      2.02321347     22.43963758
H       9.22898738      4.41827629     23.23720813
H       3.18741016      4.04779045     20.69067640
H       3.85132843      7.20842683     22.96907804
H      11.40875167      8.44570903     23.61058876
H       6.56622830      2.39904806     22.81321052
H       8.17257035      2.47698944     22.75301139
H       4.58787380      3.03948499     22.43143710
H      11.60718976     10.12308584     23.90627967
H       2.75622453      5.17047939     22.40032011
O      11.39075957      7.22438047     22.60915222
H       0.92860429      6.53224700     22.86793088
O       2.24804896      5.71497578     23.08156742
O       4.96181500      2.72166980     23.24507463
O       9.38762377      3.45802048     23.48132270
O       1.89983021      1.33645368     23.10696858
O       8.89265295      5.95628079     23.18381606
H       7.68671984      9.65206361     23.60725382
H       5.06307476      8.89299984     23.55245425
H       2.36946652      1.70117212     23.83605452
H       8.32749796      6.30756643     22.41872575
H      10.51489027      6.76522787     22.77185636
H       9.78148724      3.50015596     24.44547609
H       5.44978528      0.80009656     23.74472509
H       9.34698901      9.75573887     23.79807393
H       4.93409539      3.46238850     23.92927778
H       2.12855116      5.18272994     23.87153676
O       8.43898556      9.70951752     24.22318164
O       5.65485211      9.57482843     24.06806277
H       2.52846423      0.79646271     22.55443598
H       8.60036250      6.21864809     24.08871163
Pt      2.87289995      9.35395969     26.39070468
Pt      5.57500710      9.43699157     26.32751978
Pt      8.38244626      9.26244979     26.24347236
Pt      0.01924138      9.29324058     26.32831665
Pt      8.31047844      4.52340339     26.44982076
Pt      4.11794100      6.91780550     26.33229148
Pt      9.86322706      7.00822907     26.49325855
Pt      6.90486917      6.86065444     26.40057970
Pt     -0.01905992      4.58307737     26.43310186
Pt      1.32149576      6.89909151     26.48285725
Pt      9.80825451      2.20492922     26.40830427
Pt      7.07492224      2.09329423     26.60050829
Pt      2.81671859      4.47288036     26.44773226
Pt      5.58551513      4.47749352     26.41141455
Pt      1.45121000      2.20567650     26.37568040
Pt      4.05296804      2.08719717     26.42991502
H       7.79689734      8.97440132      9.39377741
H       7.07740477      2.85048815      9.39199984
