   244
 Tv_1:  11.152900   0.000000   0.000000 Tv_2:   0.000000   9.658700   0.000000 Tv_3:   0.000000   0.000000  26.829700
Pt      5.58408634      7.83304225      1.74533612
Pt      6.90437737      0.54162253      1.91225582
Pt     -0.01211837      7.78620924      2.01487005
Pt      8.32878075      7.73636287      1.81342591
Pt      8.25249494      2.85732200      2.04661145
Pt      2.80491858      7.77480940      2.01786328
Pt      9.55574674      5.31112768      1.97771663
Pt      6.72506794      5.26223440      1.94951649
Pt      5.42808535      2.86619464      1.98965710
Pt      3.99455416      5.39521664      2.06175167
Pt      9.74396828      0.40089706      1.83288895
Pt      1.21159835      5.43544451      2.08788453
Pt      1.37006560      0.43226002      1.92238069
Pt      2.61090119      2.96251949      2.01054134
Pt      4.11286796      0.54713487      1.95276155
Pt     -0.15122547      2.86074957      2.07271164
Pt      5.15249033      6.46903582      4.28578395
Pt      7.96855627      6.35595683      4.13327725
Pt      6.53687305      8.79564863      4.16643569
Pt      6.51340763      3.96871501      4.30580193
Pt      7.99250891      1.41193722      4.32065575
Pt      5.18400579      1.61093721      4.34324137
Pt      9.44539488      3.83553387      4.41158807
Pt      9.32703338      8.64442662      4.20661295
Pt      0.95936575      8.70284678      4.39955265
Pt     10.68905242      6.35912533      4.27358519
Pt      2.26718815      1.49106864      4.35505654
Pt      2.33721243      6.38880464      4.37943756
Pt      3.81906517      8.92649997      4.24055069
Pt      3.73177761      3.98775381      4.31825077
Pt     -0.39422720      1.39241081      4.19499309
Pt      1.01525066      4.04006357      4.30596954
Pt      6.25719572      2.65642649      6.64326449
Pt      8.96582117      7.34298876      6.59059122
Pt      7.56006057      5.02868274      6.52448725
Pt      7.56026683      0.23152845      6.68660811
Pt      4.83125151      9.96758001      6.71798017
Pt      1.99168219      4.89727080      6.77548787
Pt      2.10329826      9.84424256      6.62132594
Pt      6.26195795      7.48977525      6.55895639
Pt      3.34998769      2.60039566      6.58495268
Pt      0.55548814      2.49607727      6.48384600
Pt     10.23593243      4.97589040      6.75459689
Pt      9.01081832      2.51523039      6.65445883
Pt      4.79538800      5.08303560      6.63633234
Pt     10.48251515      0.18094976      6.65357314
Pt      0.72865904      7.39864529      6.70192889
Pt      3.50238707      7.49334838      6.59391492
O       4.79853407      5.03343892      8.73055991
O       0.44985950      7.49236863      8.98934748
O      10.43705017      5.18624011      8.93873077
H       1.89711495      1.69435107      9.31831294
H       6.52684213      6.02010230      9.01291348
O      10.29177244     -0.06483157      8.79345853
H      -0.06955527      8.38910529      9.11936508
H       3.26502056      2.04516819     10.10726444
O       7.70928512      9.74433294      8.89223302
H       8.70444448      0.00317026      8.93486649
H       9.56251239      5.25579374      9.40783828
H      -0.44420877      0.72928327      9.24871299
H      -0.21929907      6.06543833      9.02793818
H       5.42101711      3.55753750      9.22834234
H      -0.14648416      3.26828699      9.12980286
C       5.47149428      6.10954640      9.37400426
H       1.36666457      7.63459844      9.34233769
O       5.90349802      2.65094887      9.00362332
H       4.14393020      9.30765349      9.32878466
H       5.13440569     10.59606495      9.28793170
H       5.52883455      5.86478131     10.44433343
O       4.96253584      9.66365557      8.93110537
O       2.68939494      2.29126937      9.35470305
O      -0.30484683      2.52218428      9.74175114
H       0.07610062      2.70129686     10.66911168
H       6.68969995      7.99522937     11.57194721
O       7.46132560      7.76106843     11.02973800
H       4.24560001      1.36382412     12.25937297
O       3.48191197      1.79454567     11.88805377
O       2.22911116      4.79143840      8.93199620
H       3.30755304      4.88024678      8.99660085
H       5.03839116      7.06184508      9.16986915
H       2.36164585      4.31882084     12.93453070
H       3.34328118      2.69366161     12.29297168
H       8.21382544      8.23919469     11.44612321
H       3.59414136      5.75314938     12.06015899
H       4.32256725     -2.48967676     12.46087360
O       3.65269075      6.75119433     11.83360964
O       3.35960952      4.34948149     12.82515231
H       2.14997521      3.81866345      9.10185683
H       9.13629410      2.69030635     10.08077028
H       3.82630808      4.47555299     13.69379642
H       9.37070138      9.55850090     12.79303282
H      11.36032869      9.72053742     11.55665269
H       8.26923186      2.27631453     11.36356196
O       0.99706642     10.16807625     11.20747868
O       9.70946861     -0.83999672     12.24289082
O       8.22646590      2.81555117     10.51181076
Cl      5.24507601     -0.43291706     13.43743959
H       2.09369930     -0.61702007     10.57130128
O       8.18290058      5.41961997      9.99943591
H       8.11410794      4.56028471     10.47975332
Cl      0.38251750      3.90635913     12.54586253
O       8.45731368      1.45580777     12.84237601
H       1.53944925     10.43369157     11.95107713
O       2.70576948     -1.24350259     10.06343820
H       7.72504042      6.18566535     10.44208137
H       8.52385501      2.08631988     13.63728442
H       7.58946121      1.05010626     12.98245764
H      10.13747041     -1.41843492     12.84161760
H       5.08486705     -4.22494316     18.73777174
O       7.17327930      5.64098836     13.96772791
H       6.30857001      5.36751375     14.39085237
H       6.61755654     -0.89273017     15.06742058
H       3.10129613     -1.93661127     10.76036154
H       9.73601497      3.65941772     13.66278012
H       4.50870310      0.86348867     15.22676901
H       7.29634871      6.56147651     14.25939971
H      12.14833344      2.49776543     14.32903570
H       8.39441301      4.29600564     14.09463955
O       5.64025503     -4.71283249     19.42889381
H       5.89509456     -3.98857944     20.03600977
O       4.15257953      1.32454789     15.99746642
O       6.97058251      8.97115590     15.95040841
O       9.06010544      3.65068823     14.37117641
H       3.31762866      1.70459115     15.63097703
H      11.43199004      6.30396048     13.54312831
O       1.45646593      1.87954780     14.97248812
O       1.87649292      8.85642911     13.80165072
O      11.17031426      7.08536111     14.11534423
H       1.96548819      9.81580569     14.08405064
H       5.23803566      3.33161919     15.32388724
O       5.06993844      4.31492753     15.17978157
H       7.83674800      8.60089126     16.22719593
H      12.02358447      1.63946294     15.68813366
H       5.85003928     -0.64375343     17.14450596
H       4.34901382     -0.22769692     17.18881140
H       2.82237437      8.80521825     13.43841926
H       4.65102469      4.59950860     16.02215683
H      10.99833577      6.39556303     16.08886442
O       4.93608452     -0.91133659     17.55198821
H      12.05632342      7.56738282     14.08088273
H       9.18443627      3.99174518     16.08191409
H      11.07545164      1.25157072     18.25307802
O      10.85475960      6.15247178     17.06519575
O      10.56137453      1.32099565     17.44422469
O      -0.09666891     11.05650801     20.50169027
H      10.20613037      5.39859508     17.01966213
O       9.53996868      4.08075103     17.01532065
H      -0.36434325      2.33425846     20.51850311
H      10.30064372      2.30274207     17.32312903
H       0.43441073     10.94517465     21.35245228
H       9.57830879      9.40504925     17.21716501
H       1.12597055      6.13031917     18.28978408
H       4.98179840     -0.08055408     19.01852982
O       9.11381837      8.60526170     17.29927843
H       8.84088148      3.98842700     17.78491167
O       2.06277851      6.11975395     18.73032611
O       4.73497608      0.01532408     20.07479200
H       4.62856196      1.01973668     20.22689377
H       9.70436590      7.80350121     17.19997598
O      11.25915983      3.43305939     22.95464886
H       1.97583633      6.90804548     19.30970122
H       1.41250758      4.12669512     21.19183382
H       4.52416586      7.09017416     17.22870005
O       8.21594274      3.92889057     19.09124909
H       0.31824079      2.99118516     23.82734102
H       2.14140126      5.03757732     20.17249392
O       2.27523810      4.55014712     20.98963538
H       7.30145193      4.32335130     19.10899984
H       6.48993226      1.32141863     20.72290997
H       3.34330426      6.11396872     17.65372185
H       8.07616203      2.98204932     19.40931254
H      10.93728286      4.38173292     23.22427705
O       4.31757396      6.10295515     17.31922164
O      -0.13306152     -1.63198199     19.80915966
O       7.39934742      1.50633584     20.45092051
H       3.13161442     -0.82196266     20.39695910
H       9.84799817      5.07751596     20.56646705
H      -0.77549450     -0.97988276     20.16013874
O       8.30671033      8.63198164     19.86401618
H       0.74361409     -1.34661512     20.16622713
H       8.60668826      8.64679815     18.92009286
O       2.57437096     -1.49108756     20.89795140
O      10.62450868      5.61284147     20.84821755
H       7.80043485      1.74351364     21.32120948
H       8.01410007     -0.13917389     20.17542992
H       7.16684730      7.45865707     20.47054043
H       4.81550281      3.28539971     19.88697097
H      10.55128059      6.55043668     20.44300817
O       6.52075689      6.94115561     21.04385649
H       3.23307905      7.82226941     21.58736537
H       4.69270544      6.73208919     23.06176888
H       6.96543103      6.67243769     21.89678881
O       4.14679676      2.68710202     20.30167912
O      11.00880906      8.76806067     24.06932194
O       4.70696309      7.61520185     22.64748278
O       8.65427520      2.28180459     22.83198964
H       6.22262862      3.28045253     24.57572055
H       3.29952054      3.24710901     20.44365928
H       5.45959290      7.52209842     21.84869864
H      10.83180100      7.79309516     23.74823808
H       8.03339438      2.89154364     23.29988013
H       9.60952433      2.65778475     22.76958812
H       3.63225861      2.22135341     22.74296180
H      11.74541215      9.20639237     23.47810995
H       3.19021456      5.01671966     22.34504234
O      10.38965175      5.81593259     23.39631847
H      -1.72365409      5.75037042     23.58017111
O       3.91569360      5.05592193     22.97645970
O       3.25556178      1.73824589     23.55689221
O       6.30057562      3.47265368     23.66242543
O       1.48400115      0.17303364     22.61015996
O       7.54446406      5.90025297     23.42968584
H       8.50999057     10.60117008     23.68563394
H       4.97469044      8.92072149     23.38047219
H       2.15897799      0.80443813     22.90943537
H       7.43760353      6.46029302     24.24623298
H      10.52578655      5.80932884     22.36929764
H       5.43768747      3.86532293     23.38454298
H       4.46835783      0.62689327     24.00918723
H       9.57156900      9.43828070     23.84300841
H       2.94300627      2.49895370     24.18676553
H       3.38837265      5.07751715     23.84044339
O       8.64912290      9.68386955     24.05723746
O       5.21808473      9.73464926     23.98194816
H       2.02041385     -0.38844301     21.96880729
H       7.03702939      5.04935083     23.58123854
Pt      2.71684128      9.20263976     26.46431090
Pt      5.43339581      8.97172222     26.13495608
Pt      8.43370187      8.99204735     26.22621300
Pt      0.00379342      9.06555355     26.28657132
Pt      8.40170095      4.14467317     26.46051991
Pt      4.01275055      6.66551776     26.42136416
Pt      9.64935117      6.67831292     26.55996270
Pt      6.88835407      6.64680009     26.46267244
Pt     -0.05137943      4.32075977     26.51349242
Pt      1.26392506      6.74092712     26.54283281
Pt      9.82152344      1.89686112     26.49421220
Pt      6.91505730      1.83669510     26.42234930
Pt      2.76447449      4.40625002     26.46037237
Pt      5.44814303      4.25374172     26.46131050
Pt      1.36849363      2.00469009     26.40530283
Pt      4.22156638      1.91757063     26.50976025
H       7.32256931      9.01246970      9.41542697
H       6.83762574      2.74458782      9.48351900
