   244
 Tv_1:  11.152900   0.000000   0.000000 Tv_2:   0.000000   9.658700   0.000000 Tv_3:   0.000000   0.000000  26.829700
Pt      5.74178062      7.80708628      1.57663032
Pt      7.11448587      0.53447492      1.80832022
Pt      0.24154839      7.77918017      1.75982477
Pt      8.60813462      7.76951751      1.61974795
Pt      8.38228971      2.89444106      1.89952327
Pt      2.91618627      7.69983126      1.89828046
Pt      9.90478846      5.21980555      1.98061262
Pt      6.89651153      5.27680670      1.98912589
Pt      5.71477592      2.87254187      1.90246621
Pt      4.22491435      5.32784254      1.85852118
Pt      9.95254191      0.55625628      1.89395710
Pt      1.54536944      5.32316958      1.99142687
Pt      1.60396156      0.55386966      1.88199521
Pt      2.82283122      2.92376864      2.00481832
Pt      4.32014865      0.47766096      1.95057943
Pt      0.11461648      2.96531101      2.00151678
Pt      5.45055777      6.40737158      4.13181175
Pt      8.09427628      6.43325065      3.99069133
Pt      6.68129921      8.75176591      4.15287753
Pt      6.51451628      3.94726083      4.31137741
Pt      7.99327781      1.46315116      4.24394583
Pt      5.24678246      1.48368370      4.22769286
Pt      9.33909042      4.04149815      4.21102367
Pt      9.45260220      8.82038238      4.23565458
Pt      1.11065492      8.84465563      4.20498242
Pt     10.75267968      6.47046397      4.21530476
Pt      2.45333512      1.58891963      4.27998448
Pt      2.45237702      6.38962345      4.17719004
Pt      3.81444584      8.83981207      4.30052092
Pt      3.85112867      4.06198474      4.29174183
Pt     -0.54540336      1.60015278      4.17163706
Pt      1.05392643      4.05035678      4.26438934
Pt      6.06049794      2.69193093      6.77231442
Pt      8.82870282      7.41489107      6.50926503
Pt      7.41391837      5.18185706      6.47605651
Pt      7.54595870      0.33272851      6.62301196
Pt      4.87513465      9.86308855      6.64433730
Pt      2.02126996      5.03374551      6.71256703
Pt      2.14850782      9.99901140      6.63685040
Pt      6.16631706      7.55424987      6.51936939
Pt      3.37391890      2.61649473      6.57661293
Pt      0.52517224      2.78064394      6.55197825
Pt     10.14423391      5.06718042      6.57218364
Pt      8.88904471      2.79450281      6.58473171
Pt      4.66364807      5.16293868      6.51330520
Pt     10.38915104      0.27904204      6.60608495
Pt      0.52508397      7.44819792      6.48722078
Pt      3.40438615      7.49982413      6.61267666
O       4.83890371      5.23926388      8.69930185
O       0.41815842      7.49213399      8.63070039
O      10.24789384      5.04103677      8.77832439
H       1.03414634      1.99583311      9.91818786
H       6.79549831      5.87526760      9.28750177
O      10.18596117     -0.13996471      8.65277348
H      -0.19971448      8.36192023      8.78699276
H       2.59796971      2.38104272     10.21992857
O       7.61506497      9.80572788      8.89315301
H       8.61085425      0.05485088      8.88023391
H       9.43124715      5.22432901      9.37808243
H      -0.82090077      0.73216053      9.21525630
H      -0.30394687      5.84062929      8.94346017
H       5.14450152      3.71969832      8.95732017
H      -0.77027243      3.10133057      9.17215069
C       5.73138173      6.14448940      9.35705121
H       1.36612562      7.57166160      9.08459013
O       5.60053316      2.80074501      8.81696387
H       4.05254772      9.07806974      9.20774641
H       4.81044249     10.46033410      9.29708511
H       5.44624734      6.06209819     10.45412963
O       4.93801830      9.51793529      8.99393885
O       1.84899745      2.47066021      9.53174953
O      -0.92198745      2.39848591      9.86847560
H      -0.67363383      2.71934923     10.82690214
H       6.66860790      8.13106849     11.32571218
O       7.42633257      7.84099564     10.84877671
H       4.02189638      1.06787991     11.72396595
O       3.80619399      2.00476853     11.41589444
O       2.10259285      4.95555699      9.08068956
H       3.11367013      4.92862118      9.10648906
H       5.44261736      7.23700899      9.21048247
H       1.96442499      3.72640186     13.17455054
H       3.80464059      2.54798388     12.23969493
H       8.22138511      8.25420694     11.38397069
H       3.34899941      5.48034986     12.53402922
H       4.49773293     -3.07493050     12.20322671
O       3.50194078      6.35774671     12.16849391
O       2.96985187      3.87423601     13.23268120
H       1.82971985      4.00458807      9.24549054
H       8.54683107      2.54878576     10.28333650
H       3.29182227      3.86419033     14.20989212
H       8.95280186      9.36104591     13.03896217
H      11.23774323      9.39281942     11.60625721
H       7.56080094      2.23387868     11.51244063
O       1.00795828      9.83679380     11.39666045
O       9.61467366     -0.78538201     12.50951182
O       7.68473567      2.78907294     10.68048440
Cl      5.33927316     -0.83103529     12.92680755
H       2.19056755     -0.74210610     10.53834156
O       8.52100156      5.22847129     10.66357713
H       8.03501177      4.42631136     11.00145742
Cl     -0.33523523      3.64683580     12.59558781
O       7.65545321      1.08936783     13.08423764
H       0.97528032     10.33599383     12.25219998
O       2.68983837     -1.49474307     10.00324353
H       8.10567363      6.08945132     10.78756256
H       7.63754002      1.77261394     13.79312574
H       6.82882528      0.61125458     13.08684639
H       9.90259577     -1.51108431     13.09490577
H       4.85052983     -3.94092319     19.24622178
O       6.47984511      4.78558974     15.04214497
H       5.58511363      4.57675393     15.14240989
H       6.83129598     -1.89519504     14.54662325
H       3.00921096     -2.16864424     10.66859011
H       9.15740816      3.61331710     14.13924905
H       3.72290597      0.27616756     15.36479770
H       6.57336535      5.78318614     15.20165835
H      11.54609267      1.95843435     14.07490725
H       7.52641886      3.78605526     14.68397195
O       5.43087665     -4.34259724     19.93183723
H       6.14256904     -3.73368965     20.25305968
O       3.35224067      1.13255122     15.55803223
O       6.58243843      7.54456656     15.47110400
O       8.43006206      3.20268555     14.68935850
H       2.46993456      1.10570939     15.12880532
H      10.51528424      5.48893472     13.69868692
O       0.80661759      1.14897214     14.37890539
O       1.69806653      7.56666059     13.84468168
O      10.44000566      6.27475598     14.18852277
H       1.65678430      8.46315464     13.49744939
H       3.82885271      3.02687040     15.89286940
O       3.87487224      3.98199661     15.63119742
H       7.30757818      8.00391566     15.99419352
H      11.51289461      0.92715910     15.22723210
H       4.91072191     -1.73694386     15.48745221
H       3.36566811     -1.73290299     14.98834830
H       2.24854426      7.10503391     13.15558327
H       3.67135188      4.47438599     16.44275882
H       9.93532866      5.88340027     15.72671688
O       3.92709377     -1.67484921     15.75950657
H      11.30352614      6.74116322     14.28804476
H       8.89896322      3.17455310     16.39545092
H      11.07017504      0.10632370     17.45082461
O      10.11414326      5.70484931     16.71687776
O      10.55026606      0.35946917     16.64333004
O       0.42524424      9.04955546     19.09713373
H       9.72841756      4.84077675     17.05154900
O       9.27978128      2.82164128     17.26937354
H       0.24172075      0.19679010     19.59913857
H      10.06021897      1.19161210     16.92590133
H       1.39335207      9.10327240     18.99373993
H       9.47860044      8.79088539     16.60807063
H       0.46420513      5.70012048     17.54447045
H       3.28458057      0.52162483     17.48300586
O       8.66849235      8.17844233     16.81851114
H       8.76405752      3.15112161     18.07322931
O       1.17733418      5.70838546     18.24427486
O       3.02305918      0.81561890     18.39695275
H       2.72598846      1.68454793     18.30833963
H       9.12684034      7.29893371     17.01717013
O      11.36876855      1.93514889     20.57193260
H       0.81275327      6.25411631     18.93608386
H       1.30512892      2.60291508     19.65420575
H       3.62040337      6.88310306     17.18419708
O       7.51313283      3.53154058     19.46472014
H       0.71177235      1.92989323     21.40741420
H       1.58219754      3.96262351     18.93330168
O       2.13845424      3.19902979     19.40127176
H       6.61816688      3.97268145     19.35373163
H       5.83772787      1.00140474     20.60511127
H       2.70951673      5.90390417     17.93942698
H       7.25905424      2.63425777     19.89285258
H      10.70073499      2.62325638     20.53016483
O       3.68762902      6.05387169     17.74508863
O      -0.32903163     -3.14145543     20.44393658
O       6.83414933      1.12518708     20.53517812
H       3.82440010      0.41351103     20.02836553
H       8.79143321      4.09246919     20.39314834
H      -0.11505344     -2.88753351     21.41042903
O       8.57435727      9.02168839     19.74950885
H      -0.37688403     -2.23523182     19.99987563
H       8.59424299      8.81462618     18.75059306
O       4.16476948      0.59032683     20.93325862
O       9.73266185      4.04475362     20.68467446
H       7.20295647      1.26724605     21.47988129
H       7.92238485      0.11304375     19.76685148
H       7.71356069      7.62595797     20.55747033
H       4.43779998      4.44863685     20.81979609
H      10.00433935      4.94090946     20.43272792
O       7.27973722      6.77062372     20.90452632
H       4.28044483      9.35167027     21.40581487
H       4.51301273      7.18203124     22.43197387
H       7.86021283      6.50370010     21.67877138
O       3.76002622      3.99033985     21.41867297
O      11.55254665      9.28874634     23.95916110
O       5.02533833      7.93653078     22.18241404
O       7.90148008      2.02999841     22.95936487
H      10.05357327      3.97732410     22.42778468
H       3.08597495      3.69145056     20.77247595
H       5.64995681      7.59736130     21.47871598
H      11.73818876      8.36615706     23.50677059
H       7.07706057      2.49682797     23.27930308
H       8.67292743      2.63217895     23.01658644
H       4.63128567      2.93956535     22.70928263
H      12.32852037      9.88341498     23.55597235
H       3.36356060      5.28526043     22.38230835
O      11.89774124      6.96828304     23.05228633
H       1.67843744      6.55618822     22.98881969
O       3.25533980      6.07463885     23.00822883
O       5.26948075      2.58018826     23.38581328
O      10.30934081      3.32283426     23.12955990
O       1.98431142      1.40517464     22.44314375
O       8.62544933      6.79458042     23.10137799
H       8.43772381     10.32096505     23.76079249
H       5.62662128      8.80839066     23.47858539
H       2.34974713      1.96232141     23.15069079
H       8.53722901      7.70510404     23.61278311
H      11.44503750      6.40507826     23.68275187
H      10.47961885      3.71909472     24.00728557
H       5.49693474      0.73262041     23.83660552
H       9.87416889      9.60940680     23.88902830
H       5.03357878      2.90507894     24.29096715
H       3.72087390      5.83459698     23.84550670
O       8.92556365      9.47795012     24.02383085
O       6.05652180      9.55622172     24.02032876
H       2.80075905      1.13954200     21.90184176
H       8.30239255      6.16316024     23.70501657
Pt      3.22269451      8.99692127     26.31561100
Pt      5.97404878      9.04997628     26.02899798
Pt      8.81906254      9.22905929     26.27363004
Pt      0.43143535      9.17222174     26.14853061
Pt      8.61160682      4.28747887     26.42365361
Pt      4.44544657      6.56258278     26.19218414
Pt     10.10518104      6.66007458     26.41949713
Pt      7.30367956      6.49124372     26.39089783
Pt      0.31918606      4.24431192     26.36676143
Pt      1.71722272      6.72190557     26.34684434
Pt     10.03114940      2.02046139     26.45042898
Pt      7.33915201      1.97090663     26.35758582
Pt      3.01144131      4.22543942     26.39944858
Pt      5.80898644      4.22568117     26.20951833
Pt      1.77759626      1.92063296     26.37686441
Pt      4.43272692      1.84933310     26.38224077
H       7.34717780      8.93070357      9.28910392
H       6.41130703      2.81257686      9.46531989
