   244
 Tv_1:  11.152900   0.000000   0.000000 Tv_2:   0.000000   9.658700   0.000000 Tv_3:   0.000000   0.000000  26.829700
Pt      5.62648662      7.76294881      1.87126913
Pt      6.83325581      0.44020704      2.05345494
Pt      0.08045436      7.85843475      1.91324038
Pt      8.47093318      7.79420015      1.88041602
Pt      8.16280502      2.88630977      2.07867615
Pt      2.72014180      7.76697941      1.91596667
Pt      9.66434217      5.28698063      2.02647458
Pt      6.87123368      5.30581889      2.00872963
Pt      5.45966561      2.91482902      1.89695317
Pt      4.06723221      5.26105560      1.90038402
Pt      9.68995121      0.55740868      1.86568373
Pt      1.22363050      5.35540543      1.88565024
Pt      1.51039346      0.55165009      1.86431602
Pt      2.76111938      2.89775478      1.93610130
Pt      4.20376438      0.40272136      1.95925152
Pt     -0.10268938      2.86175568      1.88764367
Pt      5.20998709      6.43203889      4.26175218
Pt      7.99871631      6.44075431      4.26529203
Pt      6.62589603      8.78339142      4.28415113
Pt      6.52658452      3.95430529      4.29892855
Pt      7.91434597      1.57581800      4.42882653
Pt      5.25243792      1.57652345      4.25615926
Pt      9.40449058      4.05617237      4.35992016
Pt      9.40222632      8.90369227      4.13932927
Pt      1.07407468      8.87966137      4.27961015
Pt     10.80269179      6.54234783      4.32566660
Pt      2.43091638      1.59766264      4.18140533
Pt      2.32797404      6.39267895      4.13495361
Pt      3.76290008      8.78721087      4.30544175
Pt      3.78729013      4.05081852      4.17271743
Pt     -0.47512631      1.61549452      4.25080431
Pt      0.97346198      4.07019577      4.14511580
Pt      6.26251149      2.63850761      6.67012289
Pt      9.04367367      7.42319053      6.50405221
Pt      7.49750943      5.11277441      6.56935475
Pt      7.75710430      0.20378585      6.69467124
Pt      4.95591637      9.83646445      6.61656294
Pt      2.09603548      5.06945241      6.57478660
Pt      2.10738556      9.97611880      6.54248480
Pt      6.14346045      7.46435890      6.62253528
Pt      3.41933946      2.62728904      6.53686789
Pt      0.72846645      2.68253845      6.42950662
Pt     10.34197331      5.10745936      6.73474037
Pt      9.13055873      2.66567119      6.72101603
Pt      4.85426348      5.04883999      6.55768546
Pt     10.42196889      0.25262898      6.74143999
Pt      0.69009035      7.42335045      6.65458379
Pt      3.30579417      7.47057718      6.53544414
O       4.81471210      4.84685281      8.71593390
O       0.67345625      7.65518136      8.90979450
O      10.63743061      5.28017078      8.87827808
H       1.17211864      2.10135228      9.78144497
H       5.95067942      6.69470210      9.00592373
O      10.31643848     -0.13039040      8.96391227
H       0.14359169      8.58472029      8.99714551
H       2.67134696      2.32398432     10.25108602
O       7.79796644      9.59347584      8.73716878
H       8.73812698     -0.22486775      8.96851969
H       9.65898415      5.45319434      9.21669213
H      -0.54389527      0.73815517      9.25025888
H      -0.13154873      6.18710782      8.91175308
H       5.44806177      3.52569234      8.88119137
H      -0.46720330      3.51353465      9.39340558
C       5.05797131      6.15860375      9.43501261
H       1.58905005      7.83828636      9.27414487
O       5.96021640      2.58417852      8.76955061
H       4.09308083      9.59196361      9.19014168
H       5.13534192     10.84283660      8.87427978
H       4.95744423      5.98146899     10.46845483
O       4.96059897      9.83352150      8.74214835
O       2.11502019      1.95312168      9.52104592
O      -0.65013863      2.79006924     10.05965817
H      -0.49156470      3.22966138     10.96028936
H       6.29103974      8.06679278     11.17999015
O       7.16419000      7.90810020     10.72894686
H       3.83590275      2.31606974     12.02652507
O       3.69066571      2.98211690     11.33609688
O       2.30485983      4.72039351      8.74267415
H       3.39586041      4.83129102      8.88120670
H       4.14239958      6.68873734      9.16173011
H       1.66269905      4.73511152     12.57613391
H       3.30402272      3.85051327     11.69125782
H       7.79245390      8.16688582     11.46227529
H       4.75137936      7.27122402     12.49273252
H       4.60060355     -0.75972438     12.65033454
O       4.72383606      8.13132965     12.03554433
O       2.52140935      5.18305764     12.39393346
H       2.02767375      3.79906048      8.72442461
H       8.86371156      2.80424897     10.10201980
H       2.72722896      5.52776417     13.32040425
H       8.53662756      9.39134682     12.92790344
H      10.64741468      9.06864732     12.00517187
H       7.91001368      2.39289272     11.23772896
O       0.37984674      9.58390765     11.90283527
O       8.92478257     -1.05368922     12.41125118
O       7.94918026      2.94567736     10.42114425
Cl      4.56660346      1.03514997     13.49298947
H       2.40523671      0.02402326     10.44329246
O       8.22472955      5.53968215      9.63188724
H       8.14932474      4.74840982     10.22047276
Cl     -0.64882137      4.50722023     12.56507079
O       7.72980830      1.39460940     13.06309202
H       0.30481196     10.24513015     12.64177857
O       3.00538067     -0.68820967     10.14845697
H       8.01549046      6.31227235     10.22814816
H       7.65253487      2.24379047     13.63729534
H       6.74441841      1.27314650     12.98930455
H       9.38044652     -1.65138146     13.07426788
H       4.59453397     -3.99689085     18.91611701
O       5.54699301      5.91445550     13.24310048
H       4.74798350      5.70646202     13.78570898
H       6.72548905     -0.88580736     14.43425667
H       3.52134510     -1.17277019     10.89493906
H       8.54670193      4.35356060     13.34365479
H       3.41112655      2.14711676     15.15573203
H       6.11056128      6.49312416     13.79350487
H      11.09945928      2.57153605     13.91597301
H       6.94097715      4.44353055     13.44631698
O       5.05955591     -4.49961746     19.62551882
H       5.57190159     -3.84330460     20.23482057
O       2.56029928      2.50594373     15.44934895
O       6.75964592      7.87555828     14.87520614
O       7.75337084      4.12161754     13.91280654
H       1.84784570      1.90168956     15.13002826
H      10.33021927      6.16041711     13.65492062
O       0.31462051      1.64592908     14.12850669
O       1.33154886      7.91609397     13.79477202
O      10.13581819      6.96672007     14.22253033
H       1.20423288      8.50037511     12.97554938
H       3.08132247      4.17877819     15.02327224
O       3.21117401      5.15728131     14.96111914
H       7.63612576      7.85579991     15.37936443
H      10.92058001      1.25841463     14.89326355
H       4.95555530     -1.24530938     16.04206264
H       3.59866567     -0.79401143     15.64654271
H       1.88248971      7.20769402     13.51183026
H       3.50811055      5.38233031     15.84050016
H       9.91611183      6.31186903     15.54158564
O       4.05524536     -1.06974946     16.43952674
H      11.10845715      7.41435070     14.16812272
H       7.90915023      3.71322370     15.60958452
H      10.06337886      1.31715297     17.41217261
O       9.63112571      6.06543421     16.47897425
O       9.68734234      1.17222121     16.55208054
O      -0.28402491     10.79169792     19.08319945
H       9.36098226      5.10193503     16.53096280
O       8.39586638      3.53004474     16.50379367
H      -0.67086198      1.33738537     19.97345110
H       9.11180834      1.96198282     16.50628124
H      -0.14986493      9.82756413     19.13801576
H       8.99786866      8.96425825     16.86658368
H      -0.01782473      6.02507272     17.51779583
H       4.26813292      0.09753974     18.18514852
O       8.32289610      8.26147683     17.18685932
H       7.76244886      3.64249281     17.27768693
O       0.63252107      6.11822644     18.24318368
O       4.08405419      0.45222355     19.11523401
H       3.33241386      1.19120363     18.98353871
H       8.75561113      7.36513458     16.99521314
O      10.23307216      1.99062770     21.77320686
H       0.13998700      6.69420294     18.87549967
H       1.27906171      1.73936992     18.84966650
H       3.38301029      7.23974242     17.32988287
O       7.17169808      3.38988369     18.99613319
H      -0.07766526      1.73158260     22.24698747
H       2.20889689      2.41074248     17.71517712
O       2.20221019      2.06131345     18.63486602
H       6.43581936      3.98169217     19.14687561
H       5.55960241      0.71740834     19.83432139
H       2.43849753      6.07756733     17.81131721
H       6.91742277      2.49135219     19.40119471
H      10.46082941      2.79396003     21.22054008
O       3.37675656      6.32715289     17.67396305
O      -0.27161872     -1.47383721     19.94938254
O       6.43096517      1.00832681     20.20530595
H       3.39705527     -0.06615627     20.86333307
H       8.71815420      3.92767253     19.70526376
H       0.26177351     -1.65054489     20.74484112
O       8.15024690      8.65456833     20.02897006
H      -1.25945738     -1.36938801     20.15804885
H       8.08863711      8.40390317     19.04211677
O       3.05009779     -0.16942938     21.73972687
O       9.57592993      4.04914461     20.23295689
H       6.15110764      1.21027662     21.11308427
H       7.47304407     -0.24912384     20.14935074
H       7.00999449      7.51179687     20.71471581
H       3.86457284      4.30108224     20.44929061
H       9.93476584      4.85005495     19.73675916
O       6.47092222      6.77658039     21.12267571
H       3.40598063      8.66593830     22.07362016
H       3.97591887      6.44243020     22.94171277
H       6.99020564      6.46233674     21.93566905
O       3.35807611      3.64477395     21.06747700
O      11.28792872      8.82617313     24.09526007
O       4.35993327      7.33916831     22.70344316
O       7.85452598      2.54365780     23.37032466
H       9.78920300      4.66236637     21.83432793
H       2.75265828      3.25322072     20.36040181
H       5.10481136      7.17176403     22.02006963
H      11.50107973      8.07153709     23.36839587
H       8.01170503      3.11410133     24.15978192
H       8.76015931      2.61435142     23.00272852
H       4.46695358      2.53441299     22.17447417
H      11.76664921      9.60710787     23.77353822
H       2.78190796      4.42015993     22.42076272
O      11.95531298      6.97058958     22.53188727
H       1.53508753      6.35202700     22.75662380
O       2.62684272      5.10128992     23.14805716
O       5.24225874      1.95999231     22.37154229
O      10.08970414      5.15820533     22.62518782
O       1.35614364      1.24493599     23.08967943
O       7.87935766      6.41259052     23.26563486
H       8.45813105     10.17652117     23.85114224
H       5.10012238      8.51018624     23.85479440
H       1.81073964      1.77096702     23.80582525
H       8.31606562      7.25313482     23.19738593
H      11.13470409      6.36548292     22.43327295
H       9.35571450      5.48631854     23.20276109
H       5.19792453      0.37917654     23.65453851
H       9.75755275      9.16257295     24.00497887
H       5.99273018      2.50402292     22.70528943
H       2.39739184      4.68177749     23.97605929
O       8.70760481      9.24559217     24.11128836
O       5.73974680      9.25122587     24.08214836
H       2.08526273      0.72256093     22.57277937
H       7.53001083      6.29734273     24.14286653
Pt      2.97803132      9.03506786     26.36114544
Pt      5.71104813      9.12284884     26.31363415
Pt      8.52563468      9.12646887     26.32606100
Pt      0.27492161      9.13066661     26.31355722
Pt      8.60547290      4.33248975     26.31954982
Pt      4.37135454      6.67109509     26.39137651
Pt      9.94426897      6.65486902     26.48559896
Pt      7.22189957      6.67698240     26.37861299
Pt      0.28520796      4.26001267     26.45103394
Pt      1.70342127      6.69519348     26.40829975
Pt      9.94204600      1.96626645     26.41732373
Pt      7.17137243      1.86624728     26.58403466
Pt      3.06397020      4.25164533     26.32142607
Pt      5.83015612      4.29358219     26.39772032
Pt      1.69603159      1.97129758     26.35597225
Pt      4.33783803      2.00680592     26.36546756
H       7.40750074      8.83787798      9.26305592
H       6.82798185      2.64892220      9.30210046
