   244
 Tv_1:  11.152900   0.000000   0.000000 Tv_2:   0.000000   9.658700   0.000000 Tv_3:   0.000000   0.000000  26.829700
Pt      5.49878024      7.91585450      1.84711447
Pt      6.75020776      0.65417605      2.04072446
Pt     -0.01616247      7.84417866      1.89015577
Pt      8.28425697      7.87646187      1.87112962
Pt      8.30428264      3.01072920      2.02431510
Pt      2.80233291      7.76751002      1.82918168
Pt      9.52104227      5.43233613      2.02661271
Pt      6.76050332      5.46184468      1.91413048
Pt      5.50164837      3.07038778      2.01055162
Pt      3.93918856      5.30574524      1.92297814
Pt      9.59015563      0.49663824      1.76253099
Pt      1.14588443      5.41388236      1.97703799
Pt      1.25446405      0.47539733      1.72968273
Pt      2.49291316      2.95583361      2.01592768
Pt      3.96620300      0.55080472      1.87000020
Pt     -0.23170751      3.04742728      2.06607053
Pt      5.22054102      6.47413542      4.11500187
Pt      7.86943924      6.48738015      4.17672778
Pt      6.44484642      8.84592066      4.28420867
Pt      6.55007154      3.99456298      4.23010089
Pt      7.96074215      1.55018912      4.20216473
Pt      5.02455263      1.62970638      4.16235072
Pt      9.32866270      4.10496660      4.33228775
Pt      9.21403499      8.94490724      4.21347073
Pt      0.92209234      8.86190209      4.11856954
Pt     10.68468936      6.55004181      4.36701615
Pt      2.22522364      1.54810625      4.18062255
Pt      2.27377372      6.48589879      4.24103736
Pt      3.71514764      8.76902750      4.20613923
Pt      3.71759932      4.08510723      4.20938063
Pt     -0.44370733      1.45115671      4.21565914
Pt      1.05921191      4.13549218      4.33629996
Pt      6.05175126      2.68603859      6.47972424
Pt      9.23855758      7.47461621      6.53399493
Pt      7.74954676      5.00831299      6.57858187
Pt      7.61223352      0.18380957      6.60721087
Pt      4.91178500      9.72758326      6.41129753
Pt      2.11369674      5.09512202      6.68376992
Pt      2.14383175      9.82123010      6.53180918
Pt      6.30718178      7.33318139      6.67287327
Pt      3.29608296      2.67717748      6.46837028
Pt      0.63722366      2.59543349      6.66244479
Pt     10.41092171      4.93839179      6.67071566
Pt      9.02000908      2.59015929      6.48542422
Pt      4.91669840      5.04762628      6.53176339
Pt     10.36569982      0.29762093      6.66672895
Pt      0.71737398      7.57743527      6.70552096
Pt      3.51258318      7.47145886      6.62106852
O       4.98432636      5.32991658      8.74554239
O       0.66108130      7.74502928      8.87812063
O      10.71633152      5.59782577      8.97667834
H       1.69976170      2.41353771     10.03634784
H       6.79826266      6.13054883      9.83071940
O      10.29886432      0.12169126      9.01934907
H      -0.25866564      8.91489399      9.28645193
H       3.25766227      2.47804123     10.23266852
O       7.49245886      9.60038810      8.87989575
H       8.16958039      0.36313712      9.44248525
H       9.79410915      5.89013035      9.13505662
H      -0.33702639      0.88644891      9.42585681
H       0.27987568      6.37124630      8.98610899
H       5.59345804      4.00805839      8.69396016
H      -0.67354607      3.34267915      9.31365470
C       5.69422280      6.41996904      9.11055614
H       1.51759198      8.05439278      9.28781275
O       6.07673475      3.06191875      8.53958237
H       4.13377085      9.87233686      9.39587682
H       5.10254201     11.15949655      9.23702859
H       5.16167993      7.35400998      9.39482279
O       4.99295328     10.21446189      9.02104259
O       2.54657574      2.53845612      9.53138317
O      -0.56692129      2.70661468     10.05278452
H      -0.21286606      3.21162374     10.85178045
H       8.17663620      7.07197944     13.31508228
O       8.76637470      6.50420720     12.70216405
H       4.92658497      2.01889109     12.05173555
O       4.06940430      2.39572074     11.64193166
O       2.38205568      5.15834671      8.90142137
H       3.33844800      5.52373292      9.01323702
H       6.64370178      6.85185384      8.35919943
H       3.62574990      5.57210352     12.57792840
H       4.09159896      3.33295777     11.97593689
H       9.54369090      7.14054333     12.87936962
H       4.42944586      7.49802005     12.64007070
H       4.61313309     -0.68246599     13.12359241
O       4.00443627      8.32049718     12.71620611
O       4.48272416      5.34619841     12.22130161
H       2.49484336      4.14551469      9.22644501
H       8.89726955      2.85208464     10.51366330
H       4.90860345      5.26930819     13.09841395
H      10.00120813      9.20829870     13.71843643
H      11.44075728      9.59324835     12.06210657
H       7.45674382      2.58750700     11.24616051
O       0.84852237     10.05552966     11.43960877
O      10.61232899     -1.13756591     13.27687492
O       7.85170941      2.92695762     10.37497725
Cl      6.61551809      1.47605218     13.13523407
H       2.26194286     -0.22896893     10.45930298
O       8.02969178      5.78882752     10.26443684
H       7.98726670      4.80518720     10.39225198
Cl      0.26373527      3.44935429     12.85182579
O       9.30762417      1.17311986     14.51962133
H       1.10495648     10.91427364     11.93232711
O       3.12878989     -0.66092123     10.24196967
H       8.33051521      6.29277754     11.17998126
H      10.02923629      1.81486577     14.33706778
H       8.56301059      1.30024084     13.86889325
H      11.42110969     -1.23408322     13.90210496
H       5.54689889     -3.91681584     19.03233310
O       7.24819160      7.55602335     14.57144827
H       6.64938776      6.74704203     14.71964336
H       8.38207207      0.41868736     16.35477976
H       3.49732410     -0.71968615     11.14316724
H       7.75790429      3.63619270     13.62159791
H       4.93595552      1.07286609     14.42255864
H       7.58653293      7.93479956     15.40160650
H      12.79206703      2.40215510     14.35614900
H       8.35265976      4.98067798     13.89800218
O       5.99325767     -4.31885721     19.80860920
H       6.23718022     -3.53062748     20.37387108
O       4.26405916      0.61694418     14.99401654
O       8.24707494      9.28317441     16.89350982
O       7.67687542      4.37127177     14.23563900
H       3.43418526      1.22210885     15.00227007
H      12.35292664      5.43412034     12.51172269
O       1.83515392      1.76003724     15.10748660
O       1.42169536      8.62207728     15.07248742
O      12.87601619      6.25821859     12.62831556
H       1.53343932      9.60627754     15.01251700
H       6.21829552      4.87819506     14.79108889
O       5.31097479      5.20543679     14.88071706
H       9.12748518      8.78984604     17.00383292
H      12.48349513      2.11788616     15.88587237
H       6.16075983     -0.43308412     17.30196121
H       4.81426696      0.03823942     16.64169305
H       2.32678624      8.37226426     14.76811663
H       5.20458832      5.30664746     15.85746607
H      11.48566011      5.74631489     15.14956412
O       5.15321678     -0.43725397     17.41604793
H      12.39053567      7.04310542     12.17246207
H       8.80181522      3.98379391     15.66259037
H      11.28301913      1.73092791     17.72538280
O      11.28673633      5.67040998     16.11388070
O      11.50588799      2.53095393     17.23261590
O      -0.39263289     10.43942908     19.04866255
H      10.51122477      5.09380566     16.14306575
O       9.41002018      3.94981610     16.44162705
H      -1.31749261      0.46064636     19.16825959
H      10.65347970      2.87339908     16.86493660
H      -0.17316166     10.89849775     19.90225713
H      11.37343915      8.32913058     16.58031975
H       1.34023739      5.19340064     17.30887168
H       4.39776511      0.60284922     18.93027518
O      10.62935005      7.91109678     17.10590113
H       8.98623865      4.06819779     17.29965993
O       1.91770122      4.99350889     18.10904409
O       4.27990892      1.08246696     19.79156515
H       3.66199132      1.85209191     19.68354805
H      10.74829606      7.00408387     16.69811977
O      11.34125647      2.67154223     21.01072299
H       1.51171150      5.69258313     18.76335381
H       1.54624297      2.99675982     20.12452059
H       4.44968207      6.97728811     17.55465712
O       8.25746864      4.33176748     18.96752250
H       0.52077533      2.40747768     21.89292233
H       2.19618652      3.71776707     18.90480862
O       2.43187907      3.15578468     19.69108601
H       7.40343764      4.83620915     19.16712653
H       6.16046982      1.44902480     20.10434374
H       3.49208207      5.89530237     17.92308606
H       8.00189066      3.38189260     19.05276730
H      10.76793018      3.51728360     21.08272519
O       4.43171767      6.00480318     17.69924554
O       1.17051855     -2.43729194     19.49952884
O       7.06689426      1.87226206     20.22002979
H       3.36812647      0.01849474     20.64325012
H       9.46086501      4.82522417     20.07413357
H       1.76744905     -1.74926873     19.91245616
O       8.18753080      9.32000975     19.62873298
H       0.54683440     -1.96275755     18.94620270
H       8.15327121      9.45954357     18.66933137
O       2.77362313     -0.67873611     20.98284328
O      10.11886175      4.90236757     20.85495488
H       7.14063567      1.92193701     21.24114225
H       7.76600636      0.53659552     19.91243471
H       7.25366806      8.12585642     20.55108758
H       4.85072759      4.66001885     20.79016280
H      10.54731800      5.78972412     20.70163532
O       6.76796020      7.42865071     21.11409207
H       3.38662592      8.57457261     21.66644312
H       4.00600681      7.10203455     23.15361646
H       7.23608246      7.24699109     21.91772181
O       4.20455743      4.13330570     21.36690412
O      11.03242132      9.04835307     23.88704863
O       4.54107153      7.88560655     22.74496511
O       7.52696200      1.70970895     22.84148013
H       9.58113954      4.45221841     22.60590638
H       3.51068294      3.84061052     20.76930824
H       5.21841704      7.54490666     22.05268773
H      11.44062412      8.25221258     23.56215566
H       6.68874755      2.06617067     23.23863582
H       8.24711432      2.40706461     22.94232941
H       4.71697767      3.02885149     22.40839920
H      11.57674809      9.76335090     23.53918837
H       3.70514155      5.19589588     22.48242093
O      11.54517424      6.32127787     23.05280457
H       1.29827475      6.05304502     22.81445342
O       3.27303616      5.77771038     23.19998442
O       4.95732402      2.41884480     23.18310030
O       9.04926089      3.87518734     23.28123608
O       1.57540292      1.08021923     22.71485708
O       6.37939343      5.55968732     23.06917902
H       8.08443393      9.98717354     23.61159973
H       5.27745756      8.96649968     23.62238541
H       2.20714297      1.40096632     23.40631849
H       6.36258181      5.86112860     23.98637829
H      11.46924286      5.87227984     23.91281450
H       9.36268166      4.32271043     24.11805839
H       5.10193433      0.84862402     24.05206946
H       9.21769928      8.85269572     23.83963161
H       5.13511135      3.06214045     23.93950295
H       3.17994568      5.33033344     24.02794659
O       8.27161169      9.06494089     24.11729280
O       5.63874217      9.70369821     24.17021976
H       2.01410683      0.51716530     22.00926482
H       7.30851418      5.30032089     23.19224453
Pt      2.94967700      9.38906889     26.40575836
Pt      5.62270627      9.14030023     26.18003934
Pt      8.37654222      9.34774726     26.28291114
Pt      0.14587186      9.19439106     26.19881790
Pt      8.54182654      4.44531678     26.37984206
Pt      4.16362024      6.83899681     26.31000833
Pt      9.73584856      6.79361017     26.59633267
Pt      6.98300077      6.71201015     26.31366156
Pt      0.14585770      4.44099971     26.34365162
Pt      1.45592804      6.85582774     26.38466231
Pt      9.90604775      2.06738151     26.55450800
Pt      7.02592402      2.03813402     26.48753603
Pt      2.87602456      4.36516234     26.32529821
Pt      5.56393990      4.33396056     26.28730143
Pt      1.49098360      2.08444650     26.40132344
Pt      4.34713482      2.06483770     26.55370798
H       6.57523112      9.82145268      9.13968925
H       6.96882871      2.98556338      9.08430772
