   244
 Tv_1:  11.152900   0.000000   0.000000 Tv_2:   0.000000   9.658700   0.000000 Tv_3:   0.000000   0.000000  26.829700
Pt      5.65795705      7.88807678      1.68508187
Pt      6.96365776      0.55398000      1.92742628
Pt      0.02801703      7.73923370      1.81957907
Pt      8.42145744      7.72698081      1.79628939
Pt      8.30247415      2.92473290      2.09298711
Pt      2.72911655      7.89167826      1.91064343
Pt      9.73221256      5.25039207      1.92768365
Pt      6.86504058      5.32010764      1.85129569
Pt      5.54377952      2.99580604      1.92260134
Pt      4.10226096      5.43532199      1.90816147
Pt      9.80094901      0.50068687      1.94045991
Pt      1.32914097      5.29716454      1.91800882
Pt      1.38418219      0.54157161      1.74127940
Pt      2.78884165      3.00021269      2.01154496
Pt      4.21961698      0.56839069      2.00828263
Pt     -0.02970941      2.98017292      2.08940922
Pt      5.25221604      6.48801370      4.02921947
Pt      8.06672167      6.38204144      3.99427223
Pt      6.67197735      8.80747764      4.27113244
Pt      6.72241662      4.12082221      4.26231970
Pt      8.08986227      1.63727295      4.35335436
Pt      5.29451002      1.66238752      4.32763842
Pt      9.45736917      3.95398337      4.37809969
Pt      9.46431777      8.87147072      4.08243430
Pt      1.08775795      8.87469516      4.17632327
Pt     10.85678124      6.53404391      4.24631978
Pt      2.48227793      1.57451863      4.26894860
Pt      2.45247347      6.47618486      4.22471745
Pt      3.91514309      8.82648101      4.32971384
Pt      3.84574550      4.07030282      4.11763489
Pt     -0.35515213      1.47532738      4.37676630
Pt      1.13531862      4.08050087      4.34937780
Pt      6.27970893      2.68628201      6.69779550
Pt      9.09751605      7.39198443      6.42729350
Pt      7.70700570      5.14398482      6.44736956
Pt      7.72162981      0.25068525      6.60315878
Pt      4.85648513      9.95985272      6.73292164
Pt      2.07650736      5.06529113      6.70589854
Pt      2.22756687      9.87826473      6.61285757
Pt      6.31274009      7.48979029      6.55893251
Pt      3.60248891      2.74147277      6.52289726
Pt      0.80930477      2.68938617      6.56331677
Pt     10.43565212      5.01535942      6.70382805
Pt      9.07373085      2.65003528      6.68886397
Pt      4.85485040      5.12169834      6.48541286
Pt     10.63012039      0.21636585      6.72910152
Pt      0.60646424      7.39338431      6.66169992
Pt      3.37210098      7.40128792      6.49996508
O       5.36927406      5.54068026      8.59606741
O       0.86009612      7.46047623      8.90901321
O      10.56903618      5.97395210     10.72813835
H       2.08573480      2.16116680      9.65900247
H       6.32796242      6.79411555      9.97408394
O      10.44974498     -0.17873610      8.78646258
H       0.39540643      8.45194365      9.05350741
H       3.45142007      1.97944350     10.57048957
O       7.77148652      9.48728394      8.82364137
H       8.75496265     -0.37153411      8.99269748
H      11.28947175      6.54277188     10.34336479
H      -0.48562330      0.64426796      9.27190015
H      -0.22724395      5.48750540     11.51399472
H       5.97508848      3.99276681      8.70604438
H       0.01610944      3.07072667      9.20526143
C       5.92486887      6.81107075      8.53438515
H       1.87200268      7.75574861      9.02257188
O       6.20140236      3.07233491      8.83478384
H       4.23822229      9.40416376      9.42165636
H       4.36289572     10.87883203      8.95479631
H       5.29796094      7.63462446      8.88647497
O       4.92305421      9.98344070      8.95137475
O       3.06180269      2.31746398      9.71936863
O       0.33964261      2.40792664      9.86963998
H      -0.01617234      2.68469969     10.74523121
H       9.46563785      7.12030057     11.23292713
O       8.77330047      7.84535715     11.46710414
H       5.03274639      1.73511418     12.17449818
O       4.10454907      1.83280443     12.10696381
O       2.68409001      4.96801351      8.86196859
H       3.60116169      5.40140355      8.92033856
H       7.06014860      6.72471020      8.63780631
H       2.17221313      4.16002915     12.82761816
H       3.77200654      2.68509284     12.35103722
H       9.06532645      8.39206768     12.27671470
H       3.56432706      5.82570221     11.68055392
H       5.02683035     -3.14845096     11.51794100
O       3.99497768      6.73675394     11.44737525
O       3.06980988      4.41456740     12.59739808
H       2.77542606      3.98518767      9.23056893
H       8.94700596      4.95202218     10.80013167
H       3.41245222      4.64888813     13.48727795
H       9.06190955      9.62580405     14.00780834
H      11.38985872     10.08075427     11.77323601
H       8.11910657      3.71738988     11.43734524
O       0.65676514      9.19528960     11.72513630
O       9.69645599     -0.61582218     13.50186490
O       8.08415907      4.68547246     11.20289580
Cl      7.79256304      1.70046030     11.09729027
H       2.19766644     -0.63377195     10.60098648
O       6.52405195      6.74199203     11.15189613
H       7.04475810      5.85390799     11.21100138
Cl      0.27872193      3.87100187     12.94475668
O       7.65215726      0.98030488     14.20483959
H       0.79306482      9.02924587     12.67276915
O       2.94910350     -0.97187184     10.07505200
H       7.77099157      7.44347626     11.35592515
H       7.79834276      1.99210397     14.38524265
H       7.59338088      0.96988180     13.18915406
H      10.03000842     -1.40657033     14.05123257
H       5.23235338     -4.58350876     19.08927003
O       6.64138432      5.61365974     14.53496597
H       5.76688800      5.19062252     14.86562762
H       6.86268252     -0.64064372     15.52769419
H       3.22787831     -1.82901994     10.48098263
H       9.09883330      3.77472547     13.81897622
H       4.48623480      0.91269009     14.51297295
H       6.65434920      6.42929273     15.07160972
H      12.35181026      1.85063334     14.39703169
H       7.81864298      4.42810744     14.51860993
O       5.57877767     -5.02877063     19.89239645
H       5.85568678     -4.31917875     20.51154065
O       4.01528726      0.55739803     15.33089114
O       6.92264328      8.13759600     15.97611920
O       8.41319922      3.59963596     14.44310912
H       3.03514297      0.64186357     15.12805215
H      11.20699403      6.45232406     13.34283100
O       1.29848780      0.93670075     14.62778538
O       2.60810439      7.97459742     13.69584879
O      11.30014757      7.00760580     14.15726992
H       2.87189421      8.92685639     13.70754137
H       3.68203785      3.78061797     15.62898568
O       4.03873601      4.59905413     15.23044736
H       7.72561585      8.18807837     16.54281331
H      12.26494683      0.80455044     15.57697224
H       5.54612156     -1.40432206     17.15339324
H       4.44938726     -0.36922126     16.79404374
H       3.21236500      7.54589499     13.03120672
H       4.18850123      5.12431100     16.04944488
H      11.05614090      6.16633586     15.53609665
O       4.67686649     -1.06249942     17.48161771
H      12.18699762      7.42230814     14.15146822
H       9.05374850      3.34323905     16.20916230
H      11.41209857      0.45278463     17.93151003
O      10.85293910      5.91303089     16.48607643
O      11.10000815      0.72887511     16.98618000
O       1.00584781      9.88289137     19.50189764
H      10.55264902      4.94367727     16.39039409
O       9.64915618      3.22261169     17.01671725
H       0.81202127      1.05931959     20.06951766
H      10.51452396      1.54589024     17.08741572
H       1.98240199      9.78677721     19.46459047
H       9.83680593      8.84667334     17.15077582
H       1.04566872      5.79901296     17.54405077
H       4.85773503      0.31952291     18.76265373
O       9.30834090      8.06783256     17.16215448
H       9.02822596      3.39129548     17.87438886
O       1.62820868      5.55525808     18.34721960
O       4.66511892      0.94194244     19.52764263
H       4.08830454      1.60346712     19.14133281
H       9.73496839      7.30465733     16.68680374
O      12.17352797      2.61797406     20.91515652
H       1.19744025      6.02631051     19.08680599
H       1.62314268      2.14717231     17.13268998
H       4.37353530      6.73945334     17.67887398
O       8.05127049      3.61704439     19.11749553
H       0.99182045      2.31641378     21.84217076
H       1.84949854      3.51539004     17.78926148
O       2.32903833      2.72736373     17.42342138
H       7.17907550      4.09318142     19.10785277
H       6.32797123      1.28651567     20.21022500
H       3.33077963      5.65513291     18.11447130
H       7.84559852      2.70515964     19.51616047
H      11.62065841      3.42923056     20.78946544
O       4.33675431      5.79847628     17.91510986
O       0.29407286     -2.45632208     20.35101010
O       7.30275218      1.26869865     20.31900555
H       3.40998235      0.02030227     20.65632004
H       9.35237368      4.41267122     20.11944514
H       0.66127622     -2.59340697     21.23221751
O       7.86477808      8.30048126     19.82433748
H       0.65041999     -1.67649189     19.87024267
H       8.38522680      8.15199883     19.05293537
O       2.95763316     -0.34884068     21.44667403
O      10.24166905      4.78966596     20.51944985
H       7.32837588      1.54618898     21.28065431
H       7.64019666     -0.38486094     19.86715868
H       7.07119213      7.19148602     20.99189239
H       4.11030438      4.01765455     20.57142134
H      10.44480639      5.68461326     20.21597553
O       6.63247802      6.43529834     21.47364448
H       3.54053901      8.58319661     21.79489470
H       3.97131195      6.51385361     23.22036368
H       7.38056930      6.29016727     22.10241575
O       3.38994692      3.73940452     21.25368595
O      11.41641736      9.18625882     24.15960874
O       4.61379593      7.30992035     22.95270231
O       8.10227607      2.02810365     22.72083091
H      10.14029123      4.33158677     22.20302111
H       2.68436518      3.32700724     20.72882385
H       5.46632438      6.96670698     22.52481847
H      11.96363331      8.32857100     23.83842335
H       7.32780934      2.17485244     23.34906362
H       8.71454631      2.83254769     22.82157520
H       4.65974109      2.67396709     22.69912087
H      11.93982330     10.01639622     23.69541409
H       2.97798589      4.61166658     22.51318627
O      11.99620270      6.82015013     23.01201095
H       1.54706530      6.07544321     23.23362053
O       2.87479076      5.25703725     23.30363336
O       4.87520434      1.99096370     23.35406579
O      10.14702698      3.57541051     22.88814015
O       1.79972728      1.46422094     23.13583258
O       8.99638357      6.72186982     23.15994415
H       8.52556868     10.34353776     23.64495628
H       5.16933707      8.53237161     23.71378780
H       2.33560583      1.64798015     23.97593208
H       8.94054929      7.71111150     23.11734330
H      11.10300786      6.55175586     23.27351130
H      10.19346466      4.08175707     23.71537592
H       5.15886678      0.48822915     23.80646600
H       9.74092069      9.39526668     23.73338937
H       4.97473380      2.53962713     24.21435407
H       3.20206632      4.78634821     24.09748717
O       8.81832558      9.48565165     24.06488068
O       5.67368492      9.37317190     24.07354678
H       2.34029056      0.77378105     22.62571085
H       9.05476526      6.56726718     24.14576232
Pt      3.05023989      9.16700750     26.36003519
Pt      5.81096631      9.12639483     26.13187133
Pt      8.56608965      9.10548146     26.29971673
Pt      0.35204895      9.13590089     26.30764407
Pt      8.47860024      4.21578307     26.32463567
Pt      4.21412213      6.80628324     26.34431316
Pt      9.87272993      6.63714531     26.32092801
Pt      7.09874311      6.57947172     26.35092795
Pt      0.20256923      4.26303712     26.41480208
Pt      1.50524362      6.70097369     26.37029875
Pt      9.99643705      1.94149221     26.50247096
Pt      7.27088192      1.88595053     26.45882705
Pt      2.98482306      4.32687182     26.42333121
Pt      5.74290048      4.29744451     26.23836128
Pt      1.60350990      2.00253213     26.29208747
Pt      4.37791444      2.01512053     26.50443363
H       7.73052441     10.17835739      9.50555902
H       6.94469229      2.85063761      9.40819755
