   244
 Tv_1:  11.152900   0.000000   0.000000 Tv_2:   0.000000   9.658700   0.000000 Tv_3:   0.000000   0.000000  26.829700
Pt      5.62049477      7.86392383      1.82500568
Pt      7.05991398      0.63156696      2.05937334
Pt      0.20059535      7.78363058      1.80274187
Pt      8.33639571      7.92202134      1.95946802
Pt      8.43880569      2.97396423      2.25577554
Pt      2.98914058      7.85482499      1.96841927
Pt      9.80163120      5.48049681      2.11095352
Pt      7.06579658      5.37800444      2.06871228
Pt      5.62210998      3.04524213      2.10955540
Pt      4.32387649      5.41101312      1.91018046
Pt      9.92921084      0.55147535      2.01980101
Pt      1.52649321      5.37528417      2.11829795
Pt      1.44703400      0.55191973      1.91351152
Pt      2.82357344      3.08644612      2.01417616
Pt      4.29987359      0.58695396      2.18680022
Pt      0.03847124      2.98766146      2.07512335
Pt      5.21330888      6.56889264      4.29389616
Pt      7.93304196      6.62681715      4.32907367
Pt      6.54429319      8.95261900      4.50553741
Pt      6.68137526      4.11781639      4.37174322
Pt      7.89792426      1.47918230      4.44078218
Pt      5.13414046      1.64496393      4.42506004
Pt      9.54349853      4.06297861      4.32144237
Pt      9.35600303      8.87690756      4.28719171
Pt      1.12904633      8.86520891      4.18903641
Pt     10.83321945      6.63292437      4.28645295
Pt      2.50344224      1.78025583      4.20926820
Pt      2.46504166      6.44939500      4.27371288
Pt      3.80960449      8.80993728      4.38098740
Pt      3.87827543      4.18198847      4.32253038
Pt     -0.45457938      1.52324737      4.44181197
Pt      1.08477020      4.15465400      4.34231959
Pt      6.28469846      2.62723442      6.75733526
Pt      9.24507876      7.63418357      6.56659728
Pt      7.63640225      5.05404570      6.60635687
Pt      7.69591983      0.27222749      6.92352693
Pt      5.00361396      9.95375213      6.74347036
Pt      2.08712084      5.16146165      6.65826665
Pt      2.26649689      9.91168314      6.53840992
Pt      6.37854672      7.47387264      6.83716878
Pt      3.45135378      2.68227595      6.64220753
Pt      0.60997440      2.83309924      6.53911341
Pt     10.51749699      5.20073483      6.62749464
Pt      9.05699657      2.78133275      6.69641356
Pt      5.03074462      5.03814167      6.63314515
Pt     10.51410746      0.50078615      6.87061774
Pt      0.81673133      7.63766921      6.57861742
Pt      3.56240778      7.51451891      6.61807432
O       5.04552037      5.81143242      8.94188325
O       0.83140922      7.57337818      8.92274035
O      10.32042477      5.22288783      8.99260136
H       1.56539115      2.19839417      9.61101775
H       6.33934655      6.47784367     10.47884160
O      10.49735881      0.26203907      8.98347699
H       0.28879850      8.43113042      9.05481168
H       2.88361458      2.29895163     10.40707148
O       7.99644908      9.45992945      9.00647968
H       9.51810037      0.18227269      9.08030781
H       9.66993786      6.08433916      9.16946005
H      -0.41998843      1.11290813      9.55080573
H      -0.05491228      5.69482255      9.28339915
H       4.86938729      3.57764613      9.34110246
H      -0.59434605      3.53985863      9.70175810
C       5.98046860      6.75689781      8.87786033
H       1.77531973      7.88621625      9.13448454
O       5.31299579      2.79337814      9.76122079
H       4.16227382      9.41614327      9.26913561
H       4.79224810     10.91201096      9.16962400
H       5.69758960      7.81809052      9.18365246
O       4.90711406      9.96871655      8.80416984
O       2.52138151      2.44104559      9.51706476
O      -0.31790945      2.63438979     10.12634219
H      -0.21300678      2.86378569     11.07384288
H       8.60169347      7.90792890      9.34529096
O       9.06438801      7.23112722      9.85982222
H       3.91356223      0.83502431     12.39371891
O       3.18421920      1.26921371     12.90925241
O       2.38455540      5.20210931      8.89728757
H       3.34270131      5.60823127      8.83220585
H       7.00074980      6.39230016      9.12710803
H       2.36748924      4.40313640     13.60558445
H       3.49842566      2.10580469     13.27963002
H       9.60858296      7.67776796     10.59484383
H       3.39012971      5.64576046     12.11122166
H       4.72048471     -3.18676941     11.87328333
O       3.69247109      6.51690975     11.85743155
O       3.30872394      4.20606955     13.54319175
H       2.48397827      4.25518690      9.28588813
H       8.36810025      4.07374543     10.11514959
H       3.87570569      4.38112151     14.35075355
H       9.51926643      9.19684915     12.43621259
H      11.41271535      9.44570083     11.39569223
H       8.20292116      3.75543649     12.50832769
O       1.08210321      9.94792943     11.13079796
O      10.13096744     -1.11261236     12.05297150
O       7.79003219      4.05729543     10.93627308
Cl      5.91295486     -0.41958103     12.36757225
H       2.30834398     -0.42193607     10.53339072
O       6.36862576      6.29563368     11.52699178
H       7.60611478      5.00838954     11.12408051
Cl      0.24567354      3.85733581     13.23825742
O       8.55266063      0.71542786     13.46744490
H       1.32256952     10.28996620     12.05070779
O       3.01512826     -0.98681832     10.03183000
H       6.57031019      7.23717430     11.76310534
H       8.54921443      1.71283031     13.36529910
H       7.75430545      0.29082342     12.96612614
H      10.42057420     -1.68200980     12.82094729
H       5.47770835     -3.70871707     19.04114508
O       7.18090627      5.08772083     15.15741751
H       5.61442879      4.45294343     15.63014436
H       6.42703374     -1.38357592     13.94683039
H       3.31271540     -1.76729354     10.54378170
H       9.41506864      3.87883583     13.53916659
H       3.97974046      0.40988522     16.65758175
H       7.15699303      6.02010480     14.78482854
H      12.41231404      2.46625057     14.94359426
H       7.61324230      4.57454762     14.42790100
O       5.92865852     -3.97524552     19.84481029
H       6.44169365     -3.19123189     20.04684762
O       3.53826824      1.32708707     16.68356204
O       6.61635418      7.84258219     14.83546881
O       8.47202347      3.55493594     13.45714954
H       2.06456641      1.50010388     16.02826837
H      11.32297981      5.79471803     13.88029731
O       1.19875773      2.06096560     15.85562179
O       2.54383554      8.11482409     13.92672607
O      11.21913225      6.80797008     13.94903355
H       3.03635114      7.53104890     13.34565816
H       4.14167861      1.97950561     16.28241876
O       4.74218090      4.01397819     15.87179166
H       7.26419608      8.44397844     15.28728767
H      11.21685299      2.09619638     16.63548776
H       5.01551063     -1.47269791     15.70511305
H       3.47180066     -1.35644218     15.58055248
H       2.57434704      8.93952632     13.42043286
H       4.42101123      4.58450721     16.63520871
H      10.48470077      6.99206278     15.92929608
O       4.19876553     -1.17078072     16.18731738
H      12.14918468      7.14204990     13.89968132
H       8.21292067      4.68955522     16.55564024
H      10.46456429      1.87391915     18.33224900
O      10.16082131      6.94182397     16.86330526
O      10.36155005      2.17943470     17.38826356
O      -0.47893201     10.66559102     19.78522020
H       9.62820798      6.06235405     16.99348587
O       8.95893963      4.41210761     17.22775431
H      -1.48700687      0.75209639     19.66868377
H       9.84961431      3.10892993     17.31336455
H      -0.44410154     11.50279906     20.26887038
H       8.95930287      9.68814402     15.48370214
H       1.01812099      6.48316215     17.51661345
H       3.69213783      1.89207190     18.35918098
O       8.62555566      9.19348730     16.23530412
H       8.68712422      4.54866979     18.18828980
O       1.68746820      6.50714399     18.20560897
O       3.91561419      2.25640685     19.27196991
H       3.29187638      2.93279359     19.56730080
H       9.20211558      8.33202268     16.41313416
O      11.30748450      3.09663485     21.58351328
H       1.39744467      7.32844180     18.76476408
H       1.85785808      4.68131377     19.33569804
H       4.37741710      7.04863691     17.24455118
O       8.43238386      4.42441392     19.83381896
H       0.59596098      2.69661098     22.30143328
H       1.30279247      3.64575536     20.47670986
O       2.12163252      4.16521048     20.10040256
H       7.52811288      4.78135014     20.03199959
H       5.54586261      1.78965932     20.10477197
H       3.37404923      6.16647990     17.93014482
H       8.87842638      5.17085905     20.38169616
H      10.75420475      3.77003237     21.93195461
O       4.32619521      6.16366681     17.73628321
O       0.96322354     -1.14478580     20.07879511
O       6.32963657      1.28971548     20.40540366
H       3.31240055      1.27987606     20.57840356
H      10.66587416      7.00847878     20.70679108
H       1.70691401     -0.72481981     20.47289054
O       8.18352873      9.95018141     19.03918275
H       0.47506278     -0.38914227     19.84531042
H       8.07333540      9.84127570     18.07643041
O       2.88690638      0.63624499     21.23590767
O       9.93711521      6.58663298     21.26380762
H       6.70268370      1.78029424     21.23330609
H       7.31797309      0.69107054     19.35729185
H       7.87526766      8.44054700     19.81581388
H       4.88700034      4.86856307     21.11260516
H      10.30469966      6.56975882     22.19087147
O       7.56813899      7.71868351     20.47490207
H       3.60033236      9.61937490     21.49198105
H       4.52895299      7.64460999     22.31235876
H       8.42127691      7.28970850     20.79227896
O       4.25577221      4.47260669     21.75960941
O      11.33692417      9.54398897     24.06868654
O       4.92491265      8.52246261     21.97070290
O       7.85578977      2.03443439     22.77998784
H       8.86013533      4.99996239     23.13297968
H       3.54043324      4.23762763     21.07637535
H       5.74981519      8.26807026     21.46210354
H      11.59500976      8.69203931     23.68353659
H       7.06387386      2.31873790     23.28837806
H       8.47048633      2.80382073     22.91474817
H       5.08941810      3.24800132     22.79858762
H      12.06297220     10.25413767     23.86807491
H       3.73644197      5.72766280     22.65070133
O      11.75535215      6.42004114     23.10126534
H       1.62751075      6.50077388     22.97470739
O       3.34460272      6.52988907     23.12534384
O       5.40628738      2.83794663     23.62437280
O       9.64200896      4.37450184     23.20567365
O       1.94285661      1.88299021     23.32328195
O       7.50730383      6.13687324     23.20112844
H       7.81726261      9.66098100     23.54646647
H       5.36493240      9.03411232     23.38649603
H       2.34340448      2.53443673     23.94377162
H       7.82028166      7.01446471     23.46048461
H      11.74936901      5.99842573     23.96326240
H       9.99757878      4.40308916     24.11736991
H       5.30821560      0.88353877     24.06809433
H       9.39642307      9.51974978     23.59854600
H       5.49752820      3.57106869     24.34757101
H       3.46394605      6.61012043     24.08545110
O       8.53155215      9.06550556     23.84975379
O       5.67086685      9.65672100     24.21969291
H       2.51323036      1.51277190     22.62709550
H       7.04171099      5.81684412     23.99657213
Pt      2.91957047      9.28716323     26.36056719
Pt      5.64368046      9.13002564     26.34355856
Pt      8.45398307      9.17526459     26.32666172
Pt      0.15815015      9.25033515     26.35970311
Pt      8.67453713      4.37485910     26.58536702
Pt      4.42023944      6.75452676     26.20182427
Pt      9.97860329      6.81948752     26.44579282
Pt      7.13861783      6.75672949     26.59199619
Pt      0.32967944      4.52658798     26.64066916
Pt      1.59860874      6.90244072     26.39255997
Pt      9.97294994      2.00671934     26.44901349
Pt      7.24158376      2.06741748     26.62104022
Pt      3.10347198      4.31526804     26.39511726
Pt      5.76960711      4.41622758     26.32364839
Pt      1.61474408      2.06804078     26.49068597
Pt      4.40479174      1.91291170     26.55633951
H       7.38633074      9.88273413      9.58340314
H       6.16252554      3.17433744     10.16189521
