   244
 Tv_1:  11.152900   0.000000   0.000000 Tv_2:   0.000000   9.658700   0.000000 Tv_3:   0.000000   0.000000  26.829700
Pt      5.87867134      7.95937548      1.79243900
Pt      7.24455979      0.66683545      2.04746716
Pt      0.19549963      7.87323202      2.06780726
Pt      8.68259329      8.00194554      1.79051142
Pt      8.55228145      3.00731636      2.06520569
Pt      3.11185214      7.89869602      2.12471190
Pt      9.82342248      5.42686712      2.05789045
Pt      7.14963455      5.55250333      1.91153890
Pt      5.69133910      3.06441924      2.05741160
Pt      4.46442355      5.58726036      1.99970646
Pt     10.09705228      0.64627065      2.11145108
Pt      1.59292238      5.51740242      2.09893854
Pt      1.61326265      0.57762502      2.07398154
Pt      2.89139514      3.04525550      2.10256016
Pt      4.34306328      0.54920839      2.08540084
Pt      0.15754615      3.04528771      2.18180761
Pt      5.41479156      6.54703702      4.28503811
Pt      8.04397544      6.51211813      4.26066584
Pt      6.68216344      8.99447442      4.39586801
Pt      6.81987714      4.01864338      4.31859736
Pt      8.16107686      1.57897325      4.47529903
Pt      5.30296738      1.71240133      4.31545197
Pt      9.52994141      4.19177478      4.51670628
Pt      9.42556583      8.80372402      4.39248633
Pt      1.10661288      8.99106831      4.30736336
Pt     10.87558086      6.53134969      4.33897853
Pt      2.55543895      1.79602437      4.40614932
Pt      2.65462329      6.55351347      4.49576339
Pt      3.93693448      8.96199014      4.40512830
Pt      3.96995891      4.11454705      4.41462060
Pt     10.88239263      1.64455557      4.47361419
Pt      1.20420358      4.16106684      4.34851323
Pt      6.27328359      2.74467851      6.65597675
Pt      8.98418027      7.57423871      6.76763090
Pt      7.75392435      5.06859534      6.71225068
Pt      7.50210650      0.39143302      6.82215671
Pt      4.81810400      0.42497931      6.76856013
Pt      2.12921790      5.14132589      6.74008246
Pt      1.91616703      0.42443829      6.69587039
Pt      6.25709066      7.66200402      6.74756523
Pt      3.45885410      2.79412010      6.75898562
Pt      0.75728508      2.78937395      6.63209654
Pt     10.41280951      5.23052293      6.86543838
Pt      8.98341119      2.71268226      6.67488890
Pt      4.98407844      5.17390704      6.76554802
Pt     10.34669145      0.41180246      6.85528003
Pt      0.61599570      7.65404452      6.69178165
Pt      3.39389636      7.67204381      6.70132666
O       5.46420198      5.64002242      8.79129491
O       0.57786489      7.66695817      9.09537021
O      10.41893688      5.26025551      9.16271378
H       1.92844540      2.27305508      9.60345432
H       6.87076796      5.61797375      9.28991023
O      10.17974768      0.14368435      8.97255877
H      11.21934519      8.53290325      9.14833417
H       2.98041010      2.68365525     10.64454698
O       7.62674275     10.17906344      9.01341810
H       8.67214431      0.37434737      9.23198391
H       9.51919969      5.59142034      9.44348639
H      10.51177474      0.93072064      9.43761702
H      10.96932602      6.04336195      9.32284135
H       5.37354437      3.37970107      9.52421940
H      10.68516374      3.60054624      9.73139907
C       5.59303890      7.00283676      8.69508450
H       1.45147643      7.96946962      9.51681185
O       5.81467556      2.53078510      9.19227006
H       3.91407498      9.61014554      9.39524663
H       5.03493850      1.08434025      9.27897148
H       4.63258150      7.48173707      8.85991116
O       4.75739223      0.18022983      8.93676171
O       2.73944930      2.79520858      9.67517388
O      10.88065084      2.80536913     10.30560969
H      11.02537804      3.26493811     11.17758513
H       6.95448035      8.30877451     11.82625130
O       7.67480409      8.02097849     11.20069687
H       4.55427723      1.95319111     12.63371010
O       4.18846798      2.75820275     12.18426774
O       2.23168842      5.25323221      8.96226727
H       3.07712526      5.79284393      9.14871042
H       6.39320583      7.54246615      9.16900782
H       2.16539860      4.49151363     13.57930774
H       3.92034862      3.30147291     12.98166173
H       9.13948399      8.30454420     11.85156116
H       3.77446449      6.00255821     12.12246626
H       4.78816199      7.12910063     11.96330831
O       4.10631166      6.60685715     11.42512313
O       3.08849705      4.84780346     13.66718374
H       2.46289383      4.31599803      9.21479829
H       8.81778860      2.77673279     10.41461467
H       3.47674330      4.59510773     14.54396502
H       9.56689024      9.07685751     13.08270164
H       0.12927668      0.21762680     12.06066400
H       8.08270356      3.14866511     11.74795360
O       1.00167700      0.66450652     12.05917745
O      10.01985177      8.61496171     12.31965264
O       7.97117886      3.04233859     10.79366655
Cl      5.52017506      9.31547200     12.64653481
H       2.07561664      9.49208912     10.85381152
O       7.73244803      5.66534084      9.93245512
H       7.62106245      4.73234410     10.32559597
Cl      0.26983350      3.61916245     13.40789644
O       8.29363760      0.37738623     13.87491101
H       0.73638724      1.60758105     12.22857226
O       2.61127416      8.85763173     10.30248180
H       7.60069698      7.12263163     10.88290341
H       8.20070709      1.28334474     13.54368488
H       7.54917910     -0.07867166     13.33654038
H      10.85324833      7.29084516     13.23639433
H       4.23702755      5.29394866     18.87520674
O       7.05326258      4.64261888     15.37738189
H       6.03961408      4.56250522     15.55243568
H       5.88454857      7.99069786     14.10748341
H       2.98909653      8.16526586     10.94377223
H       9.19180802      3.52775961     13.48923653
H       2.22273202      1.31084624     15.88287620
H       6.91720206      5.58572463     15.09468063
H       1.46447370      0.86981384     13.77856221
H       7.79121984      3.87560794     14.12523404
O       4.95505615      5.21168032     19.56461770
H       5.30776904      6.09935985     19.77974937
O       2.69292940      1.88807524     16.61219198
O       6.09444369      7.29738918     14.82898530
O       8.23385953      3.21145736     13.51210083
H       1.94903692      2.45514081     16.92061646
H       0.15410268      5.80120451     13.76206316
O       1.31250108      0.55264638     14.71152696
O       2.53813796      7.92194897     14.68442120
O       0.16676123      6.75434904     13.96934981
H       3.25631008      7.76217574     15.63249194
H       3.93361183      3.60478309     16.30278013
O       4.33420268      4.45220573     15.95473507
H       6.84365376      7.80850842     15.28187652
H       0.32824052      0.78050862     14.90064295
H       4.85590365      7.46909280     15.84380237
H       4.10431967      8.48629720     16.94285937
H       2.08257383      8.80789926     14.79115614
H       4.00832038      5.00419171     16.80292373
H      10.62993556      7.13476747     15.78344178
O       4.05394733      7.62582032     16.44195640
H       1.74626855      7.39565320     14.42942550
H       8.92987641      3.95209727     16.73492932
H      10.56976084      1.34148686     16.66399213
O      10.16953622      7.14175443     16.63942117
O      10.35330656      1.26267977     15.70545175
O       8.50146387      1.75655608     20.08354066
H       9.89714514      6.22022669     16.75042126
O       9.46769555      4.20932400     17.54413537
H       8.20372313      2.58538403     19.64130423
H      10.37894718      2.15449787     15.33919406
H       8.19465490      1.72876096     21.01538388
H       8.22952986     -0.27309552     15.64876555
H       0.25168890      7.35448328     17.87821733
H       4.81508938      0.24720489     18.42124153
O       8.01144904      8.86257101     16.41968151
H       8.68642644      4.26358078     18.18590090
O       1.02325466      7.36578178     18.50402208
O       3.88607404      0.11160753     18.11566484
H       3.56592051      0.91307486     17.69605087
H       8.79985522      8.18188284     16.30397125
O       1.53240568      3.43399737     20.82758748
H       1.10156534      8.27780608     18.85617511
H      -0.00140305      3.83419023     17.96344756
H       2.29000985      6.28923533     17.86757013
O       9.16446800      5.45592506     21.78867341
H       1.39401714      2.88632782     21.61824712
H       0.83570202      3.15424395     19.09273931
O       0.92136009      3.52007998     18.18612360
H       8.63391426      6.07992524     22.33317048
H       6.55060118      4.28191310     19.43682366
H       1.94107967      4.67840929     18.07255886
H       9.94557111      5.86815363     21.33601702
H       1.04393824      4.27521906     20.92323779
O       2.73923916      5.38052730     17.95790372
O      10.57084000      0.79677710     18.42517684
O       7.62713603      4.16948648     19.53083212
H       2.60431063      9.68655508     19.57902112
H       0.58069903      6.48547575     20.11861828
H       0.25827468     10.64922952     18.88996997
O       6.81143128      9.62476937     18.86318648
H       9.83264388      1.24903541     19.01837238
H       7.16735670      9.27244688     18.00722875
O       1.72978918      9.68955585     20.01183896
O       0.47923454      5.78523675     20.79038659
H       8.07844384      4.73099628     20.19237272
H       7.53792711      0.57403598     19.30950548
H       6.34456533      8.39912310     19.97872410
H       4.49172584      4.44035657     21.00662572
H       0.56405666      6.21958131     21.61268922
O       5.99097853      7.61664790     20.58398909
H       1.97230118      9.39945287     20.92594245
H       3.89756706      7.32128695     22.93991214
H       6.73020682      7.46413274     21.23024537
O       3.97031584      3.86006885     21.62805872
O      -0.11002520      9.56649177     22.68744828
O       4.24622979      8.19089164     22.57553775
O       8.10766045      1.81030016     23.01743414
H       9.73572906      4.26015694     22.74148613
H       3.15056971      3.63429301     21.07830314
H       4.77934196      7.91968686     21.78128263
H       0.47832829      8.92593992     23.24864672
H       7.21983112      2.14052813     23.36163173
H       8.54814794      2.64861946     23.28201805
H       4.77809888      2.86338020     22.76533458
H       0.14077145     10.44159228     23.08696991
H       3.48068326      5.08547420     22.68220805
O       0.77573686      6.85513754     23.19580773
H       1.74837781      6.51842520     23.25681213
O       3.18493818      5.79765100     23.34725745
O       5.49474764      2.50634769     23.42852264
O       9.96833775      3.62959462     23.55454558
O       1.24115464      2.31140669     23.33323817
O       7.70169179      7.11778351     23.05908101
H       8.44853274      0.49760406     23.77249487
H       5.09525805      9.06835320     23.56032287
H       0.43706142      2.94949864     23.62013156
H       8.15749867      7.92577766     23.51014429
H       0.45109976      6.71318217     24.05880333
H      10.17923704      4.11605651     24.36672128
H       5.70668307      0.95129215     23.91185688
H       9.71560804      9.33279364     23.51155462
H       5.45528228      3.20988679     24.16340118
H       3.35638699      5.37088007     24.30116294
O       8.78257252      9.25314221     24.08659140
O       5.74346721      9.67550650     24.14646958
H       1.97599125      2.26579494     23.99860637
H       7.29639927      6.61093842     23.78163534
Pt      3.18877979      9.21587492     26.47552073
Pt      5.94187957      9.22923092     26.30634377
Pt      8.64103042      9.03156457     26.25671526
Pt      0.44534728      9.20738725     26.60323646
Pt      8.71063643      4.25596286     26.40135372
Pt      4.52657350      6.84676237     26.40241132
Pt     10.19831935      6.63763816     26.46854355
Pt      7.42851412      6.59626563     26.32695843
Pt      0.50490576      4.36967299     26.57170134
Pt      1.71038999      6.81626248     26.51341233
Pt     10.11917731      2.07178027     26.64722458
Pt      7.29668545      1.92827977     26.59337281
Pt      3.17985254      4.39301481     26.58980087
Pt      5.88233308      4.39702899     26.40674209
Pt      1.66128452      1.94476644     26.52444266
Pt      4.45378530      1.96960063     26.52137522
H       7.22062271     -0.29813280      9.35930660
H       6.68290675      2.40827920      9.72636074
