   244
 Tv_1:  11.152900   0.000000   0.000000 Tv_2:   0.000000   9.658700   0.000000 Tv_3:   0.000000   0.000000  26.829700
Pt      5.77710993      7.73778878      1.90934725
Pt      7.15731843      0.59869830      2.04797886
Pt      0.02895213      7.98318237      2.07124941
Pt      8.45790860      7.80487779      1.87818646
Pt      8.66944551      3.05076767      1.97281721
Pt      2.94254815      7.74189804      2.00244033
Pt      9.97166634      5.49542787      2.05134702
Pt      7.12563195      5.41921740      1.98859317
Pt      5.82020569      2.92606879      1.94573605
Pt      4.34906702      5.33021057      2.11488207
Pt      9.95553498      0.69737852      2.14130018
Pt      1.53996255      5.37284170      2.03939109
Pt      1.66610432      0.49085396      2.05493487
Pt      2.94463511      2.94148961      2.18768017
Pt      4.36918951      0.44859454      1.89270663
Pt      0.26567824      2.98319977      2.04703024
Pt      5.35694577      6.44079802      4.31088858
Pt      8.13039504      6.42104150      4.27147756
Pt      6.71371299      8.87054448      4.34101505
Pt      6.82677119      4.06285253      4.18050436
Pt      8.07743303      1.51184435      4.38701647
Pt      5.28419837      1.58796462      4.21898203
Pt      9.60440338      4.01124095      4.27034226
Pt      9.47472140      8.81664795      4.45036106
Pt      1.20458337      8.87108730      4.39492837
Pt     10.99187747      6.45559217      4.33271500
Pt      2.58982876      1.59472735      4.41885629
Pt      2.51868097      6.46569389      4.36757781
Pt      4.09349006      8.82343204      4.26637663
Pt      4.15375171      4.09539966      4.44977357
Pt     -0.20332008      1.53026482      4.50940681
Pt      1.18511158      4.08457151      4.50173609
Pt      6.24534668      2.79814403      6.61352188
Pt      9.05972114      7.35995895      6.62131113
Pt      7.67245929      5.10552448      6.61272463
Pt      7.66080456      0.40113511      6.86283393
Pt      4.87135662     10.13270730      6.68810389
Pt      2.07778344      5.12553481      6.77780690
Pt      2.10927063      9.95722368      6.74837149
Pt      6.26758847      7.57860613      6.92579176
Pt      3.42839395      2.74506641      6.67632247
Pt      0.71835087      2.58888934      6.75635075
Pt     10.42753251      5.04753071      6.71151130
Pt      9.12102790      2.69823234      6.73172385
Pt      4.91301777      5.27921602      6.75860824
Pt     10.53007216      0.28581469      6.87132077
Pt      0.75573222      7.46806945      6.75354076
Pt      3.40047191      7.70316426      6.70098458
O       5.35182930      5.62432975      8.81141228
O       0.60154212      7.39506154      8.94577106
O      10.36461857      4.91758310      9.05392658
H       2.87705747      1.90536772      9.23300880
H       6.78054727      4.91569368      9.40667931
O      10.19418694     -0.17840875      8.88658111
H      -0.05826200      8.22969425      9.20515652
H       3.11695360      2.40958088     10.71944411
O       7.84659176      9.78527787      8.91590911
H       9.05415215     -0.10261169      8.94707511
H       9.35253219      5.02933418      9.18170951
H      -0.58203134      0.70388720      9.17583934
H      -0.32395373      5.79607288      9.19538097
H       6.93159033      1.64032050     10.88451496
H      -0.00863184      2.67791632      9.68509043
C       5.82317641      6.86958364      8.93872787
H       1.51883155      7.52869739      9.39930591
O       6.12588019      1.21596705     11.18811131
H       4.09070742      9.38280413      9.33898633
H       5.35627020     10.35993584      9.59909489
H       5.03356658      7.56994999      9.21754194
O       4.54611423     10.19285159      8.98260468
O       2.64577220      2.59048752      9.89908485
O      -0.38470203      1.89494977     10.10693022
H       0.43751423      1.58463937     10.53813078
H       8.20963691      7.90973160     11.44623914
O       8.98330015      7.74203498     10.86930093
H       4.64690178      1.50633910     12.02074250
O       3.70804301      1.73860260     12.24332274
O       2.18940546      4.93581313      8.90731487
H       3.07095601      5.35802436      9.14337603
H       6.78008211      6.93453282      9.43418442
H       2.60478898      4.40209491     12.79825674
H       3.70851978      2.69058692     12.63804954
H       9.79934426      9.09236798     12.32392688
H       4.07076118      6.12725954     12.40110618
H       5.17694632     -2.22246247     12.30660045
O       4.22366941      7.13388258     12.23137234
O       3.54293092      4.65964217     12.79829637
H       2.21580381      4.03949504      9.28318681
H       9.30591274      2.57761307     11.17340991
H       3.80364375      4.79092369     13.82355602
H      10.37579184      9.82842506     13.63918285
H      11.91557151      9.94665862     12.09776934
H       8.20613058      3.29070894     11.94969381
O       1.44088973     10.06384034     11.35156132
O      10.60389217     -0.42281519     12.87568575
O       8.36243696      2.82309607     11.09438363
Cl      7.01165557     -1.15959755     12.95330068
H       2.29331411     -0.70696229     10.48979722
O       7.78810097      4.73503273      9.34328568
H       7.94422619      3.99681240      9.99987610
Cl      0.14135044      4.65407776     12.56316829
O       8.93558816      1.06162372     14.59418679
H       2.15818346     10.53287995     11.79417551
O       2.89212704     -1.44935865     10.05640484
H       9.13952507      6.78641994     11.05578461
H       8.80457871      2.04779911     14.39927185
H       8.19834414      0.71312038     14.12679947
H      11.11426765     -1.95957301     13.65602629
H       4.82384566     -4.22163854     19.63926063
O       7.02601017      4.70091431     15.75846438
H       6.07905422      4.33698214     15.70958987
H       6.69567466     -1.95955875     14.73136749
H       3.31894038     -1.87967178     10.88503943
H       9.32233751      4.28891487     13.70606599
H       3.62601619      1.08547379     14.52755555
H       6.81956482      5.69105588     15.64034910
H      11.69369641      2.78772633     13.74748590
H       7.98431103      4.31362345     14.50323926
O       5.35712744     -4.16687778     20.50689291
H       5.43819301     -3.17313734     20.62737757
O       3.42615832      1.83433200     15.13254696
O       6.63505909      7.38028608     15.66409467
O       8.52916341      3.75868998     13.90160493
H       2.41763371      1.95222665     14.86979308
H      11.54278329      6.16110438     13.73648650
O       0.84518917      2.11104324     14.41786667
O       3.15753515      8.27634037     14.49332765
O      11.62274144      7.04673048     14.22008751
H       3.85456050      7.92989013     15.56991838
H       4.03634664      3.32435715     15.29010228
O       4.29406453      4.32213734     15.47307372
H       7.31132024      7.99158102     16.24485377
H      11.47435215      2.28657355     15.25532951
H       5.33307834     -1.95411582     16.35385749
H       4.28976948     -0.70945193     16.97120789
H       3.61595169      7.90473051     13.65163502
H       3.82969551      4.59932303     16.31020751
H      10.75069751      7.09957817     15.84426899
O       4.32047607     -1.70846851     16.61490299
H      13.47765930      7.73715295     14.57168724
H       8.13594399      4.28239539     16.88351526
H      10.79729059      2.00019970     17.39856972
O      10.23646258      7.33141617     16.72769862
O      11.06023424      2.81024199     16.85394418
O      -2.65758315     11.33738058     20.02135847
H       9.94644734      6.43553014     17.05466916
O       9.04652802      4.42699446     17.29841478
H      -3.02455586      2.64067276     19.98654422
H      10.28152582      3.39874861     17.10091121
H      -2.49706316     11.17192386     21.00385182
H       8.47292358      9.61500672     16.40527224
H       0.57549943      7.39239888     17.97160733
H       4.91610636      0.97451238     18.28939841
O       8.16904236      8.91668885     17.01051311
H       8.86072264      4.57697256     18.27983651
O       1.35740596      7.25292748     18.58450499
O       4.06830333      0.65609293     17.91429397
H       3.62282745      1.49355196     17.72482470
H       8.91605492      8.29865317     16.90258553
O      12.68952680      3.27297859     20.77117656
H       1.68901854      8.10915084     18.99158663
H       1.53717840      2.78625607     17.64219532
H       2.88456053      5.74366367     18.29696796
O       9.17991937      5.44970274     21.84752630
H       1.53307669      2.81862856     21.61683248
H       2.14010197      2.88152013     19.09073837
O       2.45166878      2.80784127     18.15374876
H       8.69173327      6.16341273     22.30989441
H       6.86531420      4.57085942     20.21735745
H       3.47291301      4.36818100     18.17540512
H       9.99547801      5.85909100     21.30815336
H      12.09522478      4.03063621     20.77108922
O       3.77858297      5.33528868     18.36565710
O      -0.47737199      0.77715036     18.53270967
O       7.78618795      4.21018964     20.09120046
H       2.95658000      0.10220479     19.25635798
H      11.87297252      6.39661172     20.01899167
H       0.37487975      0.76512828     19.02303725
O       6.58977509      9.58711807     19.47336597
H      -0.99936988      1.39993876     19.05912767
H       7.00597614      8.99112152     18.74456132
O       2.26406684     -0.30767663     19.74781430
O      11.45097830      5.83500516     20.76574063
H       8.27715608      4.63880785     20.91064856
H       7.30580689      0.61194048     19.67720910
H       6.13280585      8.56632065     20.55593364
H       4.57921227      4.55733904     21.47814867
H      12.03931973      6.16264324     21.49255432
O       5.77157103      7.83665806     21.25063677
H       2.57730917      9.08585568     20.63411657
H       3.09602923      8.10833621     22.74664554
H       6.48936091      7.61272266     21.92713500
O       4.04398885      3.98757617     22.12406257
O      11.71057829      9.59276072     23.33397065
O       3.53285332      8.80106286     22.25171998
O       8.09162460      1.68079220     22.92664412
H       9.85440799      4.28956774     22.80077820
H       3.13160981      3.98534239     21.71393084
H       4.40139934      8.43195168     21.89183179
H      12.12169476      8.70288184     23.34585174
H       7.19526226      1.97832032     23.08056490
H       8.81103397      2.45909270     23.08711135
H       5.07405511      2.90192687     22.60417910
H      12.44142656     10.20626356     23.42813030
H       3.76476237      5.46662831     23.10303352
O      12.21182299      6.76045619     23.29666811
H       2.06399081      6.47875121     23.59782562
O       3.53760157      6.33900368     23.46878499
O       5.53190725      2.38384765     23.34228875
O       9.88388393      3.48951270     23.42022112
O       1.58351933      2.60676108     23.41646409
O       7.64548174      7.02998091     23.17612526
H       8.49795370     10.11956469     23.68028530
H       5.08635656      9.16304677     23.94551871
H       0.66513082      2.70441244     23.77966828
H       8.05969523      7.88566695     23.58867521
H      11.64575340      6.45989032     24.07717327
H       9.88816708      3.79605745     24.33770443
H       5.98835040      0.76080490     23.87706583
H       9.91446750      9.33603555     23.83167701
H       5.20526993      2.85024397     24.19422388
H       4.09813021      6.47851283     24.26107892
O       8.91432559      9.20777698     24.02903779
O       6.02184837      9.40390242     24.10789013
H       2.16033895      3.11891348     24.05370902
H       7.06966789      6.61919730     23.91951242
Pt      3.11764262      9.21944466     26.44528348
Pt      6.05997564      9.19326352     26.40796249
Pt      8.77789483      9.19585114     26.36723537
Pt      0.41729302      9.30137403     26.56583228
Pt      8.75988204      4.47415351     26.43465896
Pt      4.51688176      6.79599759     26.53347394
Pt     10.20510531      6.85786492     26.43385368
Pt      7.45127943      6.79076900     26.41276245
Pt      0.35100525      4.48261650     26.54453358
Pt      1.79707641      6.85733030     26.43424415
Pt     10.10753271      2.13438503     26.60954664
Pt      7.41184410      2.03807849     26.46557026
Pt      3.01171044      4.36152012     26.52724029
Pt      6.03937544      4.43774145     26.51157157
Pt      1.69603324      1.99061273     26.51016246
Pt      4.48734326      1.97190222     26.46381799
H       7.56497032      9.00514847      9.44471609
H       6.38094919      0.36801907     11.50174011
