   244
 Tv_1:  11.152900   0.000000   0.000000 Tv_2:   0.000000   9.658700   0.000000 Tv_3:   0.000000   0.000000  26.829700
Pt      5.63989334      8.00662074      1.79073728
Pt      6.96957224      0.81346886      2.10039384
Pt      0.09100487      7.85266409      1.97527155
Pt      8.44276215      8.14248663      1.87786290
Pt      8.41600343      3.17862877      1.95340117
Pt      2.78601014      7.90222018      2.11099407
Pt      9.86348205      5.52114013      2.00917492
Pt      7.07416409      5.57913591      1.91116724
Pt      5.61440993      3.16788223      1.94100068
Pt      4.40139545      5.65833695      2.01449219
Pt      9.79254143      0.73861341      2.00534677
Pt      1.37265420      5.41614656      2.03615075
Pt      1.32899650      0.52219641      2.00078961
Pt      2.85606864      2.98563822      2.17984534
Pt      4.14598744      0.63976983      2.00815168
Pt      0.04032578      3.11134376      2.15263102
Pt      5.41484741      6.65338126      4.23307389
Pt      8.24379802      6.65115472      4.20908403
Pt      6.70706533      9.01633177      4.26926438
Pt      6.75636285      4.24487127      4.18965131
Pt      8.07385983      1.82968472      4.32471717
Pt      5.14096044      1.71487135      4.36685000
Pt      9.59435819      4.19409017      4.35656742
Pt      9.42186125      9.00285834      4.30293227
Pt      1.17820138      8.81013959      4.39478165
Pt     10.93295766      6.58444112      4.31369782
Pt      2.40314037      1.53879981      4.34376639
Pt      2.54797749      6.53819237      4.49124228
Pt      4.01651196      8.88334422      4.28396579
Pt      4.10230241      4.22271326      4.40226694
Pt     -0.22252258      1.55649799      4.44135290
Pt      1.32221801      4.12997400      4.41236329
Pt      6.44619213      2.75260860      6.38230280
Pt      9.31034563      7.58645434      6.59246433
Pt      7.95574672      4.99079860      6.65931445
Pt      7.74664078      0.34776613      6.64988456
Pt      5.03875789     10.11967407      6.73226485
Pt      2.45642890      5.20258030      6.77711447
Pt      2.39386700     10.03793051      6.68852342
Pt      6.51849948      7.47647811      6.65292877
Pt      3.66964844      2.72144373      6.77837739
Pt      0.96656952      2.84180342      6.65457788
Pt     10.72401108      5.19513755      6.72626270
Pt      9.36336114      2.65488473      6.58847784
Pt      5.07273939      4.99476351      6.67742288
Pt     10.59675521      0.35492730      6.71910969
Pt      0.94594416      7.60968325      6.79296333
Pt      3.69859879      7.62085685      6.64544494
O       5.59090554      5.51243416      8.77826152
O       0.99387099      7.65406302      9.15528551
O      10.89452123      5.23350289      8.90226673
H       2.95771645      2.54079379      8.95896161
H       8.05008736      5.76685427      9.40020442
O      10.35315128      0.00912329      8.77752493
H       0.28321757      8.43390069      9.24622272
H       3.48318406      2.44859683     10.41473338
O       7.87863323      9.87742104      8.77403810
H       8.96364251      0.19177676      8.89888534
H      10.04357054      5.39588204      9.44678904
H      -0.54043908      0.80105902      9.29103596
H       0.38624994      5.96649692      9.11020045
H       6.52694954      3.27728525      9.37223255
H       0.39119857      3.21735125      9.35729328
C       5.92204779      6.84013354      8.69406956
H       1.85028880      7.87175357      9.52853310
O       6.72911944      2.50139455      9.86512676
H       4.33845208      9.46240906      9.63533626
H       5.48978559     10.62853505      9.51283011
H       5.17932260      7.67686312      8.93512079
O       4.84555294     10.06467475      9.02719719
O       2.80388772      2.88883896      9.88126170
O       0.09342784      2.48913523      9.92135656
H       0.75380397      2.34502489     10.59956179
H       7.88195649      8.51248372     11.59633752
O       8.71270120      8.28287515     11.02252459
H       4.54087248      1.08908443     12.46698258
O       3.88213725      1.70364595     12.02149535
O       2.89788998      5.33963195      9.06453570
H       3.89665956      5.42167329      9.09562527
H       6.82664893      7.14499778      9.14511441
H       2.92438927      4.32238311     13.20952153
H       4.10961760      2.57506048     12.46966129
H      10.00556683      8.80442256     12.17743334
H       4.20152881      5.99323432     12.71857031
H       5.28036598     -2.51297738     12.45259712
O       4.30597289      6.97365815     12.51240290
O       3.90619278      4.22138896     13.17759739
H       2.78876572      4.35701088      9.28279063
H       9.99409252      2.87473864     10.61038437
H       4.29511548      4.07741128     14.08106134
H       9.52668851      9.75532988     13.93012963
H      11.78541676     10.28592671     12.25266677
H       9.11560531      3.17128356     12.00034289
O       1.37426542     10.54953540     11.69327616
O      10.39827543     -0.56305603     13.10155315
O       9.07453574      3.22798875     11.00757335
Cl      6.35191896     -0.17533968     12.99850321
H       2.70191076     -0.41787731     10.90801144
O       8.60327187      5.65129071     10.20791538
H       8.57916909      4.76984409     10.67191403
Cl      0.71789495      4.30994701     13.83651455
O       8.80296493      0.69644281     14.52293580
H       2.07337325     10.90724304     12.30881868
O       3.21205919     -1.13082144     10.45921307
H       8.80713247      7.32578071     11.15877894
H       8.91323771      1.70661456     14.43887205
H       7.91145280      0.47275369     14.04804501
H      11.00233834     -1.32894115     13.48854997
H       4.81392060     -4.87480102     18.99277761
O       7.44384685      4.68757075     15.31272563
H       6.46695880      4.45584599     15.37237638
H       6.72800937     -1.64674995     14.59029640
H       3.53354721     -1.61808481     11.26577535
H       9.92590440      3.64398230     13.88131641
H       3.70143555      0.48675022     15.30786150
H       7.49873723      5.63667486     15.24578984
H      12.37576980      2.86943230     15.47307789
H       8.36884691      3.60561886     14.29473767
O       5.40093746     -4.96065842     19.77890526
H       5.80509018     -4.08562766     20.03230201
O       3.83530687      1.22316955     15.96896769
O       7.04099188      7.44997364     15.36879894
O       9.05954738      3.11956875     13.73892959
H       2.97882723      1.70538704     16.03197798
H      11.90539993      6.36447418     14.11560755
O       1.50095930      2.35317022     16.32471562
O       3.11401177      8.44415664     14.41344049
O      11.87147404      7.29186775     14.27878923
H       3.44154316      8.30191925     15.32057082
H       4.84631365      2.69366664     15.49875467
O       5.07255691      3.72399351     15.34598530
H       7.77544500      8.00334182     15.79523758
H      11.80172852      1.87371690     16.54578606
H       5.80213656     -2.22980044     16.47133534
H       4.85074258     -1.51525548     17.52012064
H       3.72670509      7.92667323     13.78689532
H       4.59145583      4.22673306     16.20437663
H      11.41759015      7.27842570     16.32057009
O       4.83606471     -2.18281076     16.77435910
H      12.84098921      7.61220239     14.29234430
H       8.44408035      4.16469584     16.53202258
H      10.44810354      1.25819116     18.18489993
O      11.20586464      7.11761888     17.24869051
O      10.28702213      1.47093194     17.18335633
O      -2.84725093     10.99738081     20.53722683
H      11.36827056      6.16091494     17.38070123
O       9.12743486      3.87715901     17.17946737
H      -2.76647099      2.23748447     20.16020158
H       9.75270619      2.35620149     17.14019919
H      -3.09085554     11.23730679     21.42976763
H       9.34496164      9.42346057     17.07738491
H       0.78928937      7.79302861     19.11252466
H       5.01159720      0.29318796     18.77064494
O       8.79196943      8.55333885     17.13575912
H       8.76290028      3.95947460     18.08447136
O       0.63482372      7.77193285     20.11087157
O       4.16476795      0.04934254     18.40431134
H       4.10981511      0.60167800     17.57880388
H       9.51902301      7.90824222     17.39337628
O      12.26938222      3.46132294     20.33725786
H       1.41512302      8.01557942     20.61857603
H       1.00762813      3.65368961     17.34833735
H       4.23177719      5.95952248     17.26298163
O       9.00702502      4.20642532     23.73956856
H       0.72648893      2.56153467     20.20415074
H       0.93399435      4.25219085     18.69353759
O       1.05290065      4.57218056     17.77340283
H       9.06050709      5.16958721     23.57218580
H       7.12783897      4.29291432     19.71111281
H       3.08310716      5.00635258     17.57979285
H       9.90898267      3.81485760     23.91529886
H      11.51526651      4.05743493     20.55842898
O       4.07318523      5.02998929     17.53083319
O      -0.47992828      0.85347788     19.71134103
O       8.01410927      3.86618126     19.81517927
H       3.17143993      0.11465923     20.40939525
H      10.68083916      6.17046760     20.66761994
H       0.10131507      0.13571878     20.08676430
O       6.88291387      9.06063463     19.12878000
H      -1.28019101      0.95435058     20.25339980
H       7.57908619      8.93166548     18.44218724
O       3.00639185     -0.10812505     21.33591763
O      10.58515946      5.28767385     21.12880382
H       8.63101578      4.48500230     20.22295939
H       7.38384105     -0.02050733     19.73447238
H       6.88354154      7.44969578     20.31343267
H       4.18724324      3.90964187     20.93395974
H      10.88320131      5.48810780     22.03811806
O       6.53245431      6.76058577     20.83606755
H       3.54331019      8.77458533     21.52753231
H       4.05032282      6.73766364     22.89169982
H       7.05653139      6.66552225     21.69655861
O       3.48696576      3.56923739     21.55052574
O      10.87459129      8.94682219     23.37676633
O       4.54736132      7.56429505     22.49587508
O       7.56184170      2.09649886     23.19088734
H      12.14860887      3.78092631     24.30652525
H       2.56413233      3.51464153     21.16507031
H       5.21105908      7.29539345     21.76854372
H      11.02279928      8.13461802     22.85718775
H       6.56787912      2.15811033     23.21948081
H       7.99365983      2.98421101     23.34807573
H       4.29706880      2.54025368     22.72004413
H      11.77276657      9.39943792     23.68620827
H       3.24454221      4.59433120     22.69992854
O      11.71821088      6.39686916     23.30297743
H       1.46775410      5.92727912     23.27893967
O       3.01981886      5.38473279     23.29573996
O       4.95343128      2.15220334     23.32441678
O      11.48876474      3.35588697     23.69476016
O       2.01988408      0.63814534     23.64896798
O       7.75399430      6.80096508     23.28968979
H       8.18875567     10.36788011     23.91985744
H       5.42733971      8.65444856     23.78812413
H       2.64787088      0.70329317     24.36244054
H       7.97855713      7.75401317     23.44919997
H      11.29639377      6.23562830     24.23596920
H      11.88029561      2.49187671     23.45305749
H       5.18721650      0.61821178     23.87757510
H       9.57435381      9.41226801     23.91445471
H       4.72639574      2.49388855     24.23593171
H       3.21965742      5.20194843     24.25017590
O       8.57770201      9.48543182     24.23086891
O       5.78127076      9.50449086     24.22276279
H       2.43270846      0.28970166     22.78741262
H       7.44877587      6.53955773     24.17998428
Pt      2.90088352      9.24788793     26.52628962
Pt      5.70875957      9.35091852     26.42730916
Pt      8.52269018      9.12629642     26.31884964
Pt      0.06241626      9.30767138     26.55119364
Pt      8.66422290      4.43926626     26.38061818
Pt      4.18114293      6.82748283     26.39605497
Pt      9.90231061      6.76123745     26.41332577
Pt      6.83312072      6.84214165     26.42487716
Pt      0.13148149      4.36299494     26.64583762
Pt      1.57719131      6.93732457     26.38801672
Pt      9.93312147      2.00804728     26.50978949
Pt      7.09792038      2.14596728     26.58635424
Pt      2.94732093      4.42353422     26.70200491
Pt      5.76034866      4.51314534     26.36770283
Pt      1.55455545      2.08310331     26.62349243
Pt      4.27366890      2.19523531     26.52265903
H       7.54075610     10.78706914      9.03205161
H       7.55921562      2.74828015     10.36579343
