   242
 Tv_1:  11.152900   0.000000   0.000000 Tv_2:   0.000000   9.658700   0.000000 Tv_3:   0.000000   0.000000  26.829700
Pt      5.28336686      7.89371274      2.24932476
Pt      6.58368205      0.81132798      2.29884714
Pt     10.71526979      7.93854473      2.25031721
Pt      7.89022784      8.01049113      2.24500403
Pt      8.01371105      3.02708024      2.40768555
Pt      2.51610931      8.08328188      2.43344851
Pt      9.33420662      5.51467659      2.35307585
Pt      6.58978774      5.49246252      2.34762444
Pt      5.29603742      3.21023513      2.37922086
Pt      3.78248579      5.47788425      2.20740875
Pt      9.48717551      0.69079521      2.34610671
Pt      0.89618496      5.67095204      2.19346567
Pt      0.99967266      0.72223861      2.26033608
Pt      2.42164191      3.19330296      2.31266289
Pt      3.81032270      0.77333490      2.28045282
Pt     10.98071258      3.11685692      2.41520581
Pt      5.61080616      6.70421542      4.72911123
Pt      8.48987195      6.65504763      4.62025218
Pt      7.10284198      9.03407101      4.61972343
Pt      7.14227613      4.31725396      4.71800038
Pt      8.56803295      1.75767440      4.71608743
Pt      5.75348187      1.86318830      4.65794944
Pt      9.91096781      4.28670153      4.60221169
Pt      9.90179874      9.03273820      4.75273845
Pt      1.51192535      9.15514760      4.78991553
Pt      0.23986749      6.80085084      4.62619399
Pt      2.92575034      1.85111046      4.49690879
Pt      2.88385951      6.69912428      4.64240504
Pt      4.44200251      9.13361753      4.54428314
Pt      4.36233686      4.24443108      4.74862734
Pt      0.18804996      1.82679991      4.69913894
Pt      1.53558309      4.39076447      4.56564212
Pt      7.70302965      2.95040782      7.06954898
Pt     10.37221266      7.70296858      7.08259271
Pt      9.03796253      5.42959035      6.86760584
Pt      9.31440429      0.61954443      7.18481405
Pt      6.43408104      0.61029255      7.00957567
Pt      3.51938966      5.23473830      7.08929683
Pt      3.61965723      0.65785221      6.91277149
Pt      7.70203426      7.91047023      6.99524329
Pt      5.03657444      2.90515761      7.01848335
Pt      2.05200266      2.93222438      6.85445341
Pt      0.72069541      5.34114503      6.96563059
Pt     10.46376155      3.03503704      7.00146142
Pt      6.31618722      5.36997653      7.05269689
Pt      0.91275758      0.56987283      7.14450104
Pt      2.28515045      7.77000125      7.08652206
Pt      5.06242525      7.91286366      7.03475922
O       6.21136013      5.36993664      9.24805487
O       2.64946300      7.80372743      9.17043569
O       0.50090867      5.46679415      8.97691955
H       4.13789476      2.32057757      9.41737644
H       7.12757032      5.56548909     11.12977867
O       0.80992003      0.78865147      9.15158993
H       2.30498504      8.58731799      9.65974639
H       3.99499289      4.12692035      9.38096152
O       9.11786311      0.88658177      9.23647879
H      10.99258860      0.75498808      9.46215991
H       1.05753762      1.67566751      9.69428378
H       1.48398431      5.50343562      9.16883167
H       6.87279272      2.74872528      9.52439439
H       1.15819066      3.78414687      9.68886412
H       8.38644673      0.20114365      9.56230395
C       7.41108451      5.39473053     10.07268708
H       3.91619288      7.87610675      9.21584565
O       7.77928032      2.89615472      9.17696968
H       5.60046232      8.53874274      9.52996396
H       8.08603085      6.27681292      9.83353931
O       5.01850696      7.78369140      9.12183006
O       4.71234552      3.01487439      9.05408197
O       1.18419821      2.96209716     10.22074308
H       1.98092505      3.03118019     10.85015279
H      10.55924269      8.20722606     10.03061905
O      10.17495541      7.55953796      9.36182021
H       5.12384398      2.49809453     11.61332098
O       6.00397873      2.05445619     11.54547316
O       3.27457624      4.95556180      9.27436584
H       5.75861943      6.29805269      9.36739252
H       7.91645837      4.25197639      9.93113206
H       9.05451364      6.62697836     14.34622450
H       6.54111194      2.29192605     12.35098042
H      10.93662877      6.77535978      9.30031900
H       6.90480717      8.83221898     11.11339983
H       6.38516084      0.57577035     10.79471042
O       6.79567157      9.43849934     10.35880247
O       9.41252531      6.19106590     15.15880994
H       3.53999945      5.58636252      9.93369087
H       9.32152512      5.30034927     11.78205288
H      10.37122062      5.86743126     14.93881921
H      10.10916700     10.79941347     11.89407708
H      11.79345845      8.77065851     11.80468742
H      10.30205585      5.03450421     10.52715544
O      -0.22531846      8.79247575     11.33232296
O       9.57594665      1.84957812     12.23739023
O      10.18710275      4.84410909     11.54258505
Cl      8.12591329      7.49522928     12.63262075
H       3.77490938      3.86874470     12.13898575
O      11.99886694      5.95460548     13.62626592
H      11.45607051      5.64992110     12.87349208
Cl      3.81025714      5.98032854     11.94618190
O       7.51555452      1.98920584     13.99207922
H      -0.90471315      8.44454714     11.91998984
O       3.47046276      2.98769767     11.81930770
H      12.92838307      6.07515181     13.34583999
H       7.68872810      2.77397181     14.57159406
H       8.36553493      1.91026052     13.36929974
H       9.77963813     12.38343797     11.80029598
H       7.23372609      8.69049689     14.46511931
O       5.36642453      4.56572435     16.75750631
H       4.97682619      3.73183004     17.09253713
H       2.76366257     -0.42216338     12.47732648
H       3.31514939      2.42005577     12.62868794
H       8.39942080      4.74458105     15.50376880
H       4.19405202      0.05529876     17.16739550
H       4.82852824      4.80268509     15.96963857
H      11.02087568      1.95602313     13.63881312
H       6.96783769      4.37449630     16.28344148
O       7.12294919     -0.34434824     15.19931042
H       7.25792557     10.22683125     14.70461288
O       4.34055313     -0.00735104     18.15075454
O       2.26609432      8.69356266     11.87318716
O       7.85153164      4.05369483     16.00945515
H       4.17011517      0.88901290     18.42022564
H       8.46705218      8.94385405     16.25269372
O      11.68331950      1.83641010     14.38861522
O       2.94828826      1.16423350     13.67967042
O       9.30591166      8.64231083     16.72049480
H       2.04889797      1.45475369     14.10209801
H       1.19815310      2.99209950     14.98306144
O       1.50321413      3.84106960     15.30004645
H       2.73239380      7.79032005     11.84729010
H      11.33282275      0.88890735     14.78713365
H       6.76692025     -1.55915756     19.94962953
H       5.72688279     -0.48677170     19.05465808
H       3.54181642      0.79076959     14.35356073
H       1.15843961      4.54035394     14.71479029
H       3.08638066      4.51319744     14.97122769
O       6.37080732     -0.61943323     19.85836937
H       9.30765343      7.68190832     16.45190808
H       8.64997782      3.31488415     17.35101997
H       8.04808033      0.37348709     20.13988754
O       3.78762447      5.14477309     14.78992574
O       8.93755416      0.85449799     20.19355955
O       4.49216337     -0.16096416     15.59786206
H      15.13644758      5.25628460     13.85070993
O       9.00538925      2.98659463     18.27532954
H       5.54119513     -0.34333362     15.52833515
H       8.98963076      1.42852751     19.38218581
H       4.05803088      8.60300027     15.64778117
H      10.68121771     -0.92634877     15.68373217
H       3.07267157      6.69602454     15.43085231
H       4.92034698     -0.83144746     20.94337998
O      11.25396265     -0.70531113     14.95914764
H       8.69069456      3.70953950     18.92551103
O       2.73438979      7.44442801     15.96409939
O       3.94795604     -1.00717690     21.12600108
H       3.58503019     -0.06338322     21.20251769
H      12.10607177      8.49124508     15.12893968
O       0.68615802      3.88498176     17.91474417
H       2.62597781      7.31683147     16.96712018
H       2.45941001      3.35535949     18.55777580
H       3.99029383      6.05691255     18.95703448
O       8.86214455      4.82825418     20.12447846
H       0.92304649      4.05218090     16.96315918
H       3.73676739      3.98560571     19.36986496
O       3.28365869      3.17765646     19.12463637
H       8.18653434      5.58112303     20.35365638
H       9.23146733      3.51300614     21.56440307
H       5.15725943      5.36738440     18.32353320
H       9.69686085      5.39120968     20.08079498
H      10.89873041      3.58086328     17.91914377
O       4.81738366      5.56291372     19.28543184
O      -0.21379674     -0.85456270     20.65220424
O       9.32347291      2.70094998     22.06086095
H       3.18926220     -1.22604502     18.47368236
H      12.20303487      5.97119157     19.94460084
H      -0.29347386     -1.55641340     19.96742581
O       6.34509969      6.52244504     23.49198900
H      -1.10674442     -0.46120045     20.54444349
H       6.64396078      7.43801288     23.71434334
O       2.56763987     -1.89632831     18.70044301
O      11.31160154      6.20837633     19.48209137
H       8.93152652      1.97235052     21.51656034
H       5.37897382     -3.06793249     23.37107848
H       6.92228937      6.53251289     21.58243138
H       2.96676630      2.08158332     20.72003479
H      11.32691466      5.53322988     18.76491071
O       6.85469773      6.62027268     20.58125433
H       1.64856296      8.11606884     18.71185985
H       2.96507845      6.52139543     20.81915434
H       6.05495542      6.08668433     20.29191105
O       2.67058268      1.37971998     21.38150226
O      10.41015718      9.54989797     24.48303108
O       2.53883353      5.63984259     20.72858314
O       6.44996697      2.18297533     24.44441635
H      10.35931030      5.81460194     24.63648763
H       1.72914237      1.49324416     21.65641935
H       2.35006541      5.41774382     21.66242546
H      10.93169341      8.73653593     24.02517679
H       5.46496522      2.19642104     24.08631938
H       7.00821534      2.97827569     24.16944599
H       3.52251692      2.23229410     23.00211689
H      10.77243285      0.70389278     23.98208602
H       1.70046634      4.81739426     23.97186647
O      11.65485526      7.87412644     23.07623480
H       1.49844268      7.94584299     23.15818419
O       2.49452495      5.09543180     23.45274072
O       3.93174225      2.63514816     23.79380390
O      10.25815181      5.50991875     23.73461732
O       0.46515585      1.77462167     23.22556335
O       7.80248952      4.41989150     24.30513614
H       7.25611055      0.69742883     24.34812915
H       3.26954866      8.36061116     24.41936983
H      10.85545569      2.44290614     23.05110539
H       7.18052917      5.18335722     24.08413619
H      11.41092248      8.13053870     22.11872380
H      10.91529028      6.11275485     23.27899921
H       3.59206049     -1.34417996     22.70694895
H       8.68134866      9.52735821     24.42421295
H       3.43282009      3.45539305     23.88338496
H       2.77554315      5.86756922     23.93910376
O       7.66927065      9.45978091     24.60235190
O       3.23990384     -1.78911529     23.60949386
H       1.01102308      2.01048648     23.98741152
H       8.70334344      4.76536127     23.94606655
Pt      2.23700905      9.21634845     26.73931666
Pt      4.95234946      9.32913758     26.94123992
Pt      7.75129330      9.32426425     26.72834423
Pt     10.66848110      9.22203657     26.57156841
Pt      7.76151344      4.46187478     26.72405463
Pt      3.68636583      6.82900971     26.71918529
Pt      9.23116384      6.84204015     26.75364952
Pt      6.40973152      6.88286763     26.74744007
Pt     10.62818153      4.48352657     26.83794382
Pt      0.82494370      6.87917790     26.55246182
Pt      9.13962484      2.11269893     26.80870004
Pt      6.41282406      2.09797252     26.77587637
Pt      2.18020619      4.41534162     26.75556224
Pt      4.91861071      4.42430904     26.67692507
Pt      0.89601162      2.01725774     26.63045637
Pt      3.60135011      1.97523096     26.64010168
H       8.57720970      1.94658842      9.35811038
