   242
 Tv_1:  11.152900   0.000000   0.000000 Tv_2:   0.000000   9.658700   0.000000 Tv_3:   0.000000   0.000000  26.829700
Pt      5.29043061      7.99293353      2.27874845
Pt      6.68499561      0.80553348      2.38120258
Pt     10.75295400      8.00589364      2.39664677
Pt      8.01848370      7.99593010      2.11480697
Pt      8.11559748      3.10784723      2.30890021
Pt      2.62524359      7.96526536      2.44578427
Pt      9.53406772      5.58264399      2.34341347
Pt      6.72498855      5.59369503      2.33168972
Pt      5.40406970      3.14463093      2.39962406
Pt      3.94231197      5.56688414      2.42152492
Pt      9.55009134      0.68095340      2.46135749
Pt      1.16886677      5.61578742      2.37499615
Pt      1.09770463      0.63179870      2.35701274
Pt      2.73602118      3.08134780      2.37115070
Pt      3.93373445      0.64913036      2.20995633
Pt     10.85656213      3.08066354      2.37850770
Pt      5.63302163      6.72864707      4.60973877
Pt      8.43344113      6.59107934      4.55385492
Pt      7.18654173      9.12977318      4.68987707
Pt      7.17801566      4.24350559      4.72911389
Pt      8.54581653      1.82874560      4.72165750
Pt      5.71072564      1.92702314      4.89637450
Pt      9.90688458      4.13403189      4.70170054
Pt      9.91190198      8.99337612      4.73565124
Pt      1.56882944      8.98187848      4.72355334
Pt      0.20438434      6.49194995      4.69771371
Pt      2.99157144      1.77766435      4.73032066
Pt      2.97064278      6.69728923      4.83802354
Pt      4.41274679      9.19635204      4.71052001
Pt      4.35080178      4.21293127      4.75280075
Pt      0.28380038      1.72260641      4.66919791
Pt      1.53617466      4.24474493      4.55663165
Pt      7.77970070      2.95476219      7.14334227
Pt     10.64165130      7.76525395      7.12470519
Pt      9.26259696      5.39523401      6.97911984
Pt      9.25628461      0.48238588      7.10647120
Pt      6.49655863      0.52557254      7.15899807
Pt      3.62958862      5.38065776      7.07743916
Pt      3.76484802      0.60396103      7.08855204
Pt      7.74387432      7.74659069      7.01439481
Pt      4.98815343      2.89513576      7.31330221
Pt      2.29368819      3.03405283      6.97276206
Pt      0.84100707      5.32299222      7.03401454
Pt     10.58467609      2.90925691      6.91139053
Pt      6.51421800      5.32084227      7.14821729
Pt      0.85431759      0.66704706      6.96128485
Pt      2.29487218      7.85041569      7.08776349
Pt      5.07470198      7.87164900      7.10395812
O       6.27918137      5.76647546      9.35042744
O       2.36172655      8.05598783      9.31115607
O       0.61849700      5.12847976      9.09346348
H       4.45773543      2.14430818      9.57269906
H       7.10914588      5.78782830     11.18676973
O       0.66477168      0.55287837      9.29160921
H       1.82340241      8.87857880      9.48532274
H       4.03771260      4.14162379      9.35437376
O       9.22873290      0.81603554      9.24885449
H      10.86213085      0.47918143      9.43887884
H       0.92119444      1.48624885      9.56234578
H       1.32458603      5.73743075      9.31071464
H       7.00939801      2.56076567      9.45079470
H       1.12422930      3.68121981      9.86279409
H       8.57458086      0.18175153      9.72120356
C       7.44368956      5.56091653     10.12187602
H       3.39066553      8.19893965      9.46678897
O       7.89179291      2.83393865      9.17608860
H       5.66684365      8.58289961      9.77743624
H       8.22299110      6.26153607      9.89995459
O       5.08255653      7.89190526      9.29704342
O       4.82463605      3.04752002      9.26373241
O       1.02462473      2.75535133     10.33136129
H       1.53419445      2.80096211     11.16872929
H      11.03651531      7.69883213     10.19336753
O      10.63196843      7.45722441      9.29061384
H       3.80634309      0.61917572     11.39939621
O       4.50993630      0.81386765     10.74125312
O       3.43544800      5.08269914      9.25994546
H       5.83123138      6.69226696      9.51712877
H       7.79985656      4.45175341      9.91878008
H       8.89114327      8.88035560     15.89803539
H       5.22133169      1.37325292     11.14903664
H      10.69103246      6.41690635      9.33597855
H       8.01520790      7.88422483     10.59646108
H       7.73150568     -0.73529072     11.73357731
O       7.70837643      8.82527683     10.73785247
O       8.92254355      8.77624121     16.90104470
H       3.83239516      5.88671065      9.65524415
H      10.64719783      2.12638687     12.79145731
H       9.83933198      8.86438221     17.20876802
H       9.83141835      9.83035932     13.61993487
H      12.07129157      8.27985096     11.93084529
H       9.95133179      2.66013212     11.62246114
O       0.04743599      8.07417432     11.58905055
O      10.77334418      0.52942938     13.83600753
O      10.08849171      2.88061204     12.54626015
Cl      7.81462361      8.53204569     13.69304263
H       2.73869713      4.07746196     12.54117319
O      11.57653809      5.61049855     12.51959811
H      11.57019931      4.61842131     12.34737004
Cl      3.27650262      5.97822526     12.52882671
O       6.46918368      2.46647036     11.53642208
H      -0.11946544      7.17135576     12.07530300
O       2.19398281      3.23585820     12.76861065
H      12.53798186      5.80422594     12.60272563
H       6.34794412      3.39318566     11.62079774
H       6.79963056      2.24956892     12.44436854
H      11.32807322      9.81811429     13.10242997
H       7.88548616     10.91404837     14.10838263
O       5.96108241      3.65522021     16.38659574
H       6.63358021      3.74565126     15.70966972
H       2.56441612     -0.19100248     13.09430689
H       2.74635795      2.56915462     13.25024533
H      10.35924264      5.81745376     15.50144518
H       5.87798238      0.50267805     16.62566584
H       5.07935770      3.97721167     16.07586646
H      11.64413503      1.15516400     14.99228690
H       9.26254903      6.70947557     16.38490857
O       7.85928192      2.26562512     13.97405879
H       8.69941380     12.13068120     13.52775198
O       6.19680430      1.09143635     17.39811375
O       2.50306090      8.88275106     12.27899693
O       9.84698155      5.88623706     16.31810496
H       6.32132596      2.00333733     17.06681838
H       7.34376012      6.16454557     18.76196684
O      12.27598264      1.58013143     15.68323998
O       3.08744004      1.14132344     14.12823154
O       8.23733758      6.69542394     18.85680824
H       2.31078345      1.32172486     14.73452600
H       1.03630276      3.17241217     15.76935579
O       1.20526063      4.18193570     15.93290637
H       3.25884656      8.20455998     12.28982398
H      12.12189621      1.06922566     16.55918299
H       6.29399890      1.27032935     19.24240413
H       6.02315090      2.28729148     20.46600210
H       3.87191476      0.78721855     14.68742292
H       0.92802486      4.64370744     15.13467569
H       2.87515391      4.66898538     15.84351184
O       6.25279991      1.38238138     20.21654533
H       8.20911026      7.21152860     18.01682808
H       9.38875644      4.55995248     17.48753918
H       8.95757430      0.79845546     18.13187959
O       3.67830513      5.16759792     15.50830791
O       9.48659330      1.31391168     18.76828058
O       5.14666223     -0.22630640     15.24084647
H      14.73882877      5.21019848     14.53630547
O       9.58735760      3.94101695     18.23147931
H       5.95346514     -0.51258257     14.62948823
H       9.66073328      2.16319753     18.24653925
H       4.94969643      8.61202273     15.74495945
H      11.25457129      0.36924645     18.47413617
H       4.08830358      6.49579714     16.63308088
H       4.82007263      0.43141837     20.58800620
O      11.97739061      0.12231889     17.84104186
H       9.13168647      4.16418448     19.04666839
O       4.44828747      7.18133340     17.24697938
O       3.96841536     -0.04344203     20.89916791
H       3.39784695      0.78095889     21.12001956
H      12.64664383      9.24977794     18.33554877
O       0.82784658      4.66493997     18.65594349
H       3.66551103      7.45935472     17.74755454
H       2.31541268      4.25809416     19.09292964
H       5.20286753      5.89187602     18.42980364
O       8.72843575      4.50906267     20.69137779
H       0.98192893      4.66853581     17.69002425
H       3.39272029      3.25128680     18.83569100
O       3.19424796      4.03244460     19.38373183
H       7.85066344      4.43974731     21.14212637
H       9.02547300      1.02429045     20.30863590
H       6.08783184      4.91920957     17.66768344
H       8.78414230      5.47901634     20.67759434
H      11.08130993      4.17279448     18.65103360
O       6.01221110      5.33913898     18.51728675
O      -1.69110514     -2.00693941     21.00634192
O       8.90906799      0.67432386     21.23903038
H       3.22669609     -0.67585120     19.65479410
H      11.07685203      7.15605722     20.43352078
H      -2.26659063     -2.20813006     20.16506243
O       7.98020997      6.74283152     23.14753679
H      -1.87852274     -1.08066044     21.13254177
H       8.54195743      6.96960144     22.39231141
O       2.71211846     -1.27243988     19.03238879
O      11.94603052      6.68041135     20.41804339
H       8.07908937      1.12137082     21.44172348
H       8.05012267     -2.12432584     23.65557204
H       5.47435266      4.76439668     21.91040688
H       2.84806575      3.09672445     20.70718225
H      11.90473437      6.01289334     19.70612646
O       5.91608026      4.26901019     21.19746381
H       2.10824881      7.78616612     19.56725801
H       3.71081647      8.43250119     22.16439781
H       5.80437008      4.73305160     20.33744585
O       2.68304506      2.34280604     21.36402809
O      10.70047488      9.10890346     24.01912233
O       3.68027584      7.90911323     23.00832178
O       7.10089805      2.27168942     23.40373017
H      11.92991170      3.84552345     24.52237097
H       1.67222198      2.15735893     21.57738937
H       4.31813953      7.13517258     23.06771809
H      11.06246808      8.25066716     23.74227089
H       6.16278132      2.42665003     23.39725742
H       7.64082005      3.03776951     23.79962797
H       3.50305814      2.57683885     22.86514023
H      11.28450641      0.12558554     23.61077431
H       5.33062706      5.70449874     24.58449334
O      12.10790497      6.82741775     23.11134962
H       1.92093578      7.02694451     23.29779097
O       5.50605399      5.68158541     23.64429277
O       4.26131101      2.59434620     23.54520451
O      11.29760528      4.20203721     23.85186105
O       0.04188869      1.60748468     22.39596053
O       8.63134596      4.15664922     24.36730094
H       7.62641959      0.86708574     23.98939115
H       4.50669901      9.06345114     24.12530804
H      10.33404645      1.42331712     21.85248210
H       8.32313142      4.93562253     23.85371412
H      12.06982507      6.56704733     22.16182772
H      11.60736257      5.10607051     23.59463408
H       4.80601243      0.99526076     24.33640458
H       9.10647295      9.52200636     24.03783246
H       4.41759967      3.51333992     23.82737861
H       6.38265877      6.01321509     23.43089959
O       8.14812547      9.66201801     24.36538299
O       5.14257534      0.08516077     24.57361894
H      -0.13615551      2.48044229     22.83275520
H       9.61925151      4.15671163     24.24160370
Pt      2.38222893      9.27896436     26.83974658
Pt      5.20740816      9.13098544     26.71879904
Pt      8.02584151      9.35469990     26.51675717
Pt     10.88407245      9.21369141     26.76042780
Pt      8.01586823      4.39953379     26.78339723
Pt      3.82231612      6.91413044     26.87089508
Pt      9.43244808      6.76908655     26.74764659
Pt      6.60462080      6.78187326     26.92087760
Pt     10.80373862      4.48972769     26.96555690
Pt      1.08003673      6.87419498     26.79096491
Pt      9.30608269      2.03869598     26.82866102
Pt      6.58109942      2.09190493     26.79274104
Pt      2.43500862      4.47672278     26.94497789
Pt      5.34342096      4.41275787     26.76019055
Pt      1.02235722      2.06716223     26.94496483
Pt      3.83033718      2.17224450     26.76277677
H       8.73128555      1.74904339      9.28548412
