   242
 Tv_1:  11.152900   0.000000   0.000000 Tv_2:   0.000000   9.658700   0.000000 Tv_3:   0.000000   0.000000  26.829700
Pt      5.43168268      8.06380264      2.23965057
Pt      6.85614774      0.90702137      2.42942199
Pt     10.82640046      8.01436459      2.34620866
Pt      8.11676833      8.27767172      2.18734289
Pt      8.24590787      3.24592673      2.31766714
Pt      2.62202307      8.04566234      2.31648975
Pt      9.60438060      5.59706640      2.39240902
Pt      6.83507901      5.68699846      2.33349003
Pt      5.51760459      3.28898917      2.36570815
Pt      3.89888554      5.60446969      2.26302198
Pt      9.71262625      0.87430501      2.32075686
Pt      1.26005831      5.60663133      2.43494432
Pt      1.19117943      0.85228742      2.28072794
Pt      2.79347721      3.20287188      2.34332537
Pt      4.12438882      0.76161662      2.33839326
Pt     10.95518511      3.24901183      2.31831975
Pt      5.65773287      6.66100319      4.58309081
Pt      8.46552493      6.79775202      4.50152438
Pt      7.07487908      9.15314765      4.65738194
Pt      7.27345186      4.39885060      4.72422895
Pt      8.42969702      1.81285237      4.71544434
Pt      5.60997266      1.85506377      4.68440059
Pt     10.00502872      4.27354896      4.65098766
Pt      9.79523161      9.12171513      4.67367580
Pt      1.36826302      9.10337406      4.62368224
Pt      0.11269042      6.71130432      4.62364813
Pt      3.00086009      1.69078629      4.60232328
Pt      2.86088461      6.65214706      4.69469792
Pt      4.16737425      8.94490963      4.60968565
Pt      4.34506333      4.24239158      4.66364073
Pt      0.18610760      1.94031455      4.60358576
Pt      1.49858742      4.28400058      4.66699882
Pt      7.33626741      2.94216682      7.05694302
Pt     10.33530457      7.74526333      7.01876740
Pt      8.98943692      5.39709577      6.89457621
Pt      8.74324159      0.50511684      6.95888036
Pt      5.96824775      0.48783070      6.96173946
Pt      3.39031327      5.16029785      7.02219225
Pt      3.15192470      0.45505014      6.95084068
Pt      7.49454862      7.88026239      6.92121597
Pt      4.59147661      2.78556712      7.04414353
Pt      1.77817678      2.76084466      6.77054011
Pt      0.65191013      5.21182538      7.21901638
Pt     10.14360046      2.99531485      6.87924194
Pt      6.27671798      5.46098687      6.88870692
Pt      0.33135191      0.52364489      7.11742522
Pt      1.95434509      7.70738125      6.96412307
Pt      4.59028399      7.74979931      6.99442238
O       6.17711207      5.84392778      8.98017800
O       1.96683550      8.06879342      9.23064943
O       0.33175336      5.68192458      9.14426517
H       4.02322511      2.11492711      9.45157301
H       7.17221036      5.69443842     10.81965344
O       0.00791219      0.87860313      9.35137911
H       1.52376701      7.36107549      9.75313244
H       3.83818022      4.07364861      9.20586345
O       8.60200076      0.69093790      9.10228675
H      10.11919541      0.91076111      9.49155466
H       0.26787620      1.75083079      9.83687660
H       0.22168118      4.81103135      9.59554402
H       6.26876759      2.90540975      9.45011754
H      -0.60751468      3.19519086     11.16042222
H       7.92720621      0.09990429      9.52445391
C       7.38921105      5.75252373      9.74345122
H       2.95485356      7.79837276      9.21633941
O       7.25496864      2.92119680      9.13269328
H       5.20309063      8.30493893      9.61112299
H       8.01158321      6.71979580      9.51895373
O       4.60808535      7.64287780      9.12849161
O       4.61765592      2.86601075      9.12767145
O       0.21902284      3.18557687     10.58555540
H       1.02028823      3.23158759     11.25524633
H      10.42043817      8.53603516      9.64507855
O      10.11835639      7.78650910      9.09084294
H       4.98111263      1.59805167     11.40961024
O       5.96539178      1.49506307     11.42025448
O       3.27724473      5.00016374      9.17660409
H       5.38239919      6.74488239      9.15729055
H       7.95486529      4.80494653      9.46818670
H       8.74065784      5.60803038     14.34303257
H       6.25045948      2.13668014     12.14471023
H      10.59268857      6.97169809      9.36776660
H       6.99140910      8.15006899     11.47792193
H       6.40525209     -0.05286965     11.20520666
O       6.61933236      8.71225438     10.75767549
O       9.18769346      5.60937330     15.23215048
H       3.73341645      5.72739100      9.63437526
H       9.74081467      1.61325229     13.04582646
H      10.14045153      5.34074385     14.94897508
H       9.50988822      9.38228664     14.57282233
H      10.93547310      7.47296654     12.28708226
H       8.58546435      2.80156861     12.82516982
O      -1.10038145      7.79922552     12.12475776
O      10.17110278      0.13996526     13.93508807
O       9.57669385      2.54086341     12.77494353
Cl      7.04303436      6.73073597     13.12312846
H       2.72521154      0.29914566      9.82244464
O      11.07079330      4.41811109     13.82896680
H      10.52151761      3.72852747     13.32573864
Cl      2.64416298      4.21261053     12.46592057
O       6.97800795      3.34705924     13.18825618
H      -1.83282312      7.22628424     12.41047894
O       3.40215011      0.66252575     10.44620683
H      11.84351190      4.65172716     13.19793461
H       6.73729567      4.26846413     13.14969510
H       6.72965329      3.03058000     14.08843633
H      10.11925333      9.28227171     13.10136049
H       8.30911333      7.66307076     15.10394626
O       6.18951805      2.69959078     15.88051769
H       6.16819745      1.75201107     16.10119509
H       2.50635451     -2.03414462     11.89855064
H       3.48033351      0.14155902     11.32545344
H       8.34373229      4.83119520     16.42691031
H       5.79813112     -0.38088547     15.88686725
H       5.26707069      3.05283137     15.70182683
H      11.69762250      0.39959627     14.48355552
H       7.18303812      3.83756848     16.58464974
O       8.73053069     -1.23354405     15.60122234
H       9.16557031      7.97000777     16.47171447
O       6.46161210      0.13948845     16.44547237
O       1.67245995      7.13753144     11.77586405
O       7.82782341      4.36972675     17.13486892
H       7.40555837     -0.24735707     16.28098370
H      10.80809959      8.18666126     17.69862551
O      12.64519994      0.57640942     14.81940434
O       3.39785878     -0.60761395     12.74321241
O       9.87124187      7.80541487     17.92498990
H       2.66339491     -0.29208624     13.30954842
H       1.68505294      2.18725504     15.58884477
O       1.51061647      3.08443858     15.94801177
H       2.03828245      6.15513222     11.83740242
H      12.75704208     -0.16424623     15.37823997
H       6.31431113     -1.62511976     18.63031286
H       6.19748766     -0.22179402     18.06172683
H       4.10862682     -0.89823777     13.32586515
H       0.80316906      3.48442290     15.36335514
H       3.00208887      3.58620315     15.70119030
O       6.26293507     -0.67620728     18.93530941
H       9.43966633      8.62697671     18.36612001
H       8.75158258      3.63206875     18.47678737
H       7.86699099      0.27802960     19.37583460
O       3.91479340      3.84207900     15.41469112
O       8.84793458      0.46648868     19.37444662
O       5.03742971     -1.26379281     14.69314156
H      14.95722217      3.86298343     14.42335222
O       9.24123601      3.10199373     19.12117989
H       5.85265652     -1.81194393     14.37284265
H       8.84253380      1.41271472     18.94072094
H       4.59659454      7.69817567     15.22377187
H      12.71575276     -0.31814061     18.37389161
H       4.32862291      5.54165272     16.12219489
H       4.93879262     -0.61680961     20.00186583
O      12.58845842     -0.95829690     17.67337732
H       9.03349357      3.49852645     20.03788653
O       4.57894659      6.37206246     16.59826588
O       4.14072258     -0.82270508     20.61468477
H       3.39852276     -0.24397641     20.30886901
H      13.12818357      7.92957419     18.01668837
O       0.71647557      2.88713368     18.49445418
H       3.91360229      6.43472064     17.33266576
H       1.22188077      1.56354866     19.32103369
H       5.64834135      6.28923078     17.84590307
O       8.88280950      4.26684967     21.41920459
H       0.85099996      2.78122894     17.51486328
H       0.66293777      0.40786202     20.16924137
O       1.59410016      0.75357596     19.77958422
H       8.17144724      4.97212975     21.57523166
H      10.73280262      0.93775555     21.96904713
H       7.03293218      5.68661629     18.10449106
H       8.71716611      3.68834301     22.24036544
H      10.92554479      3.00761661     18.70671050
O       6.40374532      6.32636326     18.51911590
O       0.18433788     -3.40065430     21.28631774
O      10.56703749      0.32205915     21.20099400
H       3.49106681     -2.10293960     19.75162633
H      12.58763690      5.01742815     20.51658426
H      -0.58907152     -4.02791667     21.34918518
O       8.74020219      8.17914031     22.40929088
H      -0.10594369     -2.68526221     20.64724545
H       9.43501123      8.69484737     21.95503143
O       3.17779465     -2.73616681     18.97147162
O      13.28674728      4.33936811     20.31173099
H       9.79654864      0.70617708     20.70676241
H       8.33419205     -0.94785743     23.11178718
H       7.52874714      7.28658272     21.38604669
H       2.61876255      3.31378156     21.34806313
H      12.79428244      3.81750583     19.61163574
O       6.96129914      6.48324016     21.30442146
H       2.91831324      6.06496175     19.33601155
H       4.18892469      8.30342847     22.24320874
H       6.69721055      6.55807608     20.34716782
O       2.84125401      2.54942894     21.95450043
O      10.87161170      9.38280743     24.67562477
O       4.04820680      8.02269685     23.21713012
O       7.72418195      2.81265650     23.82092124
H      11.80104668      5.27503254     24.68942571
H       2.64899475      1.74965119     21.38529599
H       4.62660649      7.30269266     23.39788170
H      11.35393500      8.62403734     24.21477855
H       6.73467276      2.77454331     23.77648849
H       7.93937616      3.31255684     24.61285257
H       4.37890913      2.71477171     22.77262160
H      11.28462013      0.52257037     24.21113131
H       5.63909719      5.49882668     24.63446000
O      12.22177874      7.30726870     23.77010398
H       2.01601855      7.53245028     23.77109515
O       5.39236290      5.63843228     23.68799293
O       5.04095483      2.82542025     23.49065370
O      11.02086893      4.64583446     24.45732449
O       0.32150707      2.22197460     23.19585000
O       8.91891626      5.80563780     23.86091058
H       6.69072637      0.05497019     24.36449866
H       4.66028917      9.18264972     24.00888988
H      11.37858125      2.99078059     23.85052314
H       8.97925248      6.68771447     23.50635027
H      12.02816965      6.89798794     22.90108122
H      10.26723801      5.21632306     24.01323507
H       4.94368382      1.18432386     24.15324835
H       7.76200833     10.67988273     24.20201602
H       4.98824992      3.74358744     23.72739975
H       6.16676086      5.81941998     23.12039635
O       7.69705315      9.67251384     24.41025375
O       5.15408048      0.26179764     24.50581945
H       1.19626428      2.34784429     22.74455056
H       8.21615257      5.82788469     24.59624307
Pt      2.43739660      9.32938881     26.89153294
Pt      5.16891179      9.34246319     26.78375499
Pt      7.84172760      9.21417097     26.62970433
Pt     10.67169119      9.39971388     26.72608751
Pt      8.00376681      4.50416401     26.89342887
Pt      3.75438389      7.00880902     26.75987928
Pt      9.40686679      6.96728664     26.91237368
Pt      6.57422851      6.92603746     26.71254930
Pt     10.72727705      4.51948665     26.74456173
Pt      1.03972224      6.98071876     26.97518791
Pt      9.33076771      2.14817287     26.84314387
Pt      6.69113951      2.12320188     26.87334411
Pt      2.56089712      4.60596154     26.87989461
Pt      5.33867139      4.53363138     26.81133351
Pt      1.16369646      2.22673752     26.82732003
Pt      3.91862099      2.09732677     26.86660003
H       7.69172869      1.99429186      9.36271954
