   242
 Tv_1:  11.152900   0.000000   0.000000 Tv_2:   0.000000   9.658700   0.000000 Tv_3:   0.000000   0.000000  26.829700
Pt      5.39661888      7.95340085      2.19356238
Pt      6.73996027      0.63024803      2.36829721
Pt     10.91099189      7.92578881      2.27867372
Pt      8.11497326      8.00892043      2.29799623
Pt      8.03690450      3.02385802      2.34316479
Pt      2.53566606      7.89062169      2.26121765
Pt      9.54184774      5.44361849      2.30702728
Pt      6.78664418      5.54412779      2.48292027
Pt      5.40873682      3.20572262      2.36280252
Pt      3.97720753      5.54618773      2.44532415
Pt      9.55065736      0.76171366      2.37351251
Pt      1.12911011      5.53725115      2.28214349
Pt      1.16680388      0.68062895      2.22290689
Pt      2.76447221      3.22466212      2.22834938
Pt      3.90286700      0.66233931      2.21455778
Pt     11.11361209      3.04236619      2.25320827
Pt      5.75849585      6.58077678      4.79783850
Pt      8.51161739      6.57525323      4.54871699
Pt      6.99894367      8.93345681      4.59653790
Pt      7.24939466      4.14225227      4.84291917
Pt      8.49100158      1.66645443      4.68061739
Pt      5.65867452      1.82852756      4.72338415
Pt      9.97478212      3.98392742      4.51577497
Pt      9.90196798      8.90332731      4.59749136
Pt      1.54761527      8.94848819      4.62706501
Pt      0.06504464      6.50834095      4.70968977
Pt      2.91694721      1.79180783      4.49084642
Pt      2.84824393      6.59746844      4.76934779
Pt      4.33021011      8.93452922      4.61171223
Pt      4.45105247      4.16444582      4.70192949
Pt      0.15107405      1.59525870      4.64469626
Pt      1.53199484      4.19893898      4.56309751
Pt      7.72056127      2.93777172      7.22568316
Pt     10.40512791      7.62572593      6.95790013
Pt      9.14743068      5.27872868      7.05083493
Pt      8.90983683      0.46705423      7.04319914
Pt      6.28636153      0.47091011      6.96876712
Pt      3.61436265      5.19913634      6.99385177
Pt      3.41817786      0.39750802      6.97840603
Pt      7.62242496      7.71375064      6.96117290
Pt      4.75179934      2.83196431      7.12886074
Pt      2.04094393      2.80527786      6.87788270
Pt      0.60226308      5.16281167      6.96877492
Pt     10.37766122      2.82417720      6.94402572
Pt      6.40934912      5.31127078      7.13636893
Pt      0.58049438      0.46485829      6.96285300
Pt      2.10564412      7.75511736      7.08208757
Pt      4.83514646      7.71154204      7.13636953
O       6.29430822      5.51148324      9.26160410
O       1.94840169      7.85130502      9.24160325
O       0.70116254      5.08541906      9.05722519
H       3.30922520      2.73290895      9.42214010
H       7.01999456      6.49886025     10.90385869
O       0.62251851      0.35175909      9.14216459
H       1.58543880      8.82931103      9.31156697
H       4.11785924      4.06629987      9.38866727
O       9.10819086      0.59229923      9.08178789
H      10.78217912      0.16912486      9.27414996
H       1.06602208      1.82626442      9.63159011
H       1.53216622      5.48112818      9.32125482
H       7.18844488      2.75434945      9.86626579
H       1.02578685      3.61925159      9.48890172
H       8.34963119      0.00460712      9.48888698
C       7.50856229      5.95270769     10.05618758
H       2.93143499      7.88659127      9.46729096
O       8.03459653      2.89694685      9.34713588
H       5.37713056      8.32040957      9.70602045
H       8.21897943      6.64176096      9.54510404
O       4.70120152      7.70400517      9.26697509
O       4.22859815      2.96130370      9.24997245
O       1.50836626      2.71713204      9.87535938
H       2.26822113      2.89918607     11.17157502
H      10.77221335      7.59757289      9.86669544
O      10.24902107      6.97223795      9.30247268
H       5.17260774      2.45367173     10.45781705
O       5.98709118      2.23904929     10.83716112
O       3.49895372      5.25938432      9.03658810
H       5.55276072      6.25532045      9.47392868
H       8.04517717      5.01225825     10.25010890
H       7.40699145      7.19532896     13.99652840
H       6.03988839      2.62392188     11.77621066
H      10.85695509      6.24191339      9.23810304
H       6.86039680      8.95638624     11.22559594
H       6.43692348      0.58719836     10.47754277
O       6.70414591      9.29281088     10.34304785
O       7.74475024      6.24319928     14.24297490
H       3.99151099      6.01211693      9.40205461
H       7.95660207      4.13891321     12.86705923
H       8.72359320      6.41257211     14.18620585
H       8.62313209      9.92950316     13.37968531
H      11.73444671      9.05748557     11.60891229
H       9.05051686      3.00592435     13.00867947
O      -0.33122658      8.67176973     11.51305069
O       9.45022069      0.78548833     13.04156284
O       8.83755487      3.85871254     12.45408317
Cl      6.55889942      9.19929309     13.62240271
H       2.69194295      4.16617909     12.30429817
O      10.46843303      6.41429274     12.82133728
H      10.03021664      5.59317781     12.51231681
Cl      2.26621489      5.85020110     12.47430339
O       6.28334601      2.90552125     13.39790696
H      -0.36037610      7.81816391     12.03680432
O       2.70683394      3.11443126     12.09626700
H      11.33839739      6.05273908     13.06007217
H       5.68978489      3.31572936     14.02314542
H       6.36061929      1.91710522     13.53492142
H       9.92081964      9.70448496     12.48484925
H       7.22093435      9.51854328     15.72374755
O       5.14910357      3.76407084     15.69028849
H       5.15360669      2.88809279     16.25995072
H       2.66497847      0.14551408     12.37077328
H       2.34134837      2.40798476     12.83918374
H       7.25947246      5.79405844     15.91375977
H       4.72919064      0.89412747     16.52957041
H       4.26063997      4.09435218     15.70579732
H      10.40243401      1.01192714     14.48527288
H       6.25418930      4.75007347     16.50769969
O       7.34536348     -0.16831137     16.68142049
H       6.58268712     10.06718472     17.02501783
O       5.26654754      1.50566867     17.05045289
O       2.38819080      9.21288931     11.64818653
O       7.12511454      5.22111209     16.75467485
H       4.68660197      1.95647417     17.72909841
H       6.98607727      6.50933289     17.94360478
O      10.90609033      1.49070999     15.18702712
O       2.19033362      1.56034445     14.00743309
O       7.41887728      7.23121800     18.50216832
H       1.31067806      1.54361688     14.45762324
H      -0.22850422      3.37416953     15.61041180
O      -0.35905699      4.20582252     16.03922818
H       2.50475064      8.25675120     11.87994340
H      11.06384694      0.94894921     15.94863152
H       6.52159183     -1.55081556     19.74816889
H       6.78924406     -0.43043665     20.94398514
H       2.71654769      0.99159524     14.65356495
H      -1.11509565      4.08592928     16.64405601
H       1.30936404      4.74760421     15.88586155
O       6.17537800     -1.18016255     20.65563425
H       7.52759715      7.92656377     17.81205614
H       8.21145957      4.35858394     17.61741749
H       8.34188277      0.55729786     17.67567141
O       2.25953488      4.98843806     15.76286741
O       8.74324655      1.05102010     18.42515419
O       3.86830161     -0.27232516     15.37131262
H      13.50235501      5.12220224     14.80383634
O       8.99444922      3.69936214     17.89507190
H       4.57191284     -0.51257672     14.74704601
H       8.89176553      2.00112474     18.06639084
H       3.79361100      8.65385023     16.06209626
H      10.45927322      0.55688888     18.30876806
H       3.07150941      6.55156955     16.76700418
H       4.58637767     -0.99004069     20.68248353
O      11.44152398      0.64979808     18.09155655
H       9.13395923      3.96532231     18.83026142
O       3.45876341      7.30782576     17.32612118
O       3.56210443     -0.90182610     20.81344188
H       3.48618599      0.09809721     20.78882707
H      11.96567750      9.50767785     18.34948469
O       1.22440158      3.21155650     18.32213689
H       2.71646811      7.62341582     18.00581354
H       2.78934727      2.96449510     18.38478000
H       4.32961989      6.19685326     18.71891376
O       9.44269469      4.80955984     20.55044879
H       0.87076404      3.62663633     17.54447902
H       4.13107720      3.81398419     18.83439306
O       3.76872011      2.88952056     18.72083307
H       8.53593911      5.21091202     20.70584008
H       7.70378488      1.34200684     21.73919955
H       5.24913611      5.42450334     19.97970447
H       9.50800455      4.32377172     21.35113021
H      12.09536072      2.26881653     18.44359429
O       4.42694076      5.37745809     19.34081787
O      -1.76891516     -1.92100542     22.04035753
O       8.25808712      0.65599473     21.23193331
H       2.42564807     -1.47765794     19.84466840
H      11.17674699      5.54359463     20.07645664
H      -1.76273825     -2.57880345     21.22946846
O       7.45374983      7.10316803     23.98309443
H      -1.94581894     -1.01683716     21.68523365
H       8.23020677      7.16561496     23.33851943
O       1.69247741     -1.66712683     19.18727003
O      12.13653897      5.45034671     20.12442962
H       8.25439789      0.99748133     20.23268365
H       7.07604174     -1.69916109     24.12544817
H       6.63206146      6.67525089     21.20017038
H       3.84148109      2.22434628     20.28213987
H      12.29719330      4.58945663     19.60861398
O       6.78859794      5.70047421     21.06303236
H       1.36852336      7.08941287     19.37893434
H       3.10479877      8.17515090     22.50426203
H       6.68016801      5.25538494     21.90223067
O       3.74891447      1.79613060     21.14787066
O      10.98021321      9.61158466     24.56875383
O       2.92918406      8.06906880     23.49748326
O       8.69711902      3.05534352     23.44114778
H      11.61164274      4.88966328     23.34052395
H       2.94117574      2.19953431     21.44693312
H       3.03221621      7.02968096     23.71967977
H      11.29206410      8.64939087     24.25694189
H       8.20013636      3.73110788     23.88266929
H       9.66491151      3.30376841     23.70524153
H       4.94806585      1.90563032     22.61578703
H      11.78782010      0.54400122     24.07988637
H       4.21446357      5.42341249     23.53708931
O      11.51497460      7.19395870     23.64510108
H       1.15918912      7.47946095     23.16873815
O       3.26291035      5.60219860     23.68805591
O       5.80690608      1.61723093     23.06198401
O      11.38708173      4.01651718     23.64451490
O       1.74029940      1.52275292     23.53629256
O       6.02207563      4.73257924     23.66964544
H       8.19714721      1.17067335     24.25986524
H       4.26863183      8.70458084     23.97513230
H      12.38793491      2.35762632     23.61192005
H       6.49121895      5.41063267     24.19682705
H      10.84926152      7.10301144     22.92738045
H      11.61219156      4.07060574     24.63742459
H       5.53931478      0.21427257     23.65044665
H       9.29635152      9.76671906     24.30261108
H       6.05927265      2.32303393     23.65956601
H       3.09635597      5.22771480     24.57817996
O       8.24522541      9.86686956     24.37404565
O       5.16989996     -0.55070561     24.22660680
H       2.34865118      1.69376109     24.32104538
H       5.54527689      4.27178304     24.39374779
Pt      2.51445123      9.31458932     26.75959099
Pt      5.22767505      9.20728354     26.46894283
Pt      7.94460788      9.42027631     26.68621301
Pt     10.92518262      9.38841593     26.79502157
Pt      8.07694338      4.41202301     26.71543451
Pt      3.91908058      6.76762076     26.77134165
Pt      9.45764269      6.95983338     26.85709836
Pt      6.64130729      6.70154045     26.89259944
Pt     10.75772353      4.56802635     26.82537296
Pt      1.25670427      6.77596242     26.76509542
Pt      9.24316074      2.05275875     26.82316013
Pt      6.62491627      2.11313556     26.77301211
Pt      2.67803930      4.44025266     26.64195778
Pt      5.36228568      4.45157935     26.56348342
Pt      1.23483384      2.08032690     26.77717477
Pt      3.82824963      2.05624622     26.55963050
H       8.60494574      2.06695337      9.50970645
