   242
 Tv_1:  11.152900   0.000000   0.000000 Tv_2:   0.000000   9.658700   0.000000 Tv_3:   0.000000   0.000000  26.829700
Pt      5.15084963      7.97979485      2.46405932
Pt      6.83627858      0.78439808      2.34950098
Pt     10.80584558      7.92714824      2.53622487
Pt      8.00636902      7.99207185      2.42779751
Pt      8.17257998      3.09963178      2.38996280
Pt      2.46803652      7.84477306      2.45868391
Pt      9.48096843      5.48439128      2.36207048
Pt      6.73605791      5.54798194      2.62374757
Pt      5.46197818      3.22411247      2.41800658
Pt      3.95359550      5.56044998      2.45320681
Pt      9.54925092      0.73381873      2.44585155
Pt      1.00705982      5.60966413      2.41478864
Pt      1.22128574      0.62366197      2.28689401
Pt      2.77982890      3.17662301      2.38889450
Pt      3.94060838      0.70033252      2.42412302
Pt     11.07686851      3.02896593      2.33375175
Pt      5.78311119      6.69401217      4.81707065
Pt      8.59102439      6.57140008      4.75581235
Pt      7.21303148      9.04484373      4.70854090
Pt      7.33399994      4.20458927      4.82835827
Pt      8.48052078      1.78798065      4.78944909
Pt      5.65541868      1.85546316      4.74832874
Pt     10.00239371      4.13806331      4.61389219
Pt      9.94276405      9.04576678      4.80960290
Pt      1.66369881      8.96054006      4.88340299
Pt      0.16017540      6.60455178      4.76356226
Pt      3.03059625      1.79440702      4.69458968
Pt      3.01150084      6.62584655      4.76603647
Pt      4.44851057      9.08497034      4.77715611
Pt      4.43444488      4.29021425      4.76502050
Pt      0.43870803      1.62417225      4.70479629
Pt      1.56914350      4.25055518      4.66671287
Pt      7.61459231      2.97323359      7.26535323
Pt     10.44502268      7.79373841      7.24047200
Pt      9.16838722      5.29016110      7.04595302
Pt      9.19238245      0.61084829      7.12939342
Pt      6.33823141      0.54060387      7.06608246
Pt      3.51682645      5.35627637      7.17837327
Pt      3.53089837      0.54076038      7.02965933
Pt      7.66049633      7.85020896      7.13684461
Pt      4.93119271      2.87326447      7.16583651
Pt      2.03161402      2.89649490      6.99932464
Pt      0.67722897      5.26026648      7.25774640
Pt     10.48475750      2.93255343      7.03486002
Pt      6.30271968      5.51751174      7.07631872
Pt      0.66999093      0.45643537      7.11259470
Pt      2.15841244      7.77560113      7.22062381
Pt      4.92071821      7.75789115      7.14739849
O       6.28145275      5.67761094      9.55392223
O       2.32152680      7.63885812      9.31490470
O       0.61495427      5.31065836      9.48202025
H       4.37753657      2.08216355      9.63860263
H       7.16096129      5.26078540     11.35352693
O       0.77233448      0.31883258      9.22561100
H       1.90635284      8.54698358      9.53919820
H       4.09413212      4.28437545      9.33174999
O       9.19664471      0.67065435      9.34733226
H      10.90319063      0.48085123      9.43674223
H       1.09676516      1.25091887      9.55706488
H       1.46747524      5.77542474      9.74420788
H       6.84416914      2.88172678      9.93092875
H       1.07865170      3.40948259      9.64370632
H       8.54972799      0.02384555      9.62630345
C       7.42818805      5.83507997     10.47083762
H       3.49260821      7.78847560      9.57695113
O       7.73941211      2.85422168      9.48424265
H       5.16985094      8.73116925      9.61599378
H       7.68035203      6.87623959     10.65268600
O       4.76535482      7.80909737      9.39777837
O       4.87710637      2.85639432      9.22534753
O       1.66338198      2.59354063      9.76846319
H       2.39189135      2.78238468     10.48150967
H      10.45022126      7.86278453      9.97450880
O      10.29615241      7.22312768      9.27784711
H       5.20495016      2.50498069     12.18052023
O       6.16446031      2.36497927     12.07872636
O       3.55885271      5.14080655      9.25768813
H       5.80321691      6.55890576      9.51030215
H       8.24733200      5.34656781      9.95126230
H       8.90884559      7.09600175     14.23821504
H       6.59182862      2.35068320     12.94553120
H      10.90545317      6.39814276      9.46780524
H       6.55994167      9.20301426     11.37782954
H       6.39383423      0.98746209     10.99446221
O       6.67714946      9.78016425     10.59525295
O       9.60871774      6.73489264     14.78053752
H       3.94566607      5.81791383      9.76023831
H       9.41952975      3.94631626     10.75021306
H      10.34735361      6.37320389     14.20616461
H       9.07991868     10.24539570     13.43906011
H      11.85798648      8.69376468     11.61532826
H      10.21804792      3.16736713     11.92916458
O      -0.23519312      8.41952012     11.65535352
O       9.94141170      0.88964012     13.04673439
O      10.10430156      3.99964607     11.44166840
Cl      7.34758671      8.43056681     13.42218056
H       3.32073701      3.63369378     12.03779674
O      11.34791496      6.13408397     12.88036634
H      10.91817848      5.27075205     12.48947386
Cl      3.03981593      5.71549119     12.32011981
O       7.30258050      2.82138553     14.81521512
H      -0.15185645      7.44420595     12.02014059
O       3.45513424      2.71711826     11.72991256
H      12.33112129      5.92405758     12.75563215
H       6.48803262      3.24449330     15.25395952
H       7.44886960      1.97689133     15.32012883
H      10.29231930      9.81484789     12.44581069
H       7.88474512      9.46412069     15.27603263
O       5.10813128      3.35686232     16.26235067
H       4.76154360      2.44109538     16.02507183
H       2.61715905     -0.17978382     12.58100113
H       3.41610917      2.03000681     12.42708115
H       9.42895829      5.10945267     15.75967692
H       4.68579043     -1.16948573     17.57881611
H       4.44034919      3.98023896     15.84003806
H      11.12996763      1.29266416     14.07049222
H       8.82659052      3.71804266     15.57513879
O       7.89375804      0.46383305     16.01950912
H       7.62070408      9.63913783     16.79668098
O       4.86264661     -0.59692922     18.32611074
O       2.40407251      8.87802744     11.80806880
O       9.38873872      4.21523179     16.18192849
H       4.65055453      0.31352183     18.17958019
H      11.87968718      7.11407250     17.05556743
O      11.77847137      1.33096751     14.83557958
O       3.00230221      0.93768787     13.74722781
O      11.08521714      7.67844213     16.86579889
H       2.08585540      1.14089029     14.10377118
H       0.90430526      2.88361101     15.54953878
O       0.88581407      3.76513197     15.97047619
H       2.52573918      7.95468553     12.14834693
H      11.30802273      0.76233797     15.45736247
H       7.68456880     -1.56102405     18.79717521
H       6.45066449     -0.73030078     18.52606211
H       3.53144191      0.37975179     14.36266669
H      -0.07449663      4.04413722     15.89536972
H       2.06453593      4.68144880     15.59712795
O       7.46614282     -0.68520472     18.45053522
H      10.67251345      7.26540885     16.05285361
H       9.01850580      3.96374603     17.89938176
H       7.99230377      0.61321807     19.67569572
O       2.97766787      5.01984676     15.35751826
O       8.22455943      1.47573171     20.19636748
O       4.78968044     -0.50766332     15.08757895
H      14.35599407      5.15918050     14.35625826
O       8.77967826      3.95595216     18.83694184
H       5.58626812     -0.80579064     14.56327742
H       8.34623888      2.24879160     19.57993140
H       4.47789159      8.38466862     15.53134284
H       9.46596147      0.49639811     16.54118232
H       3.33233610      6.41556310     16.27986795
H       4.18702001     -1.08874290     19.90600265
O      10.36139495      0.54174883     16.97079069
H       9.66314996      4.15729923     19.22673194
O       3.81984911      7.08736553     16.84948722
O       3.47030557     -1.33263646     20.57290151
H       3.03345358     -0.41304112     20.61821745
H      10.68188107      9.27233441     17.05513046
O       0.77719606      2.12079628     18.36411667
H       3.21202156      7.02841029     17.64191467
H       2.55531823      1.93786225     18.28802509
H       3.67662083      4.91852484     18.45522958
O       8.38777361      3.80927725     23.65611465
H       0.77003813      2.75686907     17.62437576
H       3.96866183      2.74672734     18.79072588
O       3.52225974      1.85683923     18.57104363
H       7.98541155      4.73622409     23.54189564
H      10.63856379      0.98151161     22.07352910
H       4.86975540      4.20949229     17.82285555
H       8.42490029      3.82783803     24.69660059
H      11.29392861      1.46015251     17.95750053
O       4.49830180      4.41496261     18.67749807
O      -0.24368475     -1.73467800     20.74100956
O      10.77872395      0.89074372     21.06327998
H       2.08542577     -2.51078233     19.54614498
H      11.50901198      4.25679422     20.92714099
H      -0.03550709     -2.11067540     19.86482437
O       8.08478292      7.66935532     21.84883299
H      -0.35774749     -0.74541879     20.71164635
H       9.04199634      7.75327879     21.62204883
O       1.67501647     -3.05531174     18.76036840
O      11.35010432      4.11342763     19.97231896
H       9.82416517      1.30774809     20.73119989
H       7.95273074     -2.65419790     21.12710941
H       7.70220583      5.31314982     19.24988790
H       2.81298237      1.48451947     20.14489046
H      11.51254449      3.15744472     19.73087234
O       7.16681773      6.15551711     19.53717860
H       1.35341500      5.83860172     19.28096316
H       3.73744542      7.82545101     22.37292647
H       6.23563795      5.85992025     19.30531182
O       2.44257818      1.09548414     20.93385402
O      10.51896039      9.58318680     23.72650180
O       3.31369840      7.57394403     23.27331979
O       6.72978960      1.60382520     23.07048765
H      11.22453761      5.13307941     23.34255598
H       1.43200945      1.21175677     20.93080917
H       3.50508073      6.65392484     23.45248866
H      10.93976546      8.68862400     23.87494876
H       7.20099560      2.39197770     23.46379210
H       7.18747287      1.41613949     22.21861346
H       3.28733918      1.53393409     22.52545509
H      11.14415281      0.58179405     24.10594100
H       4.37904611      4.72470236     24.70729522
O      11.66571707      6.92104239     23.30724696
H       1.55339921      7.07637435     23.33184998
O       4.32027667      4.97638194     23.78968314
O       3.42906014      1.85419185     23.43678716
O      11.02265652      4.20062356     23.06880519
O       0.99951879      1.97998473     24.39895180
O       7.04869859      6.21092091     23.77600886
H       7.34687491      0.49400550     24.09452021
H       4.20836460      8.64732146     24.31008144
H      11.76648327      2.84304062     24.09832114
H       7.53568231      6.84993340     23.16819104
H      11.63460828      7.23571847     22.33437796
H      10.06858679      4.01133156     23.32202396
H       4.83044323      0.50310168     24.30728239
H       8.91813638      9.63726086     24.31808260
H       3.86764075      2.71661891     23.24791336
H       5.19602863      5.34775655     23.51224026
O       7.96114650      9.52962835     24.65468960
O       4.91966161     -0.37831635     24.70232616
H       1.98768013      1.92905133     24.08936412
H       7.31421774      6.33985344     24.73442031
Pt      2.18528058      9.25175313     26.77430202
Pt      4.95335856      9.41078053     26.87839956
Pt      7.77935806      9.33801692     26.82328820
Pt     10.62569655      9.41003733     26.91337582
Pt      7.90421802      4.54138981     26.92040501
Pt      3.54427884      7.06163539     26.69509359
Pt      9.26253449      6.91184207     26.86756735
Pt      6.53550257      6.86981202     27.10253407
Pt     10.66269054      4.53248196     26.72379522
Pt      0.74584485      6.94808933     26.90471889
Pt      9.31793015      2.07839436     26.72796532
Pt      6.59161708      2.18751981     26.86326500
Pt      2.32206610      4.55426076     26.94121562
Pt      4.90824017      4.55113709     26.86112963
Pt      0.91863370      2.20435847     26.58293474
Pt      3.79985032      2.11849835     26.92936032
H       8.27575712      1.98984109      9.61009152
