   242
 Tv_1:  11.152900   0.000000   0.000000 Tv_2:   0.000000   9.658700   0.000000 Tv_3:   0.000000   0.000000  26.829700
Pt      5.52593104      8.08934231      2.40596281
Pt      6.85754642      0.89086711      2.21807216
Pt     11.02842617      8.17636842      2.44122051
Pt      8.36281920      8.07880171      2.38213661
Pt      8.18592906      3.34979242      2.32377459
Pt      2.75725104      8.04296893      2.38392241
Pt      9.68115806      5.65932356      2.39418184
Pt      6.87562339      5.66885263      2.35918401
Pt      5.33019115      3.22979801      2.14683865
Pt      4.03294680      5.61913856      2.31271367
Pt      9.59926708      0.82883314      2.29426099
Pt      1.26586086      5.64538137      2.19075768
Pt      1.25433991      0.89156635      2.46757038
Pt      2.48932466      3.16139338      2.15274254
Pt      4.04333244      0.86969603      2.25654775
Pt     10.97881370      3.21955359      2.35686070
Pt      5.84342805      6.72955377      4.68895994
Pt      8.64513596      6.70468311      4.59539213
Pt      7.11892807      9.12735847      4.69488484
Pt      7.28459507      4.30666055      4.74387866
Pt      8.41698334      1.81012037      4.54837792
Pt      5.73224443      1.98632311      4.50523251
Pt     10.08943934      4.24358373      4.56480555
Pt      9.93258969      9.17881264      4.68281602
Pt      1.65175245      9.10571538      4.72606757
Pt      0.31108259      6.65195736      4.53069992
Pt      2.94364314      1.83252476      4.49344169
Pt      3.12467650      6.67264701      4.67624652
Pt      4.37096710      9.11932080      4.62240618
Pt      4.53810421      4.29523132      4.56539578
Pt      0.21273993      1.72105092      4.68307114
Pt      1.71089471      4.19231112      4.48808131
Pt      7.73104246      3.06724522      7.01593408
Pt     10.49704541      7.76188030      6.97826656
Pt      9.12153307      5.44764874      6.98090617
Pt      9.16696909      0.55170950      7.07308439
Pt      6.32810555      0.58663481      6.91166128
Pt      3.39371998      5.44597531      6.95749354
Pt      3.47230885      0.62875890      6.97316944
Pt      7.67030246      7.77690321      6.96454526
Pt      4.89692297      3.01428496      6.93257524
Pt      2.13345475      3.01827830      6.83098345
Pt      0.59963846      5.30593836      6.88981370
Pt     10.39977756      2.96043287      6.96521919
Pt      6.25731434      5.43733279      7.13206806
Pt      0.73449134      0.62939283      7.18860027
Pt      2.05367814      7.86460100      7.08531818
Pt      4.84625559      7.92348267      7.11634619
O       5.99304061      5.75648071      9.26321337
O       2.03267453      7.76690003      9.45046594
O       0.53604314      5.26227043      9.32021232
H       4.16040226      2.12566280      9.19725317
H       6.40071139      4.94952420     11.16319627
O       0.76872531      0.47470216      9.25117674
H       1.61859233      8.66899194      9.68007248
H       3.82210339      3.95604208      9.20782218
O       8.97263247      0.93234452      9.39254301
H      10.99437480      0.21588105      9.45965778
H       0.90207042      1.91929164      9.86022910
H       1.23964402      5.95868061      9.46568250
H       6.64623879      2.75572627      9.32720100
H       0.85751396      4.29614623      9.56104725
H       8.09742600      0.45076024      9.61931028
C       6.91974664      5.32225451     10.21111908
H       2.98389133      7.87645760      9.69394826
O       7.55469656      3.19137098      9.15031389
H       5.45758136      8.62716724      9.66310875
H       7.71590769      6.10566959     10.37003633
O       4.66955201      7.96227220      9.35614702
O       4.92901761      2.62521001      8.91322176
O       0.79555863      2.79135454     10.35914701
H       1.62478684      2.87071109     10.88337085
H      10.12500363      7.86709309     10.19391758
O       9.85059382      7.24904089      9.44049723
H       5.28299178      2.22982093     11.65497301
O       6.11568190      1.77849315     11.66953126
O       3.55732717      4.91853555      9.24137871
H       5.16985938      7.14642062      9.50077311
H       7.41644743      4.23226319      9.83730725
H       7.96739512      6.40728390     14.32915790
H       6.43067265      1.85338787     12.55929592
H      10.37349522      6.34612039      9.54746843
H       7.11297081      8.66560633     11.00729545
H       6.37701407      0.48819762     10.83228680
O       6.67951469      9.27661980     10.33242696
O       8.44603925      5.85138449     14.96571403
H       4.44193810      5.36123107      9.36848132
H      10.55546364      3.52258638     11.08399503
H       9.41477113      5.96513045     14.71275814
H       9.33608134     10.56934186     13.78543547
H      11.17647708      8.43580361     11.94741078
H       9.52106322      3.20391101     12.29371283
O      -0.84481074      8.79034021     11.54751413
O       9.98888464      1.27684906     13.12524660
O       9.82421132      3.91866594     11.67524582
Cl      7.62401929      7.53013527     12.63925255
H       3.30026960      3.44397481     12.16653430
O      10.84327476      5.40706653     13.56510820
H      10.43045275      4.98788980     12.74510123
Cl      2.80246724      5.49364811     12.89528097
O       7.67254215      3.27923594     14.22934722
H      -1.49161413      8.15802595     11.89187071
O       3.30646587      2.50888479     11.80890971
H      11.83109307      5.42080658     13.35899567
H       8.03024142      4.18048407     14.44902058
H       8.27143776      2.60699926     14.63148893
H      10.26090293     10.29840017     12.42371990
H       7.85978619      9.12037616     14.14667875
O       5.80523421      1.64746029     15.68462976
H       6.49240645      0.88576774     15.48300172
H       2.47495252     -0.67813772     13.30716410
H       3.26956140      2.02188379     12.65651958
H       4.67308998      3.00524560     18.00450686
H       1.30573369     -1.98992447     18.71811359
H       6.19797427      2.35798168     15.14759822
H      11.89241590     -2.02489747     14.95171197
H       5.33863253      1.75372120     17.40030152
O       7.86021434      0.06227525     14.92611639
H       8.27589462      9.16892575     15.72727494
O       1.66333145     -1.09443654     18.63050856
O       1.80023273      8.29644819     13.07596682
O       5.03052767      2.11965516     18.29834619
H       2.61668697     -1.30942021     18.80479717
H       6.61453097      6.66818911     17.35239192
O      11.63034791     -2.12130175     15.89396714
O       3.42733035      0.67267115     14.12762143
O       7.56718648      6.43175558     17.50978497
H       3.16764432      1.55893086     14.52671040
H      -0.40948325      2.43298821     14.13757692
O      -0.14804453      2.97738662     14.92731873
H       2.30563419      7.47472235     12.87181783
H      12.31765388     -1.59797650     16.39869372
H       4.51935960     -3.91591225     16.92258283
H       4.62769684     -2.58695463     16.10261590
H       4.32530558      0.55442234     14.50996533
H      -0.31268921      3.90910075     14.56341358
H       1.63111486      3.22111433     15.03908065
O       4.85573769     -2.98948402     16.96394834
H       7.90022392      6.02808043     16.69316368
H       5.85176316      2.40285610     19.61424144
H       8.73267350      1.81047796     21.94261632
O       2.65406912      3.24982517     15.18606983
O       8.05898849      1.17979319     21.54919585
O       4.80927649     -1.93489158     14.34229180
H      14.19755737      3.96169589     14.63046055
O       6.42635678      2.67652210     20.40543112
H       5.69019451     -1.88499290     13.89288966
H       7.44235106      1.79832751     20.99053332
H       4.20880373      7.16592463     13.85245956
H      10.13119663     -1.25387863     16.39309870
H       3.12200650      3.97209851     16.57107648
H       4.68028651     -1.88640105     18.47890762
O       9.24945963     -1.02062678     16.71301300
H       6.85872342      3.59884925     20.22484666
O       3.61019168      4.40508331     17.39187011
O       4.41025606     -1.38562009     19.26928060
H       4.63128784     -0.45525260     19.13170558
H       8.82387632      7.87947510     17.15530062
O      -0.62653902      1.75459829     17.51096237
H       2.97524294      4.58513356     18.11631161
H       1.89768250      1.90143844     18.81221285
H       3.11957220      3.48525440     20.70955336
O       7.88085137      4.89382252     20.00986429
H      -0.38638412      2.14455754     16.67237101
H       3.39893644      1.74344064     18.80706744
O       2.67813458      1.93708986     19.43616860
H       7.68554229      5.61228736     20.65961566
H      11.39025320      3.39603023     20.55805516
H       4.71308147      3.48417849     20.87230561
H       7.51396094      5.34649771     19.18830017
H      10.04280546      0.97122754     17.15853685
O       3.83129573      3.83888711     21.20745423
O      -1.87293247     -1.05742471     21.26185647
O      11.88969273      3.06733383     21.33729396
H       1.42353683     -3.73334340     20.13105501
H       9.59130650      4.41438314     19.30175873
H      -2.26022336     -1.51101966     20.44900635
O       4.57319851      6.65233424     23.78542826
H      -2.43121637     -0.12415202     21.16407658
H       4.32972727      7.19549113     24.57741772
O       1.26430443     -3.75106162     19.19474398
O      10.42737768      3.88052553     19.20844345
H      12.14530259      2.09283432     21.23439204
H       4.10927308     -2.58134741     23.05429440
H       7.60230784      7.43987714     22.89768172
H       0.83897733     -0.16283755     20.18428610
H      10.14549995      3.13862936     18.66249650
O       7.28292375      6.53927996     22.72138003
H       0.68814819      5.08894449     19.10943133
H       3.42466077      7.24259933     20.71138857
H       6.54100878      6.52253784     23.37091191
O       0.48905963      0.36914393     20.92335263
O      10.58491612      9.44106247     24.40963120
O       3.01007003      6.73943673     21.41989112
O       6.63293668      2.40112106     24.32695831
H      12.02269257      4.05455862     22.39898045
H      -0.38858964     -0.03873053     21.01437487
H       3.34092766      5.84378177     21.19506474
H      10.93074589      8.64752746     23.90511157
H       5.68997558      2.43663659     24.04762702
H       7.04483918      3.26916546     24.05326456
H       3.32944573      1.51849521     23.64296367
H      10.78795428      0.70453674     24.06124872
H       2.07664563      4.73386430     23.87897034
O      11.10932575      7.43857092     22.83036054
H       0.80032659      7.56932259     22.35754516
O       2.93618519      4.54569243     24.47628556
O       3.85448512      2.25989528     24.05053532
O      11.92901479      4.65052572     23.25655547
O      -0.83264518      2.09765693     23.54599126
O       8.36892689      4.40583066     23.78331328
H       7.54711846      0.73077233     24.31248871
H       1.93124493      9.23948029     23.85125698
H      10.70210381      2.93394219     23.17656795
H       8.09276907      5.35188362     23.55521237
H      10.42354023      7.65952231     22.16811628
H      11.43373334      5.47957363     23.07096810
H       1.79107811     -0.14453633     22.35236773
H       8.88096114      9.61127545     24.30092477
H       3.36199298      3.19269184     24.07669199
H       3.62177303      5.29093021     24.28219931
O       7.93302970      9.50934385     24.49307035
O       2.45525081     -0.20742733     23.02873759
H      -1.30545403      2.31901328     24.42491590
H       8.89292322      4.43596413     24.65217101
Pt      2.34173363      9.33390683     26.88454019
Pt      5.19333012      9.43317809     26.82810040
Pt      7.82626055      9.47511484     26.68348511
Pt     10.65928376      9.43183878     26.71411851
Pt      8.00572063      4.74779221     26.76937011
Pt      3.74808886      7.14347379     26.80508140
Pt      9.48661325      7.04292290     26.85447789
Pt      6.60890504      7.08115887     26.79031940
Pt     10.80478617      4.66711367     26.81678461
Pt      0.90142498      7.07444314     26.80290858
Pt      9.35189734      2.24473387     26.87547099
Pt      6.37444932      2.23305922     26.66979781
Pt      2.40296867      4.67591258     26.74852369
Pt      5.30777760      4.78747472     26.92482900
Pt      0.86774271      2.17610292     26.73603933
Pt      3.59344402      1.99288666     26.60536230
H       8.67085241      1.84827976      9.44572885
