   242
 Tv_1:  11.152900   0.000000   0.000000 Tv_2:   0.000000   9.658700   0.000000 Tv_3:   0.000000   0.000000  26.829700
Pt      5.33271667      8.06255656      2.23503507
Pt      6.66679969      0.84583100      2.18817428
Pt     10.81151326      8.12375732      2.32023031
Pt      8.01841951      7.99379376      2.17113276
Pt      8.09893752      3.34433394      2.46598062
Pt      2.51980964      8.12509570      2.35392154
Pt      9.64098943      5.65205660      2.23527062
Pt      6.57479192      5.58093175      2.28952012
Pt      5.14746260      3.13143433      2.18112029
Pt      3.91485289      5.63353705      2.37936256
Pt      9.39021039      0.88560022      2.38674497
Pt      1.15687763      5.74331497      2.32894379
Pt      1.04663716      0.88750890      2.34275316
Pt      2.45438197      3.22019076      2.21492042
Pt      3.94119679      0.79085702      2.32124410
Pt     10.91153750      3.24328319      2.38945168
Pt      5.41304161      6.73720948      4.59447280
Pt      8.20292213      6.66402413      4.57123599
Pt      6.95073152      9.14040017      4.46841983
Pt      6.96027049      4.30451923      4.64460177
Pt      8.38619322      1.88777290      4.68476563
Pt      5.67639444      1.82981298      4.52365386
Pt      9.74679918      4.31132937      4.65998223
Pt      9.66022906      9.00102696      4.67484224
Pt      1.27311579      9.20912804      4.68243738
Pt      0.06381308      6.76733589      4.63878485
Pt      2.91839126      1.91281005      4.48309621
Pt      2.80099694      6.78217471      4.62104802
Pt      4.20778634      9.12026998      4.72227496
Pt      4.32962563      4.27622704      4.67320082
Pt     -0.02121325      1.88077846      4.62658472
Pt      1.43467430      4.26538668      4.61004233
Pt      7.15842887      2.86484046      7.03584251
Pt     10.01109671      7.81440461      7.08728246
Pt      8.86071423      5.39852791      6.96174305
Pt      8.74817923      0.48563354      7.00898284
Pt      5.77961958      0.54456333      6.90812377
Pt      3.05561270      5.45005172      6.93390720
Pt      3.00512769      0.71783945      6.91357411
Pt      7.32852394      7.81075784      6.96030226
Pt      4.42527666      3.09897214      6.99170828
Pt      1.71914978      3.00264192      6.88633243
Pt      0.35654679      5.42090496      6.97721326
Pt      9.85396816      2.97478626      7.05946585
Pt      5.93510426      5.39434737      6.84872484
Pt      0.30752853      0.62660830      7.02616739
Pt      1.79671494      7.88967220      6.96712872
Pt      4.66424482      7.77840199      7.10715788
O       6.69762704      5.53612390     10.02997129
O       1.87783042      8.03096913      9.30230369
O       0.49900530      5.21516887      9.21422480
H       4.10208994      1.93995084      9.29120071
H       8.29390406      4.74112401     10.99735905
O       0.33707419      0.57138667      9.22247719
H       1.25634764      8.92199876      9.52734538
H       3.44131951      4.56340485      9.81860041
O       8.40339561      0.46682565      9.15744844
H      10.57502340      0.28917087      9.51078841
H       0.09757115      2.07103676      9.82404736
H       1.43074320      5.26110407      9.55904423
H       5.41863835      2.78389144      9.47805832
H       0.20827293      4.29262553      9.46949420
H       7.89259398     -0.26793620      9.64057995
C       7.80005985      4.96617869     10.00173342
H       2.73082903      8.35729943      9.62780722
O       7.03675391      2.66344241      9.13741823
H       5.44621928      8.04749397      9.68441356
H       8.44160199      4.86646006      8.99444455
O       4.69042579      7.50059888      9.23131967
O       4.44397635      2.90452678      9.15870176
O      -0.30234546      2.99326671     10.04825379
H      -0.13940046      2.96937303     11.00773630
H      10.14144587      7.80159785     10.23007054
O       9.85336106      7.35854215      9.42029984
H       5.70782303      1.62429627     11.92253241
O       6.13941636      0.72657844     12.06681029
O       2.78184327      4.90033992     10.48743026
H       4.92776106      6.60072895      9.52581994
H       7.56034492      3.61176001      9.53287028
H       9.32317427      6.32718834     14.44293164
H       6.95353251      0.99682168     12.71520164
H      10.47782643      6.59500416      9.50155266
H       7.35536452      7.88879066     11.00993057
H       6.58103531     -0.33023644     11.07677312
O       6.80563271      8.51180329     10.49881611
O       9.93924171      6.35129115     15.26648197
H       2.78106260      4.18932797     11.18472275
H      11.45353544      1.71497440     12.98971210
H      10.81197611      5.98149003     14.96478704
H      10.70073499     10.04773294     14.45523214
H      11.49616376      7.55437344     11.76239137
H      10.03135320      2.26535424     12.68848033
O      -0.48740150      8.19867561     11.76375786
O      11.47972713      0.13490252     13.87448966
O      10.93516993      2.52828711     12.70371419
Cl      8.05833745      6.76133774     12.87782647
H       2.31219435      0.75633592      9.83109353
O      11.78210417      4.95593041     13.76851886
H      11.42660928      4.08739496     13.35977464
Cl      3.72730723      2.69527438     12.27962228
O       8.17694338      1.05423670     13.84831293
H      -1.17786743      7.62954415     12.22387756
O       3.22243431      0.54050465     10.10330186
H      12.05414924      5.50980495     12.97075836
H       7.64058280      1.59209078     14.46840052
H       8.49249821      0.30279937     14.36982031
H      10.95726394      9.29949043     13.09184088
H       9.35777204      8.01484072     15.86782397
O       5.70478358      0.94917348     16.32983690
H       5.32663775      0.32006093     15.68870929
H       2.09259146     -2.32335007     12.95384034
H       3.33704961      1.02128248     10.95744423
H       9.62307395      5.32264106     16.86643009
H       1.69139407     -0.09998627     18.24409419
H       4.99344963      1.54414405     16.62989101
H      13.74251236     -2.12723895     15.81739196
H       9.85145565      3.87830987     17.47074093
O       8.86667776     -0.77191244     15.86781622
H       8.05946298      8.63625519     16.39239905
O       1.90692460      0.27082305     17.31837849
O       1.67574462      6.90205459     12.10715582
O       9.79591725      4.86150378     17.70732062
H       2.76622456      0.78448103     17.39182005
H       9.58886439      7.19100883     20.27043087
O      13.91661695     -2.58903107     16.69734038
O       2.36006833     -1.62523001     14.18779849
O      10.06280668      7.21531955     19.39758235
H       1.62976408     -0.93813536     14.18362227
H       3.84654111      3.66524870     13.92259975
O       3.72218649      4.29496860     14.72816703
H       2.30139151      6.46388680     11.53274822
H      13.52605922     -1.90624718     17.29788184
H       6.26132456     -1.79311693     17.83753589
H       6.50155437     -0.20795059     17.55611792
H       3.24323988     -1.09897676     13.99388337
H       2.79041000      4.50952951     14.59351555
H       5.25749341      5.56035611     14.39422122
O       6.87925935     -0.99371032     18.02171856
H      10.13152672      6.34761573     18.90975967
H      11.77748786      4.40189704     17.38704346
H       8.95783239      2.36152988     21.65574640
O       5.71928441      6.39134967     14.61325598
O       8.97634962      2.15432981     20.64772418
O       4.73865950     -0.59211846     14.04822724
H      17.69489521      6.29434908     14.08018862
O      12.55594244      4.40695882     16.82652052
H       5.05517797     -0.05384251     13.23282518
H       8.48060442      2.94176440     20.24883133
H       5.02211895      8.12015132     14.03587717
H       9.72084871      1.23594261     16.82740419
H       5.58396849      6.16451223     16.53404777
H       7.43320446     -0.67363658     19.71430303
O      10.24653383      1.98405154     17.12313131
H      12.80154551      5.31584616     16.79395170
O       5.22027285      6.43030427     17.38146546
O       7.67119435     -0.39501559     20.58392093
H       8.11350520      0.47213963     20.51188806
H      11.19311863     11.36957788     16.95618507
O       3.47635389      2.74523131     16.89588510
H       4.28501000      6.55510942     17.12232342
H       3.40018769      3.09727967     21.02818562
H       7.02247496      4.07538096     19.13283329
O       9.08492216      7.57133466     22.05206999
H       3.67641937      3.18133314     16.04398075
H       4.69565313      3.39063141     20.06317667
O       4.39714756      2.96808772     20.88564346
H       8.41796929      6.82977647     22.08677935
H      12.66784747      4.19511964     22.10478710
H       8.45004138      4.66430766     18.59537433
H       8.49582491      8.26317527     21.62250457
H      13.69160708      3.01116226     17.08669120
O       7.84893154      4.43164444     19.46527366
O       0.47683388      2.03861045     20.03050615
O      13.03038055      3.32429571     21.85031824
H       1.60284464     -1.42665888     20.31290214
H      16.58005553      4.72295132     18.07049492
H       0.57022967      1.04959980     20.00546441
O       5.34739680      6.81423707     23.54883779
H      -0.47160461      2.14339173     20.16896256
H       5.88108215      6.73866205     24.36748379
O       1.10720374     -0.95448729     19.61949037
O      16.52548601      3.77382526     18.34985251
H      12.32632885      2.78178382     21.34827558
H       5.47973191     -1.92194058     23.29096451
H       6.40722408      5.77651849     22.28540422
H       5.53192323      1.48625027     21.30287396
H      15.65509055      3.34341348     17.94730937
O       7.29603842      5.25308030     22.02658950
H       0.23135109      8.16595515     19.45736302
H       2.73659337      8.49005075     22.70086388
H       7.43654329      5.42859454     21.05559296
O       5.72836380      0.75668406     21.93562524
O      10.41756774      9.78159538     24.55374639
O       2.20769075      7.69827256     22.31768868
O       6.76896595      2.34741198     24.34684296
H      11.76049405      4.13952619     24.74385083
H       6.42861538      0.23360789     21.54594424
H       2.56857392      6.86469985     22.69657974
H      10.73798412      8.82058170     24.21668527
H       5.85998301      2.90438193     23.94406768
H       7.65511155      2.85051333     24.21347393
H       4.78710920      3.28045114     22.31338177
H      11.17333059      0.70733088     24.24905555
H       2.68458000      5.26273470     24.43801522
O      11.18732043      7.50475675     23.66310112
H       0.84895394      7.69216123     23.03132848
O       2.95880095      5.41842768     23.49416462
O       4.79444359      3.28879089     23.35567840
O      11.33951237      4.48602107     23.94429976
O       1.40605871      1.44628914     23.84403082
O       8.79971897      3.39622540     23.40632579
H       7.32869139      0.74333079     24.04319570
H       4.56513399     10.19538293     22.94397392
H      12.76588934      2.22162371     23.20306814
H       8.37212934      4.18020941     22.96120632
H      10.41860873      7.42462730     23.01785704
H      11.31381812      5.45929772     24.04281265
H       4.29953288     -0.16198016     24.33224227
H       8.75880061      9.58366928     24.27932248
H       4.08700685      3.89819954     23.63784013
H       3.85578791      5.81797173     23.45155933
O       7.69723282      9.50029935     24.34906113
O       3.87438458     -0.02480719     23.42955592
H       2.20155653      0.84277274     23.70284366
H       9.65113606      3.71142538     23.73678217
Pt      2.16440734      9.55360866     26.89013587
Pt      5.10786471      9.46315429     26.67415930
Pt      7.75456244      9.33245729     26.57092071
Pt     10.58650647      9.40757870     26.74287210
Pt      7.84805330      4.58426917     26.78602037
Pt      3.61459475      7.12714779     26.81893696
Pt      9.37172829      6.96343764     26.75377242
Pt      6.36511773      6.95131632     26.69589817
Pt     10.79106208      4.60422256     26.83907260
Pt      1.03159714      7.08692396     26.68590795
Pt      9.27071274      2.25664684     26.99963018
Pt      6.39483524      2.16503750     26.57668510
Pt      2.36961631      4.70855683     26.85430189
Pt      5.09878038      4.63685783     26.77234604
Pt      0.91670249      2.18132640     26.81894147
Pt      3.72041033      2.28185260     26.67740291
H       7.96067749      1.40748984      9.42963158
