   242
 Tv_1:  11.152900   0.000000   0.000000 Tv_2:   0.000000   9.658700   0.000000 Tv_3:   0.000000   0.000000  26.829700
Pt      5.26434959      8.04623245      2.18040792
Pt      6.54659371      0.83432560      2.22603836
Pt     10.83949057      8.02586600      2.33858434
Pt      8.05674265      7.93920507      2.15452996
Pt      8.01916534      3.20173865      2.15453811
Pt      2.56699511      8.11010022      2.24952296
Pt      9.49342848      5.52862165      2.19697029
Pt      6.58524815      5.72530343      2.09336731
Pt      5.26214889      3.20463606      2.25750141
Pt      3.88645590      5.57861809      2.28481161
Pt      9.57013432      0.78386256      2.05653057
Pt      1.11917765      5.59508995      2.33266532
Pt      1.14273495      0.80025221      2.26552677
Pt      2.54812033      3.20576160      2.26294870
Pt      4.02478887      0.76283495      2.22126905
Pt     10.88763274      3.18361466      2.11366227
Pt      5.89371771      6.82812694      4.54204888
Pt      8.69942286      6.90386217      4.52180343
Pt      7.23278616      9.15374666      4.45562334
Pt      7.31300432      4.59102850      4.43517943
Pt      8.35929474      1.95106687      4.57057996
Pt      5.69508226      2.04089849      4.55057268
Pt      9.93620054      4.34881107      4.49907359
Pt     10.01199980      9.42713679      4.52944669
Pt      1.68194528      9.26229118      4.57088057
Pt      0.22811883      6.78665632      4.61678412
Pt      3.15188208      1.93688688      4.46394962
Pt      2.97378568      6.82948609      4.62452443
Pt      4.54914381      9.21894079      4.50171235
Pt      4.47451443      4.49977043      4.64955000
Pt      0.33322483      2.12268056      4.61351415
Pt      1.69744723      4.40962093      4.59480960
Pt      7.66515638      3.13602390      6.88517603
Pt     10.29578743      7.94066478      6.85370084
Pt      9.01715282      5.52541900      6.88939550
Pt      9.05395451      0.72486344      6.90862413
Pt      6.20197381      0.39090796      6.75740232
Pt      3.39570747      5.50128922      6.90318559
Pt      3.40674252      0.56693619      6.85748218
Pt      7.64183312      7.78439658      6.93886130
Pt      4.91062591      2.80938928      7.06659916
Pt      2.09844390      3.01663502      6.89835492
Pt      0.64478779      5.43480726      7.02426906
Pt     10.43639937      3.17183901      6.82986911
Pt      6.31701863      5.38234801      6.92951850
Pt      0.60252852      0.61967623      6.83987716
Pt      2.03105772      7.88635656      6.89596799
Pt      4.90512408      7.77720995      6.91595159
O       7.49745621      4.72284127     11.45646274
O       1.76360693      7.69296770      9.02577563
O       0.36720730      5.47570494      9.09305293
H       4.68662781      2.29961082     10.02943476
H       9.33110665      4.79725356     10.56916499
O       0.62547896      0.29214057      9.06642979
H       1.02471371      8.91172303      9.11059587
H       4.70387356      4.52602968      9.81043665
O       8.88631658      0.85471010      9.20491600
H      10.86032173      0.13321205      9.41917028
H       1.07245495      1.97048786      9.29712893
H       0.92857329      6.24839370      9.38171754
H       6.09149848      3.01894396      9.41061813
H       0.89519177      4.69698348      9.43760711
H       8.18030946      0.14957562      9.36791395
C       8.28854821      4.99200369     10.57596119
H       2.61524659      7.76555606      9.53588043
O       7.59584257      3.09580874      9.03086364
H       5.63090137      7.99744265      9.53901006
H       7.91024481      5.49555141      9.63538991
O       4.82903535      7.68836622      9.10389865
O       5.01961020      2.90871896      9.36451036
O       1.58457594      2.80889420      9.21545704
H       2.43668543      2.60968188      9.72919777
H      10.13278187      7.31834969     10.88656087
O       9.31256939      7.31228586     10.30582798
H       6.26097388      0.93977101     12.96372125
O       6.08412145     -0.03976403     12.79504676
O       4.27952987      5.39807277      9.98763612
H       4.65204955      6.81323952      9.49123153
H       7.84657365      3.98976830      9.40719140
H       8.12175098      5.73647430     14.44625692
H       6.49998726     -0.55087594     13.53424744
H       9.65649634      6.99203694      9.48123351
H       7.70062775      8.32374555     10.58284587
H       6.62248335     -0.46927508     11.31797925
O       6.94054785      8.93467762     10.40837914
O       8.38582101      4.78939169     14.51982608
H       4.04646090      5.29088989     10.92331420
H      10.06472101      1.38558500     12.49466654
H       8.08650804      4.52442140     13.61027464
H       9.61981335      9.02645356     13.50006845
H      12.38218807      7.20989032     11.82492590
H       8.98981454      2.49065928     12.79294292
O       0.24405878      7.02596212     11.85592453
O      10.29799593     -0.37850975     12.82729212
O       9.90506909      2.37222959     12.46730028
Cl      7.93749682      7.93819886     14.69179675
H       3.76033976      2.72541856     11.88640113
O      11.62988788      4.69943787     13.40389468
H      11.13246022      3.89462235     13.05260552
Cl      4.08835016      4.58813579     13.15335310
O       6.63698165      2.49891395     13.11795733
H       0.09971395      6.18636472     12.32557140
O       3.38315683      2.00722646     11.30598311
H      12.61190569      4.52253983     13.37230892
H       6.05719720      3.26015918     12.81997453
H       6.82872688      2.49868993     14.07388771
H      10.74253764      8.45554960     12.60701209
H       6.32508046     10.56038761     15.86325311
O       4.97194223      0.50733735     18.20232447
H       5.04033700      0.18596965     17.21618590
H       2.99072669     -1.56080702     12.26382040
H       3.29364070      1.19471818     11.81246342
H       7.85487130      5.58620353     17.04496048
H       1.23749435      0.83221815     17.95878425
H       5.06426129      1.49765156     18.28524556
H      11.65342466     -0.00165013     14.39006379
H       7.86002500      4.32985301     16.17094443
O       7.11247606      1.47412629     15.97630580
H       7.89275694     10.53507718     15.83225692
O       0.32610044      1.31920388     17.86559388
O       2.82759735      7.22863053     11.77043327
O       7.63447061      4.61323150     17.09355305
H       0.31683346      1.85436557     18.71377226
H       7.11159580      7.59221867     18.24494344
O      12.32123472      0.00420216     15.10781499
O       3.29112749     -0.23467935     13.04815237
O       7.95738151      7.41464744     17.76394219
H       2.82786971      0.12122803     13.84725754
H       0.07933612      3.01761514     16.65779732
O       0.39248605      3.92269298     16.25441334
H       3.11464094      6.61350678     12.48536774
H      12.03233893      0.62590885     15.78912137
H       4.83618056     -2.34300503     19.12401243
H       5.72772947     -1.12745012     19.69202057
H       4.31560180     -0.10370795     13.21338897
H      -0.30639998      4.20248856     15.61483968
H       2.05836662      4.33665025     16.08385616
O       5.78193077     -2.07383127     19.34244702
H       7.82281910      7.81418399     16.84547399
H       7.95837016      4.07758381     18.66511260
H       8.31743280      2.21672106     20.16796937
O       3.01937203      4.54414683     16.12635113
O       8.44922057      1.45485457     20.85169925
O       4.99512950     -0.93410168     15.79382630
H      14.57371291      4.27198836     15.26675676
O       8.17163191      3.97700064     19.62159642
H       5.66820999     -1.56948720     15.46665841
H       8.97995230      0.87186876     20.26418385
H       4.09515418      8.27752809     15.74742108
H      10.39693684      0.08847616     18.59075350
H       3.03032105      6.21257010     15.90642722
H       5.21721894      1.15215537     20.58794612
O       9.77321802     -0.52026369     19.02589508
H       8.16642736      4.82699301     20.17903090
O       2.81379007      7.24727228     15.91719759
O       5.69357349      0.35907772     20.92165430
H       6.67287106      0.66637992     20.92277264
H       9.12373621      8.65425960     18.44940351
O       0.75444912      5.18562162     18.97975990
H       2.03104180      7.35563956     15.34512895
H       0.16574497      2.67645047     20.94608704
H       4.22599478      3.53776749     17.24722808
O       7.81895393      6.66335465     20.87949126
H       0.40402206      4.91301428     18.13016716
H       0.73297011      3.57438549     19.79036101
O       0.69137758      2.61182323     20.12856993
H       7.62692306      6.69604952     21.82438542
H      10.15424633      3.63504261     22.91231289
H       5.82227242      3.89500636     17.23136915
H       6.93526926      6.93416845     20.47518945
H      11.27166989      5.94793116     19.32912894
O       5.10158553      3.43356858     17.70736372
O      -0.76826973     -2.73142796     20.12710417
O      10.47770251      2.76908023     22.49630931
H       3.27539923      0.25445862     18.14600701
H      13.72270079      7.60369945     19.19314089
H      -0.94933463     -1.76606144     19.79350902
O       6.43851001      7.06805190     24.25747785
H      -1.73428438     -2.99947160     20.25698445
H       7.23641428      7.68527131     24.12829063
O       2.43985588     -0.22177739     17.91883332
O      14.30250868      6.76577716     19.20655563
H       9.60494290      2.30940607     22.28402323
H       5.60809346     -2.07809274     23.75827163
H       4.76302380      5.30177973     20.37199286
H       2.62144434      2.19244393     20.33927315
H      13.54902683      6.04485964     19.16198950
O       4.81681926      4.33080096     20.20663389
H       2.66009406      8.72363626     17.30675611
H       2.23254790      7.05547950     24.25366884
H       4.94370975      4.17059579     19.24037559
O       3.46508647      2.24745589     20.82095924
O      10.49439454      9.32013699     24.39385636
O       2.29727151      6.81886822     23.31375193
O       6.24314418      1.72675335     24.20895214
H       9.03360214      4.84423354     24.31716372
H       3.80345700      3.15889214     20.53371910
H       2.88496645      6.04912074     23.25639513
H      10.81873717      8.47870907     23.90139707
H       5.33175591      1.46132360     23.90240661
H       6.45469336      2.58447651     23.78729065
H       3.35911780      1.91842252     22.42313978
H      11.22532091      0.35221734     24.27785902
H       4.55227534      4.42137114     24.49684804
O      10.69792567      7.09707515     22.91722892
H       0.44311361      6.69968807     22.98376568
O       4.13218988      4.64337203     23.63100919
O       3.45148948      1.92426987     23.39959244
O       9.34354020      4.95724525     23.38369820
O       0.89988111      1.64941362     24.25776644
O       6.47553056      4.04015955     22.47376990
H       7.47286353      0.24586086     23.88889931
H       4.94187791      8.94211369     22.35735646
H      11.56015450      2.15949085     23.65618161
H       6.48413217      3.81295028     21.56378278
H      10.60311979      7.27985557     21.91809542
H       9.86268427      5.76536186     23.37638747
H       3.76350397     -1.80305611     22.95493600
H       8.84612277      9.12434514     23.76429034
H       3.65195282      2.90691446     23.51832503
H       4.94970899      4.60758984     23.11461875
O       7.87359612      9.10067577     23.44918844
O       4.53997039     -1.22111580     23.11690281
H       1.94337678      1.67730922     24.05615986
H       7.33508358      4.48025734     22.59223104
Pt      2.14780832      9.19342040     26.78398344
Pt      4.71751572      9.24481967     26.60056922
Pt      7.65144805      9.42757277     26.63502414
Pt     10.43853864      9.37647448     26.53178865
Pt      7.77199291      4.52032300     26.68422717
Pt      3.44857770      6.84483832     26.73174507
Pt      9.11532589      7.06091964     26.75397453
Pt      6.28673822      6.90434998     26.42777782
Pt     10.53493857      4.58912423     26.50646850
Pt      0.65570367      6.87725810     26.91980838
Pt      8.96083328      2.18188810     26.60933387
Pt      6.21890131      2.09703551     26.53896928
Pt      2.15184442      4.53632867     26.70499096
Pt      4.81269972      4.52476661     26.67992327
Pt      0.57503404      2.08200225     26.53810183
Pt      3.54669058      2.04048816     26.78631228
H       8.45014141      1.81798300      9.32257025
