   242
 Tv_1:  11.152900   0.000000   0.000000 Tv_2:   0.000000   9.658700   0.000000 Tv_3:   0.000000   0.000000  26.829700
Pt      5.29880687      8.07709092      2.30810165
Pt      6.83918381      0.91344217      2.22951158
Pt     10.87762647      8.12560062      2.28148945
Pt      8.14320753      8.08334329      2.42539680
Pt      8.19238372      3.33656818      2.03152405
Pt      2.39869612      8.01621980      2.18109288
Pt      9.51892324      5.63689468      2.23863373
Pt      6.75217284      5.81404333      1.95463398
Pt      5.35746760      3.26769237      2.08305062
Pt      3.97215284      5.72923370      2.13241419
Pt      9.52344811      0.79157334      2.19707379
Pt      1.11215253      5.53544486      2.21281222
Pt      1.20869682      0.76590484      2.29732354
Pt      2.54173912      3.22385084      2.22028254
Pt      3.92787777      0.79118431      2.21862299
Pt     10.88380136      3.12301030      2.17483592
Pt      5.56203650      6.75004449      4.52531943
Pt      8.35008230      6.66985126      4.64877804
Pt      7.11557769      9.17264056      4.55260579
Pt      7.21095000      4.32995222      4.26818262
Pt      8.39066173      1.85201021      4.48303169
Pt      5.68784783      1.96185118      4.53927921
Pt      9.91971709      4.19636649      4.45588981
Pt      9.87483620      8.92454626      4.65697338
Pt      1.39961194      9.12431808      4.63017136
Pt      0.16022003      6.47072904      4.58407446
Pt      2.87639938      1.88024391      4.60847095
Pt      2.81447648      6.65932115      4.51237946
Pt      4.17107317      9.18226064      4.56847954
Pt      4.35663724      4.24207718      4.50617186
Pt     -0.09545329      1.76627585      4.49359018
Pt      1.42870044      4.14990191      4.55070624
Pt      7.53622228      3.03999654      6.80271297
Pt     10.00217090      7.72683785      7.13294261
Pt      8.75432274      5.39629855      6.94315543
Pt      8.70315243      0.61997573      6.96914400
Pt      5.88458291      0.42889255      6.81637181
Pt      3.19103194      5.41296096      6.78437499
Pt      3.25646689      0.47336021      6.89792168
Pt      7.38333174      7.81430171      7.05695829
Pt      4.73784326      2.80133986      6.97977378
Pt      1.72961236      2.97111237      6.98122006
Pt      0.50440439      5.37235692      7.00268311
Pt     10.09129797      2.96506547      6.87509340
Pt      5.86995725      5.28289686      6.79137167
Pt      0.43063360      0.54563015      6.95969610
Pt      1.69212723      7.62891863      6.94274437
Pt      4.62050760      7.70630121      6.84054484
O       6.41138572      6.24503751     10.17655881
O       1.82951153      7.98184805      9.12695990
O       0.37603732      5.28612230      9.33125189
H       4.60807576      2.17028878      9.30047477
H       7.77200184      7.57970572      9.50344810
O       0.73012423      0.58798904      9.02818595
H       1.53119701      8.90241129      9.23410641
H       3.43803463      4.69669880     10.07286719
O       8.75771073      0.88288690      9.18632827
H      11.03631977      0.67026016      9.55952614
H       1.38925072      1.86456298      9.32244404
H       1.31909419      5.26245918      9.52896767
H       5.82937590      3.53485229      9.29085559
H       0.00708448      4.51580828      9.80060973
H       8.30115940      0.40392438      9.97067859
C       7.53839557      6.53529239      9.70647893
H       2.81573053      7.93554694      9.22207414
O       6.82468358      3.71065438      9.62449182
H       4.81234156      8.64958402      9.40276206
H       8.26933607      5.71665356      9.57857176
O       4.56508962      7.71636681      9.07275422
O       4.41705656      3.09925606      9.00832234
O       1.85500827      2.77704417      9.09757234
H       2.84866709      2.77538186      9.11962984
H      10.28939131      8.41331533      9.89907419
O      10.02827272      7.61557360      9.39239492
H       6.35374178      2.64404491     12.53899239
O       6.21406380      2.21394382     11.63345813
O       2.87614210      5.47132261     10.25798224
H       5.14671595      7.08860203      9.50990043
H       6.74204400      4.74844531      9.82226922
H       8.03541126      6.18745770     14.24905342
H       6.49202562      2.91330909     10.92088485
H      10.69556931      6.98254926      9.51826555
H       7.60117583      9.27691419     12.20260687
H       7.17072180      0.93705646     11.46635319
O       7.88021035      9.91645493     11.45575638
O       8.68201105      5.36733557     14.34777892
H       2.89851229      5.79579311     11.20764676
H      10.35550620      2.87830252     11.33314603
H       8.17690744      4.50026899     14.22440751
H       9.13662993     11.05689229     12.83542461
H      12.00502457      8.86110739     11.86859467
H      10.64179560      4.42568332     11.53708011
O      -0.09907254      8.59211582     11.71835346
O      10.06546636      1.36347095     12.64804478
O      10.34290218      3.73275654     10.84523793
Cl      7.30101710      7.97032561     13.93962684
H       5.10885864      1.02356560     10.75830562
O      10.80721707      5.78240404     12.22936036
H      10.06648122      5.73932198     13.05611051
Cl      2.53510918      6.38072428     13.06317729
O       6.87208990      3.13119990     14.04333990
H      -0.17881240      7.61511237     11.88130723
O       4.52574132      0.60432492     10.06920530
H      11.71086091      5.80647014     12.68352686
H       6.04928127      3.49838048     14.44756800
H       7.01389161      2.33265627     14.63554801
H      10.17799819     10.09248646     12.38829697
H       7.28737513      9.85401909     15.17044705
O       4.96812933      0.34718856     17.66505705
H       4.44674725     -0.07073290     16.95377900
H       2.85222213      0.27204887     12.59600397
H       3.66973526      0.35853700     10.55964112
H       7.79312531      5.93261387     17.40801805
H       0.73377723      0.85207573     18.16534345
H       5.66738643      0.85872595     17.28469073
H      11.30479225      1.63604833     14.11509394
H       8.69573960      4.77626268     16.85999056
O       7.01778326      0.92613148     15.81860210
H       7.63040288     10.44686127     16.55135181
O       0.13435244      1.42629814     17.60135517
O       2.58495585      9.37062963     11.84232839
O       8.07505344      4.99821668     17.63262613
H       0.16274700      2.40028591     18.05990200
H       6.95630626      7.76710319     17.84514308
O      11.88611702      2.02124732     14.79269546
O       3.17676788      1.40363812     13.96636630
O       7.59545454      7.50726469     17.10852621
H       2.21087314      1.45572415     14.39967331
H       0.11637596      3.77198917     15.62542400
O      -0.13315897      4.69977367     15.86081436
H       2.97938270      8.47783503     12.16901320
H      11.52240050      1.63514747     15.62141731
H       5.16155265     -2.30405892     19.20230723
H       5.43726878     -0.82660132     18.57725295
H       3.54404045      0.57412273     14.33497480
H      -0.89683617      4.83587586     15.30512786
H       3.83818171      3.06354084     14.30490226
O       5.88518858     -1.65607221     19.01892807
H       7.06391923      7.55818622     16.25237620
H       8.48306232      4.34728421     19.21066024
H       7.45831229      2.26636085     19.94335288
O       4.38194219      3.78083413     14.74379967
O       7.37429325      1.32879406     20.28139906
O       3.47227910     -0.90368629     15.55450640
H      15.04610017      4.57046118     14.54702309
O       8.37068166      3.78699062     20.03595045
H       3.69678332     -1.72685580     15.14911342
H       7.83881582      0.82241550     19.56755423
H       2.52101010      8.60752448     15.69962613
H       9.71905693      0.71099283     18.05912752
H       0.73207730      7.27358818     15.16915837
H       4.15119534      1.18880892     20.53286612
O       8.78149831      0.34019241     18.13056316
H       7.85688073      4.23152527     20.71547057
O       0.59579749      8.15502706     15.46553495
O       4.76790951      0.81079445     21.17791696
H       5.60290445      0.95656733     20.66943318
H       8.89045390      9.03810884     17.97644296
O       0.80391216      6.01746809     18.19872038
H       0.06048984      8.03446656     16.27173968
H      -0.84235514      3.76307910     19.80612054
H       5.30065167      3.51904110     16.89007557
O       7.45679212      7.90489215     21.22021971
H       0.49197971      5.67215759     17.29767270
H       0.34052806      4.39960046     18.99489395
O      -0.01382672      3.52531381     19.20638321
H       6.92104698      8.17472893     20.42709481
H       9.35920274      4.23926241     23.26023610
H       6.54427786      3.95976965     17.52890745
H       7.48746939      8.73073117     21.79619331
H      11.10460486      6.26506759     18.58195743
O       5.75362269      3.37049775     17.72536437
O      -0.87875625     -2.25441450     20.38122050
O       9.38753337      3.17496052     23.20946665
H       1.66937267      0.42016588     20.15353452
H      14.00795189      6.95336668     20.46455989
H      -0.54540970     -1.37384666     20.05266286
O       6.53782143      7.51258784     24.21608752
H      -1.82695897     -2.12520007     20.56844569
H       7.31180600      8.13836296     24.02088621
O       1.35378356     -0.25572777     19.53611596
O      14.18054723      7.19742404     19.45815306
H       8.97449810      2.93885776     22.41246949
H       5.77928677     -1.53500992     23.90530228
H       4.44668178      4.62988683     19.98117593
H       1.89819008      2.19735145     21.94050144
H      13.66051483      6.59950989     18.91449202
O       5.31779962      4.20157904     20.19630128
H       2.10994559      8.78608159     19.43569179
H       2.99116291      7.61020702     22.51944284
H       5.58730036      3.64336382     19.35714097
O       1.96992918      2.19230603     20.93008389
O      10.81139519      9.76534486     24.17019509
O       2.44756990      6.88294681     22.24041519
O       6.76925472      2.17432045     24.47321657
H       9.01406492      5.92085709     24.35831277
H       1.19806117      2.67450667     20.58897539
H       2.98148464      6.11113271     22.66420448
H      11.05812028      8.86600188     23.71661374
H       5.86825834      2.26936399     23.95492498
H       7.45213943      2.76479022     24.13847192
H       4.41249895      2.10227431     22.39574081
H      11.43838234      0.86320650     23.86183955
H       4.13182010      5.74643765     24.17072688
O      11.21698531      7.52875191     22.94399974
H       1.02907783      7.22656657     22.76143514
O       4.20374915      5.14857786     23.39195036
O       4.33712934      2.38445475     23.33115067
O       9.31607861      5.85229423     23.40368008
O       0.79882603      2.29107930     23.57312303
O       6.48763951      5.01285572     22.36857713
H       7.71593086      0.59445610     23.89288248
H       4.51846251      9.27312601     22.33386558
H      11.05867816      2.80988327     23.46358248
H       6.11178856      4.92781132     21.50348403
H      10.79458146      7.62825482     21.98122235
H      10.07994204      6.51044919     23.34783758
H       4.01916237      0.00887349     23.71552806
H       9.08289423      9.63451143     23.83449638
H       3.99508206      3.27476616     23.45967544
H       5.18486875      5.22718174     23.07158732
O       8.14995654      9.43961466     23.66821508
O       4.32348330     -0.78926512     23.22610743
H       1.21223079      2.55492810     24.38167350
H       7.10209094      5.79687964     22.16167496
Pt      2.49145524      9.45977352     26.68381047
Pt      5.22840174      9.37230135     26.88626453
Pt      8.01418180      9.23002994     26.91340871
Pt     10.67672609      9.40997257     26.61887762
Pt      8.05564104      4.60023993     26.51234791
Pt      3.69118335      7.00519029     26.40440871
Pt      9.28644777      6.95302597     26.64221784
Pt      6.56371465      6.92911386     26.33926412
Pt     10.70853649      4.45125696     26.48830704
Pt      0.82724113      6.92289934     26.74372484
Pt      9.32267330      2.07332449     26.68599372
Pt      6.65992867      2.22486930     26.56453897
Pt      2.40852373      4.60850163     26.59335157
Pt      5.06039150      4.61597592     26.68095930
Pt      1.09252029      2.20439037     26.78999840
Pt      3.91896247      2.24528922     26.58650340
H       8.48457491      1.84922203      9.15340833
