   242
 Tv_1:  11.152900   0.000000   0.000000 Tv_2:   0.000000   9.658700   0.000000 Tv_3:   0.000000   0.000000  26.829700
Pt      5.32325105      8.08037106      2.11935969
Pt      6.85996703      0.73596522      2.11425659
Pt     10.91915031      8.09893953      2.15896380
Pt      8.19723918      8.08852821      2.16758452
Pt      8.23917898      3.24012063      2.19375122
Pt      2.47748091      8.09386482      2.10852804
Pt      9.53989377      5.70990795      2.26178620
Pt      6.75385698      5.74165010      2.17835987
Pt      5.43059071      3.14249242      2.09170645
Pt      3.89441274      5.64759758      2.04644433
Pt      9.55015958      0.78906093      2.16571126
Pt      1.12516216      5.75999985      2.22229268
Pt      1.16718162      0.81032862      2.23809848
Pt      2.60667705      3.19444042      2.11980589
Pt      3.91561678      0.79999241      2.02793599
Pt     11.00475409      3.25950289      2.24626614
Pt      5.53395441      6.74072821      4.43517651
Pt      8.32196152      6.60222751      4.49928828
Pt      7.06405608      9.04191114      4.44405416
Pt      6.86021006      4.20495737      4.42513463
Pt      8.32001165      1.80194230      4.43307071
Pt      5.64517396      1.85893122      4.48457557
Pt      9.74091740      4.20130308      4.46788547
Pt      9.83808990      9.00188112      4.46542347
Pt      1.45177326      9.18019376      4.50471589
Pt      0.07764846      6.65584086      4.57752709
Pt      2.85731557      1.84302497      4.43970071
Pt      2.77501583      6.90167640      4.50856493
Pt      4.34477441      9.17537614      4.35192482
Pt      4.12367685      4.26890847      4.35090735
Pt     -0.01023264      1.77049347      4.48275181
Pt      1.37572660      4.25469504      4.36434896
Pt      7.21476579      2.78321834      6.80858330
Pt     10.02400499      7.60524510      6.92009678
Pt      8.57772590      5.23776548      6.94486424
Pt      8.56011082      0.32638303      6.85519751
Pt      5.77383128      0.28860890      6.63211111
Pt      3.13960491      5.15262185      6.63350812
Pt      2.95465974      0.42939710      6.77641808
Pt      7.27157669      7.51901715      6.85505425
Pt      4.52829143      2.70598467      6.84698489
Pt      1.58473711      2.82834468      6.70657763
Pt      0.30690445      5.15667190      6.86835326
Pt      9.87666846      2.88672838      6.81292261
Pt      5.80932780      5.20076441      6.76874160
Pt      0.19511143      0.55428925      6.86057039
Pt      1.67846536      7.67639846      6.76187178
Pt      4.65039759      7.57468911      6.95902463
O       6.89287998      4.79488640     10.21474509
O       1.56357819      7.81286290      8.94968891
O       0.19921079      5.38217811      8.95485627
H       3.96980923      1.70977142      9.43076539
H       8.13506568      6.24795522     10.92384115
O       0.11359991      0.39549076      9.13914193
H       1.12498371      8.68934319      9.25268409
H       4.18633821      4.61952361      9.64224314
O       8.58787351      0.43023699      9.01886096
H      10.15730883      0.37088748      9.19381422
H       0.42591443      1.30107147      9.49012215
H       1.09236364      5.77232442      9.10049900
H       5.38720345      2.43778234      9.39591186
H       0.49127161      3.80222141      9.43966808
H       7.92872642     -0.31014001      9.26299534
C       8.01166064      5.25852000     10.44185965
H       2.55380761      7.86993065      9.15269175
O       7.06077687      2.57076512      9.02703568
H       4.90724432      7.88072305      9.67369814
H       8.98165684      4.76115170     10.04222142
O       4.23778757      7.49792947      9.12902774
O       4.42577875      2.60637919      9.20642905
O       0.72541243      2.87810433      9.93760688
H       1.25089637      3.17513776     10.71959309
H       9.63034003      7.72041450      9.99055790
O       9.56913268      7.13376119      9.21404394
H       5.71512538      2.19117446     12.20984956
O       6.11135434      1.69853825     11.46208296
O       4.09998869      5.34055754     10.27494814
H       4.19254938      6.58018033      9.69760843
H       6.98237010      3.53045584      9.43925068
H       6.98807865      5.49219519     13.69241393
H       7.05615583      1.92463716     11.39501461
H      10.28810805      6.43602276      9.22142397
H       5.87969130      8.12497348     11.69569649
H       6.11039744     -0.00462191     11.18312258
O       5.94259114      8.72517846     10.86140245
O       7.26167592      4.52882468     13.92820138
H       3.75006570      5.10741710     11.14432100
H       9.61634848      2.65290755     11.34737323
H       7.90808887      4.32640165     13.14941929
H       7.85740349      9.55022733     13.91641723
H      10.58922762      8.38935712     11.60852839
H       9.13010898      1.93025300     12.74514572
O      -1.51231353      8.12710692     11.63746086
O       8.73200875      0.19151315     13.68925925
O       8.83921099      2.34074936     11.88793265
Cl      5.82239826      7.39016847     13.77531082
H       4.23144863      0.12598650     10.48282911
O       9.87382318      5.81637415     12.95446902
H       9.68010795      5.99933719     13.94281640
Cl      1.58755331      5.12919305     12.15379528
O       5.34424125      2.64047389     13.98441676
H      -1.45401077      7.17410929     12.09685452
O       3.32258857      0.44165100     10.21433650
H      10.84576771      5.65459228     12.85423771
H       4.40954855      2.78333962     14.22917365
H       5.92815177      3.37099848     14.24965620
H       9.01518872      9.10989227     12.97153454
H       5.85504930      9.27853330     14.73289649
O       4.26716121      1.01302872     17.17450440
H       4.99547021      0.85423691     16.46108693
H       1.41997253     -0.81776158     12.55315440
H       2.66809374      0.06532245     10.87930899
H       6.10902327      5.37390728     17.08618677
H       0.12008321      0.77137032     18.20188302
H       4.54362488      1.74862160     17.72150865
H       9.80448485      0.14601896     14.87459286
H       6.69697736      3.95396647     16.80837895
O       6.03371539      0.50137821     15.15554566
H       5.81030111     10.93522031     14.55777164
O      -0.67325731      1.29764329     17.86509824
O       1.36903155      8.33787103     11.71985724
O       5.89827354      4.40148571     17.25855450
H      -0.30271719      2.25007971     17.76153115
H       6.21148142      7.62759870     17.42014856
O      10.50296944     -0.09455877     15.55401149
O       1.58410961      0.09213072     14.03152563
O       6.60198138      6.90296593     16.80056848
H       0.73877566     -0.00776603     14.55658760
H      -2.48629743      3.73915040     16.68577165
O      -3.16528740      3.28744297     16.14908636
H       1.53467006      7.38143864     11.93231454
H      10.45617745      0.66792707     16.26091378
H       3.95859917     -1.82827880     17.67137604
H       4.56504040     -0.47555140     18.12331598
H       2.28151874     -0.53879905     14.38674104
H      -3.27863390      3.95597283     15.39376600
H       2.32659358      1.58935590     14.39025974
O       4.64527337     -1.47729684     18.23841660
H       6.24702333      7.20350941     15.92922452
H       7.28675113      5.15398797     18.80146386
H       5.67449753      2.62239412     19.95945697
O       2.70898431      2.53444807     14.57954091
O       5.98360640      1.71329810     20.05491481
O       3.02181363     -1.74723505     15.43555100
H      13.31686999      3.20009908     14.06029455
O       7.46504501      5.52309690     19.68851631
H       3.63733417     -2.43918608     15.06094839
H       6.62849127      1.58956512     19.23335180
H       2.27752223      7.34356123     15.65600688
H       8.60228510      0.98887443     18.17378890
H       0.95779836      5.46701639     15.38910493
H       4.68269300     -0.93670205     20.36254406
O       7.64247115      0.75972198     18.05159988
H       7.54518799      6.52451591     19.68173178
O       1.41051469      5.50205929     16.25167306
O       5.37821443     -0.63479974     21.06449217
H       5.52320834      0.29008306     20.87471516
H       7.56527960     10.69541581     17.07669296
O      -1.73672767      6.81277554     15.49017219
H       2.08223101      4.74932204     16.40217721
H      -0.62601977      4.31303245     18.61056614
H       3.30270696      2.88149039     16.44187400
O       7.83523838      8.17492105     19.65699091
H      -2.51348083      6.91424926     16.13443226
H      -0.25087449      4.69465655     17.12853340
O      -0.79577359      4.01855387     17.63159282
H       7.86620959      8.95382203     19.00916365
H       9.76523717      4.37989214     23.01361883
H       4.31513377      3.99208786     16.97064576
H       7.19351868      8.63844945     20.29114717
H       9.78863784      7.76056195     15.54024709
O       3.35726734      3.70445731     17.04706054
O      -0.41820032     -1.96351384     20.23293229
O       9.98581293      3.47838497     22.46061018
H       1.67417519      0.79530910     19.73440889
H      10.61308133      4.47293498     21.06782554
H       0.28805892     -1.54813819     19.67597101
O       6.77076328      7.07859301     24.16017148
H      -1.31237333     -1.60756377     19.97467115
H       7.37395997      7.83542646     23.98250989
O       1.46555396      0.10668384     19.02816062
O      11.06124228      4.79718325     20.22885025
H       9.14694001      2.93702802     22.34626942
H       5.84543536     -2.39835525     23.93987096
H       1.95107430      4.66835505     20.17641162
H       2.10498079      2.04104497     21.47574991
H      10.71659639      5.70989778     20.02772587
O       2.82505914      4.35153285     19.73299284
H       2.28528016      9.66487212     18.55253421
H       3.03583403      6.47741932     23.28720028
H       2.51951980      4.34294670     18.73433337
O       2.51006666      1.90857973     20.62704362
O      10.87344380      9.57763615     24.32117489
O       2.29993600      5.81798593     23.22561291
O       7.54675064      2.00957218     22.37719791
H       9.33014984      5.70119274     24.54282378
H       2.65253895      2.80541877     20.14322064
H       2.18520313      5.57022637     24.20111955
H      11.28169887      8.76064101     23.91008268
H       7.03095065      1.99882762     21.56088286
H       7.05606817      2.44724059     23.04330183
H       3.22978434      2.83067410     24.15214377
H      11.30272027      0.77377727     23.74312694
H       6.60274753      4.69597046     23.84691570
O      11.37878823      7.45443910     22.86576091
H       0.95960341      6.74943237     22.84222875
O       5.99520799      4.02884541     23.55031872
O       4.03399145      2.37729079     24.37598623
O       9.30890594      5.75935291     23.51437170
O       0.85146239      2.13029859     23.32898119
O       5.38514501      4.41889518     20.85426926
H       7.93991203      0.31709062     23.49587514
H       4.79357230      8.39361765     22.57331532
H      11.31100996      2.70373450     22.94044852
H       4.50857016      4.65638386     20.47235849
H      11.11285720      7.65618444     21.89334649
H       9.94643364      6.49031857     23.38126986
H       4.07293414     -0.90824125     23.98541879
H       9.29159135      9.36129888     24.15413144
H       4.76220326      3.02603342     24.25450594
H       5.69253603      4.22863560     22.54232461
O       8.30821054      9.35932237     24.22940339
O       4.24643209     -1.65848816     23.34153879
H       1.06311015      2.49605394     24.20139508
H       6.15172161      4.90764493     20.39965114
Pt      2.34626394      9.61435487     26.67087343
Pt      5.27795719      9.43742246     26.67949058
Pt      8.05162121      9.50932342     26.50435975
Pt     10.74687547      9.61964243     26.58350787
Pt      8.02855100      4.64233216     26.65483472
Pt      3.81376082      7.23339847     26.48288413
Pt      9.31381518      7.13879067     26.71050165
Pt      6.57153662      6.97867123     26.50694641
Pt     10.75508078      4.88913821     26.62827105
Pt      1.05426100      7.23164633     26.64362081
Pt      9.46748971      2.34584659     26.58581731
Pt      6.69788780      2.32931865     26.69133440
Pt      2.29389097      4.78261488     26.53097286
Pt      5.24590454      4.67842623     26.52922179
Pt      1.08038825      2.41919682     26.73875634
Pt      3.80995288      2.41493335     26.61388057
H       7.77607695      1.90058399      9.28618799
