   242
 Tv_1:  11.152900   0.000000   0.000000 Tv_2:   0.000000   9.658700   0.000000 Tv_3:   0.000000   0.000000  26.829700
Pt      5.30241116      8.07930543      2.03132023
Pt      6.66524197      0.96062905      2.07757195
Pt     10.78562465      8.14422148      2.20135056
Pt      8.10845437      8.03079001      2.06811772
Pt      7.99748600      3.27755083      2.07638410
Pt      2.50047494      8.20711798      2.05487795
Pt      9.39736608      5.60830026      2.25963551
Pt      6.63365619      5.58341011      2.12369046
Pt      5.18403184      3.27774751      2.20211829
Pt      3.85536835      5.76928535      2.03061709
Pt      9.45029985      0.95641443      2.14248046
Pt      0.92891092      5.79624207      2.22092362
Pt      1.05091428      0.91672868      2.06825809
Pt      2.57177080      3.47598369      2.28810907
Pt      3.87543892      0.92306394      2.06601317
Pt     10.97826107      3.29043837      2.23536840
Pt      5.68650778      6.71850030      4.37782569
Pt      8.43058172      6.77827122      4.49886780
Pt      7.00662567      9.15923410      4.27401741
Pt      7.18797269      4.37333534      4.45907387
Pt      8.36887930      1.92112092      4.45518601
Pt      5.64966727      1.97446787      4.51547330
Pt      9.89274469      4.36894295      4.49105282
Pt      9.78752391      9.27543115      4.48591826
Pt      1.50026781      9.10518033      4.37782830
Pt      0.06725281      6.82223977      4.57677171
Pt      2.95218263      1.92433634      4.39280816
Pt      2.88612300      6.75320860      4.39051157
Pt      4.28543227      9.11683999      4.42582049
Pt      4.24174823      4.34685642      4.54474059
Pt      0.29647318      1.89557771      4.50370470
Pt      1.35722691      4.40385350      4.57516179
Pt      7.42834836      3.01078596      6.76228216
Pt     10.17909342      7.67355011      6.89996809
Pt      8.76762858      5.32011779      6.86683745
Pt      8.87200049      0.41925094      6.81088976
Pt      6.09866989      0.39893606      6.68882710
Pt      3.14919103      5.30671760      6.77165022
Pt      3.35291413      0.56448404      6.71972481
Pt      7.40682795      7.63798396      6.70425085
Pt      4.66066326      3.02855857      6.89293380
Pt      1.98661895      2.88424005      6.68279406
Pt      0.36697579      5.25672601      6.92755309
Pt     10.21989261      2.89213295      6.69691517
Pt      5.98085613      5.40905992      6.65868204
Pt      0.51291728      0.52802370      6.79387285
Pt      2.01416587      7.82259682      6.78015411
Pt      4.59740366      7.70508681      6.79087184
O       8.22372707      5.30817364      9.90605281
O       2.35452841      7.99702443      9.15920442
O       0.12342774      5.52102578      9.11609723
H       4.66927650      1.90053327      9.44582654
H       9.12199297      6.34989598     11.32396596
O       0.06475364      0.56477871      9.04954670
H       2.35486469      8.95088064      9.28434908
H       4.00930166      4.09522195      9.90477444
O       8.47178324      0.69186843      8.92226488
H      10.23056929      0.49519710      9.01750552
H       0.23249867      1.55282765      9.34572185
H       0.99636200      5.90587216      9.35123083
H       6.15431715      2.96876622      9.12293436
H       0.27678120      3.73732061      9.75129696
H       7.85032256     -0.05126929      9.27173494
C       9.00219969      5.37831714     10.86697920
H       3.29744169      7.74879607      9.29833005
O       7.43863891      2.99199398      8.87446663
H       5.77120713      7.42012358      9.51133941
H       9.64760002      4.57296778     11.26835399
O       4.80558294      7.15103310      9.29646623
O       5.01032302      2.80899783      9.08898461
O       0.27514740      2.81917708     10.20450113
H       0.77323627      3.05143763     11.04622501
H      10.60266299      8.13777256      9.51842748
O       9.90714476      7.56132228      9.09717076
H       6.44523065     -0.56492517     12.62128215
O       6.76035521      0.15892539     11.98077926
O       4.03894502      4.88211894     10.50175484
H       4.57937782      6.27386104      9.65028496
H       7.86753408      3.79120267      9.30045901
H       4.54345591      5.98814349     13.81746252
H       7.65572317      0.42378415     12.32190317
H      10.34397669      6.52921989      9.23762165
H       8.12816795      7.82837312      9.59842463
H       7.47839553     -1.01354974     10.73250842
O       7.29779677      8.24124533      9.86025621
O       4.03042566      5.24355740     14.26036686
H       3.17507185      4.80755601     11.01150533
H       9.95240180      0.33948026     12.44303950
H       3.26536879      5.03549290     13.68039243
H       8.15141466      9.58130080     15.78460317
H      11.80115694      9.37641153     11.27813697
H       9.65373905      1.71040240     13.15810751
O      -0.22591494      8.96048906     11.37943395
O       9.02169383     -0.25761980     15.42810661
O       9.19900629      0.86469563     12.86572090
Cl      5.86928411      7.51542194     13.60446302
H       4.91927058      0.20754329     10.50412054
O      10.25846965      2.93416713     14.31665640
H      10.56527936      2.54280935     15.20671333
Cl      1.66976588      3.95693868     12.64452357
O       6.91809646      3.70512893     12.63918997
H      -0.04717812      8.12884221     11.86925969
O       4.06367407      0.65115169     10.19672054
H      11.01926723      3.25707836     13.76886738
H       6.12423510      4.12748281     12.24987016
H       6.60901805      2.77532806     12.67371523
H       9.09227583      9.69842030     14.44295246
H       6.26202621      9.43542876     16.81966425
O       3.37325113      0.92665448     18.71932188
H       3.14800995      0.40716653     17.90607300
H       2.11927239      1.44485318     12.61609945
H       3.47632748      0.65928188     11.06007259
H       6.73608216      3.51718406     15.69706945
H       0.18107963      2.27839480     19.49863054
H       3.45372327      1.84075597     18.31889389
H      10.13665657      0.87158684     16.37134055
H       5.27854649      3.72284621     14.99407462
O       6.73840263      0.62793354     16.49344219
H       6.06557028     10.99465758     16.40676850
O      -0.43259083      2.78565084     18.84767508
O       2.22327653     10.22934726     12.06836386
O       5.76546398      3.37399235     15.78815815
H      -0.28837667      3.77177774     18.98301762
H       5.03598219      7.37898229     17.13628967
O      10.87432269      1.56562946     16.42022297
O       1.79922158     -0.22650004     16.43967072
O       5.85581131      7.90386997     16.81050900
H       1.17700137      0.55476295     16.19428206
H      -2.15338672      4.00110765     14.67936013
O      -2.96808405      4.52067689     14.89765191
H       2.44927455      9.51933225     12.72610491
H      10.81310007      1.96214092     17.35414907
H       4.03952341     -2.78218873     19.84457325
H       3.72799192     -1.58088991     20.88817800
H       2.18739010     -0.40225140     15.52200110
H      -3.50598915      4.46688322     14.08428104
H       3.70725172      5.89098311     15.87710267
O       3.30855551     -2.22772548     20.20511924
H       5.80315138      7.75106182     15.82440738
H       7.32393320      6.87872145     17.85851335
H       6.39496347      3.58221415     20.38551877
O       3.34812499      6.14589484     16.75336710
O       6.55669362      2.65586102     20.74663498
O       2.60942219     -1.25560506     14.05367916
H      13.52273987      6.28025474     16.77282708
O       7.83926226      6.66405939     18.61449403
H       3.53718736     -1.53380310     13.98024747
H       7.18496828      2.25308795     20.01321499
H       1.97343791      7.64215215     13.81655221
H       9.18924563      2.07356328     19.00261602
H       0.92376236      5.87912819     13.05049271
H       4.41307811      0.50017643     20.43106689
O       8.36154327      1.49740490     18.98420539
H       7.85388476      7.52843519     19.09517713
O       0.65352403      6.76700702     13.40171903
O       4.86667800      0.32301714     21.33197016
H       5.58416862      0.99714202     21.24214916
H       8.07826497     11.04927898     18.03427060
O      -1.34137116      6.86918465     15.32727986
H      -0.01923748      6.71411006     14.19787388
H      -0.25058207      5.94683183     18.26026952
H       3.66855790      4.68100312     17.46083226
O       7.66418077      8.87717760     20.19907293
H      -2.09668871      6.25334842     15.09901879
H      -1.69896121      5.71462383     18.92019867
O      -0.70135370      5.62401361     19.05277063
H       8.15402188      9.66113921     19.90722437
H       8.43701642      4.10625091     23.19880001
H       4.74235508      3.61449127     17.14954320
H       8.12889196      8.58079033     21.04646187
H       9.40756232      7.80997712     15.20515304
O       4.18013416      3.89338332     17.92776345
O       0.24682870     -0.89413473     20.80664630
O       8.36987553      3.18832974     22.92050542
H       1.66255754      2.02983154     21.01167487
H      12.11601484      7.89611292     16.95369785
H       0.75001904     -0.02121209     20.75348769
O       6.79573278      7.00949198     24.19632235
H       0.21312480     -1.22460967     19.88188499
H       7.66027761      6.52165822     24.36232129
O       1.28701176      1.46579090     20.23966640
O      11.83172355      6.97482556     17.00989898
H       7.75900679      3.06085366     22.14262169
H       7.13877657     -1.81163123     23.81438154
H       0.67325344      5.73016940     20.20522512
H       1.20901923      3.01665599     22.70889069
H      11.05139491      6.92312289     16.37620117
O       1.35385366      5.57624968     20.93783284
H       2.04492553     10.90269577     19.62293551
H       3.45269111      8.26819593     23.84215085
H       1.92835248      6.33480229     20.79117746
O       2.01820404      3.20686967     22.08213493
O      10.51973634      9.50324045     24.41292938
O       3.22635824      7.25777309     24.00947617
O       6.36394459      1.99258267     24.35657549
H       9.80449310      5.40105689     24.59527654
H       1.88145282      4.04079520     21.56039946
H       3.89568358      6.66021710     23.46161007
H      11.04923948      8.73438376     23.92492757
H       5.54510676      2.51810294     23.99028002
H       7.23252930      2.38184776     23.99388070
H       3.48398209      3.37661942     22.93651683
H      10.97922954      0.64279678     24.10233088
H       5.97949002      6.20547326     22.89907603
O      11.66369648      7.68588410     23.19850966
H       1.39449774      7.33792523     23.43497319
O       5.06995367      6.04413073     22.53840982
O       4.17078054      3.33063690     23.69403912
O       9.22624264      5.68320035     23.80845950
O      -0.14335062      2.57892242     23.58042798
O       5.46303700      5.45140502     19.93907241
H       7.19060719      0.36355181     23.72395532
H       3.98234264      9.81174003     22.69860534
H      10.17365115      2.95052268     23.19946282
H       5.14548557      4.86045484     19.13877958
H      11.71967378      7.83018333     22.19061550
H       9.86326720      6.29386373     23.31952779
H       3.17085251      0.78319096     23.84398200
H       8.74294416      9.46177179     23.95944093
H       4.56738603      4.22746885     23.60016412
H       5.13377997      5.76657864     21.62445970
O       7.84684128      9.30833134     23.53632315
O       3.29566129     -0.02116119     23.34340022
H      -0.14499508      3.05688429     24.47135123
H       6.26627466      5.96241391     19.61479586
Pt      2.20130144      9.60001962     26.52824922
Pt      5.11656493      9.40333764     26.59794377
Pt      7.89034752      9.55687694     26.66596011
Pt     10.55794078      9.49196365     26.58228318
Pt      7.83462303      4.61308009     26.51073946
Pt      3.62096568      6.99886256     26.33586665
Pt      9.14755216      6.96375198     26.54601154
Pt      6.38218071      6.96798988     26.48786692
Pt     10.64579107      4.69799189     26.74552495
Pt      0.90708294      7.18557176     26.71582841
Pt      9.23249910      2.25472397     26.57383867
Pt      6.36835449      2.29652952     26.49647648
Pt      2.21844851      4.76361862     26.79865482
Pt      4.98486624      4.58868444     26.68278881
Pt      0.91650349      2.34072050     26.64447679
Pt      3.72569599      2.19165455     26.54180565
H       8.02926432      1.61664119      9.09743344
