   246
 Tv_1:  11.152900   0.000000   0.000000 Tv_2:   0.000000   9.658700   0.000000 Tv_3:   0.000000   0.000000  26.829700
Pt      5.33789494      7.83586877      2.09617543
Pt      6.90748358      0.45743162      2.03737253
Pt     10.93423694      7.87033338      2.14157039
Pt      8.26320785      7.87305243      2.10917282
Pt      8.15759554      3.00431919      2.13346719
Pt      2.74310574      7.83693408      2.21718428
Pt      9.61133580      5.28727770      2.24131645
Pt      6.87409103      5.47016332      2.10913395
Pt      5.40243542      3.10827237      2.13048795
Pt      3.89001867      5.50470148      1.94160917
Pt      9.78420996      0.48935875      2.17358848
Pt      1.16068212      5.52816488      2.16750107
Pt      1.27605965      0.72267693      2.23157481
Pt      2.73841637      3.06662401      2.29880396
Pt      4.15614972      0.72065461      2.36478645
Pt     10.90855873      2.94566055      2.28779746
Pt      5.71223538      6.38944498      4.41274959
Pt      8.57532569      6.46394818      4.48257592
Pt      7.10648000      8.89087141      4.40591107
Pt      7.08785264      3.93901734      4.48525026
Pt      8.57320568      1.49489116      4.47277138
Pt      5.76486703      1.59566567      4.44558550
Pt      9.87160459      4.13907039      4.58794590
Pt      9.95238187      8.89840049      4.58733272
Pt      1.59190780      8.92806563      4.58132910
Pt      0.09431867      6.52761637      4.49233585
Pt      3.00748950      1.69174403      4.62545928
Pt      2.90231858      6.27954851      4.36301131
Pt      4.30999785      8.77324471      4.61758318
Pt      4.46160030      4.00154270      4.48716650
Pt      0.18537872      1.60834296      4.52837798
Pt      1.52918062      4.09798091      4.55990119
Pt      7.35307552      2.67431699      6.85087934
Pt     10.18221573      7.32549408      6.91319421
Pt      8.72880335      5.01759835      7.06675092
Pt      8.82445617      0.22426260      6.93957821
Pt      6.03242819      0.32274088      6.84483977
Pt      3.27051248      5.09971948      6.78915467
Pt      3.19549399      0.29990688      6.87313523
Pt      7.29678623      7.54239503      6.69993418
Pt      4.76148646      2.69704324      6.99778581
Pt      1.92273566      2.71016000      6.94605828
Pt      0.50282634      5.18119771      6.95348264
Pt     10.15554760      2.71818457      6.76782050
Pt      5.93558883      5.10076375      6.76909456
Pt      0.40043781      0.24100242      6.94523252
Pt      1.89894856      7.45362284      6.78998618
Pt      4.72907022      7.41993762      6.98620951
O       6.36628808      4.97271262      9.92827548
H       9.61089010      2.82656395      9.14426648
O       2.70804268      7.29143118     10.29614013
O       0.86435835      5.41652571      9.35858416
H       4.24013062      2.23405052     11.09251687
H       5.44792110      8.21219855      9.48133462
H       8.10222121      6.02758892     10.08810214
O       0.79366361      0.21587545      9.12806555
H       2.54936532      8.17089476     10.72060890
H       5.89350232      5.67295355      9.46729024
O       8.92219590     -0.05893679      9.12766026
H      11.31877133      9.35667647      9.65168518
H      11.46774050      5.95915900     10.02602054
H       0.79855678      1.10875923      9.49548467
H       1.72915295      5.95473710      9.52435144
H       6.04809632      2.56299647      9.75943027
H       1.05220299      3.58762403      9.39761620
H       9.04276285      0.89750753      9.37296826
C       7.71962274      5.05901267      9.87882710
H       2.82635363      6.65131079     11.03593559
H       9.89479075      2.42673789     10.62450290
O       9.18370431      2.29646557      9.94671585
H       3.99343661      7.44421573      9.57865592
H       8.00585087      9.32047670      9.39561509
H       8.01459487      4.82097146      8.56286361
O       4.97860721      7.40132091      9.16989332
O       3.29043284      2.55244319     11.27836250
O       1.54333997      2.80010603      9.18750666
H       2.31122728      2.76887897      9.88254691
H      10.37621517      7.15215817     11.63580258
O      10.47306483      6.20694159     11.42455403
H       2.95320922      1.74359243     11.70750491
O       5.85782580      2.02587216     10.54341604
O       8.46410452      6.10997535     13.39112901
H       9.11049285      6.07470616     12.62603794
H       8.16846116      4.25036387     10.37528663
H       7.34637806      7.48138635     12.99969478
H       6.54963296      2.43329051     11.22787282
H      10.91509658      5.78617552     12.21736634
H       6.41366369      8.74174711     10.98753814
H       6.14859451     10.16163308     10.28493039
O       6.38133711      9.19324070     10.08708350
O       6.54994974      8.02455543     12.85676775
H       7.96321663      5.29076959     13.22440617
H      10.66083856      2.84520101     12.63339931
H       5.84301560      7.60138271     13.45087462
H       7.53342255      9.49656734     13.33933284
H       9.33861488      9.40712647     12.42234929
H      11.75756710      1.82745069     12.37597968
O      -1.13739565      8.81005616     11.93412088
O       8.27981218      0.54356861     13.38364094
O      11.01956593      2.23752897     11.94620274
Cl      2.08312019     -0.03418596     12.35360664
H       3.64140695      0.94012607     15.46530840
O      11.72763303      5.09395561     13.51385966
H      11.55333662      4.35663731     14.19952234
O       2.99306658      5.15907055     11.93678295
H       3.20696673      4.26848707     11.59965345
O       7.15622926      3.00186865     12.55890130
H      -0.23649692      9.18981794     12.19208793
O       4.49988718      1.00238581     14.96392529
H      12.61186772      4.98256170     13.16311235
H       7.71832323      2.29731007     12.91265595
H       6.52361788      3.15859513     13.28215710
H       8.57979912      0.44624368     14.34794311
H       4.91524278      3.06305077     14.78400995
O       4.67455620      6.28722501     13.90567720
H       3.66752913      5.44586372     12.65405672
H       4.73485956      5.50006493     14.43604452
H       7.42815098      9.79619519     16.14117615
H       4.22609265      0.73657440     14.06647470
H      11.26954168      7.31436232     15.15405673
H       4.00368814      6.53726885     18.59176733
H       4.02653698      6.92819293     14.37908915
H      10.04183689      7.15302856     14.40913066
O       5.50150782      3.81785766     14.54918685
H       5.93261472      3.90674265     15.49411364
O       4.43689763      5.91641840     18.00951234
O       6.61639306      9.31679569     16.48389482
O      10.37851370      7.62873549     15.19940788
H       3.71660226      5.95844936     17.27280167
H       9.91634873      9.45911617     15.65035497
Cl      0.36545952      2.81456452     15.55289180
O       2.44005942      7.70501949     14.86979000
O       9.20210490     10.14320597     15.88224474
H       2.25331201      8.41186489     14.15969117
H       2.73945581      1.10443177     17.49714951
O       2.80628419      2.12466578     17.49843326
H       5.88793663      9.46105686     15.87294555
H       6.33155212      4.97545679     17.45644967
H       7.73545575      4.28832527     17.02001402
H       2.69739478      8.18962175     15.69188715
H       2.03573016      2.41626931     16.91442784
H       2.13827448      5.92726903     15.38802744
O       6.72577943      4.23890383     16.89697415
H       9.76642369     10.96347694     15.77162912
H      10.06878624      7.27151711     16.88989452
H       9.88308756      5.11945855     17.54320879
O       2.38003679      5.53748707     16.23937883
O       9.35673949      4.30268159     17.31646088
O       2.67403689     -0.60495749     17.15062722
H      13.21856701      4.57422683     16.26470754
O       9.90271102      6.89321697     17.81663125
H       1.74797539     -0.72564351     17.65742881
H       9.98693567      3.78540756     16.69992774
H       3.34858374      8.82252400     17.91085010
H      10.90889952     -1.41883816     18.47042563
H       0.79438842      5.46899188     18.97727443
H       5.75569295      3.12023707     18.50543627
O      11.52841136     -0.65132553     18.57809139
H       8.92487538      7.00193096     17.94937888
O       1.40419311      5.72119943     19.67479979
O       5.01268747      2.66994973     18.90024706
H       4.39286790      2.65046787     18.10577921
H      11.92291707     -0.76994789     19.45893706
O      -1.05679810      2.74452940     19.65964666
H       0.92882062      6.26278269     20.32217936
H       0.72191710      2.51582877     19.81434171
H       3.03073767      8.68342224     20.12756351
O       6.49562984      6.13975664     20.65542908
H       9.82744606      3.13161396     18.80888862
H       2.22488436      2.39843907     19.14297049
O       1.66978525      2.15291459     19.92964856
H       6.68879611      6.69646739     19.91486394
H       3.31464143      5.18994434     20.58308693
H       4.50696368      9.04980169     20.00224882
H       5.57133962      5.97245714     20.58773691
H       9.78885324      3.35269071     20.33669612
O       3.86950798      8.36485174     19.66655802
O       1.66577436     -0.17677959     20.87933514
O       4.11217862      4.70931988     20.95311618
H       5.69000244      1.62794733     20.07469134
H       8.42208247      5.14032917     21.13258121
H       2.10152280     -0.22233665     21.72373890
O       8.41789929      9.90566440     19.93886843
H       1.73050501     10.44689066     20.69290470
H       9.05071902     10.60138736     19.61890584
O       6.05764613      1.21474138     20.89164795
O       9.33802187      4.80759443     21.49553060
H       4.35811825      4.16000745     20.17742846
H       7.65461962      0.77068671     20.37911607
H       6.93356394      8.17711993     17.53565994
H       1.82521126      3.07532149     21.58180355
H      10.08114195      5.52821017     21.50769581
O       7.34177850      7.78359708     18.36134107
H       5.84875010      1.83001249     21.60781204
H       4.85763025      6.63654277     23.79961353
H       7.80899506      8.60362306     18.77378555
O       1.73826901      3.19419934     22.54987322
O       9.37830273      8.97253266     22.12237383
O       3.93505354      6.98455106     24.20369362
O       6.91124310      1.94876677     24.22423834
H       9.14226852      4.04486981     22.84402194
H       1.04669173      2.63462024     22.91990802
H       3.23283136      6.46607817     23.73071442
H       9.09772502      9.32680800     21.26439057
H       6.03047068      2.21936747     23.82127404
H       7.67017844      2.62362495     23.92722351
H       4.42029529      3.47517169     22.51829378
H       9.98379125      0.00947841     22.45871040
H       1.57939919      4.76895502     22.96262284
O      -0.02340877      6.71720838     21.73617516
H       0.51273074      6.72420998     22.59691286
O       1.77603149      5.69203857     23.30369959
O       4.70167322      2.65387844     22.93503651
O       9.04240161      3.49561960     23.68438489
O      10.79062152      1.54544143     23.53252289
O       6.33790746      6.42222307     23.30448848
H       7.30104489      9.90026247     24.13504693
H       3.45913197      8.63423770     23.68286643
H      10.07275418      2.19586580     23.82547566
H       6.43750981      6.39017758     22.26025010
H      10.54405240      7.54988797     21.82328576
H       9.29945806      4.06214669     24.48086747
H       2.42856745      0.09828514     24.07600848
H       8.55190953      8.98656564     23.68252443
H       3.95561411      2.00821117     22.98924253
H       1.54285987      5.58740542     24.25611234
O       7.68415906      9.02257794     24.25264624
O       3.03590780     -0.17846501     23.38971361
H      -0.05540041      1.20961277     24.39575879
H       6.61619654      7.29980919     23.52258531
Pt      2.46817427      9.21392627     26.80580409
Pt      5.13265902      9.30868331     26.69299323
Pt      8.12405152      9.13760341     26.45868666
Pt     10.99737669      9.05838772     26.63956726
Pt      8.04422185      4.42793630     26.56428068
Pt      3.85867074      6.78718671     26.46644522
Pt      9.41813222      6.76217916     26.76987552
Pt      6.60454549      6.86214901     26.64347924
Pt     10.77544174      4.29795317     26.60058039
Pt      0.96207419      6.61210224     26.49037704
Pt      9.40901033      2.00996721     26.70878695
Pt      6.57785819      1.96751207     26.57843334
Pt      2.23730908      4.19679647     26.78458346
Pt      5.03853961      4.25832560     26.60182743
Pt      0.89482986      1.88308804     26.62696921
Pt      3.81136511      1.89135586     26.79380065
