   246
 Tv_1:  11.152900   0.000000   0.000000 Tv_2:   0.000000   9.658700   0.000000 Tv_3:   0.000000   0.000000  26.829700
Pt      5.49063945      7.90757138      2.19791787
Pt      6.95331654      0.48782281      2.15401243
Pt     11.04097978      7.71780373      2.24943328
Pt      8.11796734      7.75642739      2.08355530
Pt      8.23114630      2.90204865      2.10340790
Pt      2.71807413      7.83367639      2.18830571
Pt      9.58680085      5.21611901      2.12127918
Pt      6.79285334      5.33194007      2.10678991
Pt      5.42928397      2.88031470      2.00600400
Pt      3.89472955      5.42851986      2.03969820
Pt      9.72572878      0.42048821      2.13442346
Pt      1.18136831      5.34063975      2.01462240
Pt      1.24691321      0.48624297      2.20707960
Pt      2.66796857      2.96745207      2.09697624
Pt      4.03698766      0.60057286      2.13267413
Pt     11.07091738      2.82213986      2.29123069
Pt      5.77776230      6.38656112      4.50653088
Pt      8.62595946      6.40660405      4.28317310
Pt      7.20081445      8.74072359      4.46313202
Pt      7.12948016      3.96708586      4.36595244
Pt      8.63093539      1.54969421      4.46974716
Pt      5.80022275      1.57453533      4.40315031
Pt      9.95542130      4.01654377      4.50014818
Pt      9.92548658      8.79543806      4.54376075
Pt      1.43791816      8.76350537      4.36423556
Pt      0.24461228      6.26591666      4.44654298
Pt      2.95792440      1.62180853      4.50551203
Pt      2.92923698      6.40507143      4.41475782
Pt      4.53218441      8.80176600      4.61554854
Pt      4.47337993      4.02950306      4.38736385
Pt      0.20411058      1.57668820      4.61839201
Pt      1.55182506      4.00268392      4.44747102
Pt      7.39773400      2.57249912      6.58861714
Pt     10.15206307      7.44055449      6.71692513
Pt      8.90620438      5.09897320      6.94919207
Pt      8.84470216      0.15024780      6.96764687
Pt      5.92138271      0.29210140      6.85198855
Pt      3.25290480      5.09339783      6.61565298
Pt      3.13421161      0.20031526      6.76218737
Pt      7.31446202      7.48918132      6.81585223
Pt      4.75368616      2.69518285      6.79226775
Pt      2.03616090      2.69048351      6.90403933
Pt      0.36858228      5.18995136      6.91522732
Pt     10.21902112      2.70030352      6.79072182
Pt      6.21370982      4.98539884      6.69522507
Pt      0.46678609      0.22848357      6.92274244
Pt      1.80096234      7.39466035      6.86568044
Pt      4.56577005      7.52863553      6.98142206
O       6.25395950      5.16211752      8.99677261
H       9.61276543      2.59615298      9.15014264
O       2.27676636      6.99395303      9.89021462
O       0.58543331      4.95397808      9.12202267
H       4.51784340      2.81451942     10.39026226
H       5.17027724      8.12114324      9.47467553
H       7.57803187      6.43926010     10.03947200
O       0.77030112      0.11152057      9.21710439
H       1.76448152      7.65339861      9.34628781
H       5.75110706      5.98269948      9.08262321
O       8.64127557     -0.20858954      9.03586133
H      11.13461149      9.46304110      9.67677495
H      11.00727511      5.20428258     10.01201344
H       0.93190388      1.02226562      9.52073066
H       1.28265479      5.65803632      9.36729142
H       6.58623915      2.35158706      9.24388813
H       1.27483637      3.71742373      9.13366201
H       8.86249226      0.59273715      9.64529617
C       7.51631008      5.36539561      9.65782407
H       2.20687296      7.30914449     10.80569550
H      10.20731149      2.41840140     10.66560773
O       9.51121894      2.15244421     10.00127526
H       3.87075468      7.18028761      9.37258053
H       7.69506039      9.22066561      9.27242125
H       8.46751038      5.56580723      8.76153132
O       4.80348858      7.23551771      9.08924830
O       3.74297848      3.20621750     10.88082466
O       1.78532962      2.73846623      8.99877222
H       2.65473173      2.98385505      9.50904016
H      10.56351078      6.53604538     11.27463358
O      10.48455905      5.60699956     11.08933741
H       3.55530952      2.49621426     11.48784004
O       6.14017404      1.99843647     10.03670400
O       7.32339787      5.19527187     13.09317568
H       7.75712220      4.28047374     12.87354759
H       7.89142169      4.62498292     10.35998558
H       6.93949589      7.02559197     12.31717785
H       6.61346832      2.39657128     10.81668439
H      10.77943340      5.12175829     11.89706788
H       6.20936491      8.81420706     11.17010055
H       6.07387025     10.06522799     10.09334438
O       6.10753733      9.08396006     10.20459498
O       6.59417748      7.95382597     12.43106893
H       6.36831598      5.00976279     13.30546750
H      11.37195135      2.82885519     12.80264690
H       5.89017453      7.91468475     13.23609337
H       8.04866261      9.03025383     12.78478208
H       9.74533030      8.73274073     11.67276445
H      12.04074038      1.92762934     11.89188762
O      -0.60965569      8.27813339     11.17774435
O       8.70824132      0.06894284     12.46689452
O      11.44423275      2.72288124     11.83997900
Cl      1.82514112     -1.69574924     12.90050673
H       1.96013033      1.49442862     13.41694160
O      10.96986473      5.55648305     13.74734462
H      11.31636651      4.86041091     14.36895620
O       4.42928311      4.84366066     13.35018514
H       4.35593607      4.49397609     12.42108727
O       7.56339040      2.59080884     12.45681287
H       0.15000151      8.41715194     11.84345877
O       2.40673544      1.34696602     12.54237266
H      11.67759386      6.24943238     13.68390235
H       8.11307966      1.76337777     12.29393138
H       6.95609808      2.32973437     13.33050323
H       9.15575451      0.41628914     13.26414717
H       5.34366570      1.86089991     14.93942020
O       4.63483522      8.13234483     14.30453699
H       4.90092582      4.07591225     13.77555817
H       4.50938512      7.28748003     14.87000661
H       4.48103835      9.65468323     15.31737244
H       2.34905786      0.35586692     12.49062873
H       9.70350653      6.03322679     14.71353277
H       4.22920373      6.40261116     17.28357937
H       3.74889210      8.06181244     13.91668226
H       8.20347320      6.42875092     14.34406078
O       5.94390736      2.61882916     14.53736048
H       6.18549335      3.21177705     15.32492693
O       4.12632259      6.12363651     16.35656009
O       4.38779210     10.53830916     15.70921254
O       8.96054531      6.73249048     14.97628288
H       3.31113228      5.56945142     16.32072343
H      10.16913554      9.61464044     15.02149035
Cl      0.53098815      2.85254145     14.81561025
O       0.58599427      8.71254517     15.87377803
O       9.41952426     10.17982711     14.84903188
H       1.11257026      8.42905164     15.07538835
H       1.74506214      4.16651260     16.60372151
O       1.91526408      4.78600927     17.32983309
H       4.61398366     10.41613356     16.65336135
H       5.40162525      5.01044164     16.42981216
H       6.91532256      4.74828284     16.80847156
H       1.10048619      9.37931623     16.35468929
H       1.12576744      5.37235769     17.23727652
H      -0.02339309      7.00459948     16.81373150
O       6.12110719      4.27125951     16.36421507
H       9.70894735     11.07055471     15.02317381
H       8.64366395      6.50547868     16.49217825
H       9.23485171      4.54933713     17.25211881
O      -0.19799096      6.47620372     17.62209450
O       9.55593590      3.63479479     17.33929590
O       4.86563735      0.71314720     18.50395822
H       9.94724412      6.37455690     17.78077525
O       8.35540963      6.06903690     17.36218815
H       3.85712431      0.49100505     18.56291615
H      10.29660285      3.63659222     16.62093138
H       5.38375837     10.07579885     19.36194826
H       8.59264689      0.73051673     18.68066353
H       0.71521113      7.51635308     18.63972768
H       6.28635273      3.30657633     18.15389802
O       8.56709668     -0.09692888     18.10052057
H       7.59511672      6.64160414     17.78540233
O       1.30718478      7.94009868     19.34512480
O       6.01529358      3.01333247     19.04648553
H       5.37113784      2.21078634     18.87004211
H       8.76145760      0.18767647     17.18068331
O      -0.94610918      3.58848916     19.91153570
H       1.03308326      7.67597312     20.25921743
H       0.64399647      2.91309922     19.65910950
H       3.03616084      7.23265572     19.28621110
O       6.96279006      6.80769215     21.27678363
H       9.81374046      3.61719696     18.97878546
H       1.53179715      3.52082933     18.66149781
O       1.58175451      2.80551845     19.42574472
H       7.09302052      7.25297164     20.41744995
H       5.55993635      4.22518831     19.99380537
H       4.11123591      6.09030902     19.58405928
H       6.40049428      6.04520976     20.97000262
H       9.82122060      4.36387260     20.34261681
O       3.90029005      6.81316725     18.98775785
O       2.29149398      0.46102041     18.40249897
O       5.24505247      4.98153269     20.61668036
H       5.09353340      0.27702319     21.47959600
H       8.57352997      6.05398019     21.65589770
H       1.84432502     -0.25853064     18.88369787
O       8.56654469     10.70349658     20.95457160
H       2.00272298     11.00907730     18.83636311
H       8.82565621     11.60977595     20.80275416
O       5.56751609     -0.26808692     20.82788372
O       9.35193933      5.43879668     21.64055462
H       5.19170073      4.51259397     21.47565789
H       7.55929639      1.07285988     20.82979823
H       6.00425003      7.94371284     18.60845091
H       2.18343623      3.12657215     21.11201341
H      10.14656290      5.97483548     21.73413573
O       6.96300340      7.73342901     18.76079747
H       5.75477929     -1.14162317     21.20450888
H       4.81461630      7.57131233     24.02960426
H       7.56167359      8.49074941     18.49150893
O       2.29535812      3.31583254     22.05491227
O      10.08436317      9.27874575     22.87067291
O       3.77578066      7.53475605     24.36786866
O       6.93355760      2.17237093     24.10028138
H       9.23284581      4.30232467     22.84005741
H       1.53277024      2.86215739     22.43722769
H       3.38726815      6.74982467     24.00301591
H       9.51149979      9.76786771     22.14656887
H       6.02394303      2.49221801     23.73668711
H       7.71532290      2.82405508     23.91645675
H       3.74623961      3.31143689     22.58536073
H      10.63861675      0.40060565     23.19265511
H       2.01300198      4.81669901     22.95133722
O       0.52261572      7.13457647     21.87715377
H       1.07938862      6.69692269     22.56799792
O       1.96685277      5.61992896     23.43875178
O       4.65296886      3.56793500     22.99752023
O       9.17929869      3.64591545     23.66208757
O      11.51048886      2.07824861     23.33843891
O       6.07970218      7.49119734     23.66422596
H       7.55335489     10.25744661     24.12663727
H       3.63158952      9.09102596     23.03349309
H      10.67487172      2.56050683     23.60251465
H       6.36437986      7.18430997     22.77093731
H      11.30304216      7.93459209     22.25492579
H       9.23844388      4.31929098     24.40435451
H       3.34295983      0.92201623     23.34656512
H       8.92237718      9.20554887     24.00543416
H       4.47403034      4.07851960     23.82762066
H       1.66838582      5.45352403     24.37162720
O       7.87882341      9.37625938     24.38483895
O       3.58447194      0.31058860     22.63558899
H       0.83786412      1.96751807     24.23716905
H       6.74048244      8.20220024     23.93367038
Pt      2.30559830      9.31484938     26.61254017
Pt      5.33222914      9.25525919     26.70385873
Pt      7.99542516      9.27213809     26.58911534
Pt     10.70132982      9.20449177     26.56834725
Pt      8.10220354      4.36046777     26.56173641
Pt      3.73480002      6.91950074     26.56528720
Pt      9.46776874      6.70154614     26.68463679
Pt      6.71950285      6.79284432     26.51325555
Pt     10.92436579      4.40317278     26.50366233
Pt      0.98206292      6.79148873     26.61270553
Pt      9.55092672      2.11078261     26.74128540
Pt      6.55022826      2.11685288     26.39860726
Pt      2.41737457      4.40482121     26.51523146
Pt      5.30862711      4.41045511     26.62557993
Pt      1.23826199      2.01632031     26.71603323
Pt      3.91755890      2.00173791     26.58772513
