   246
 Tv_1:  11.152900   0.000000   0.000000 Tv_2:   0.000000   9.658700   0.000000 Tv_3:   0.000000   0.000000  26.829700
Pt      5.38740529      7.99807081      2.19762953
Pt      6.97307126      0.59599262      2.00610192
Pt     11.11448101      7.79695472      1.98742667
Pt      8.37149550      7.85524031      2.08604625
Pt      8.31315197      2.91832785      2.22855622
Pt      2.60822803      7.92797390      2.16639338
Pt      9.62173499      5.39102593      2.19857769
Pt      6.74058639      5.51823933      2.15700653
Pt      5.60566035      3.10870101      2.15819279
Pt      4.12951693      5.48183204      2.10688883
Pt      9.73187896      0.56219170      2.15576709
Pt      1.33842563      5.43560110      2.25242355
Pt      1.37578329      0.76423792      2.23742861
Pt      2.75527350      3.14164653      2.15392811
Pt      4.10406563      0.76250473      2.10620068
Pt     11.06641530      3.14585263      2.19510431
Pt      5.80384926      6.51447254      4.40279669
Pt      8.57937838      6.44442905      4.41730466
Pt      7.34819466      8.90460555      4.51386594
Pt      7.13291655      4.02538471      4.37907170
Pt      8.61816105      1.57273509      4.50905355
Pt      5.78438041      1.55252077      4.38630513
Pt      9.88650441      4.04945685      4.58646265
Pt     10.05863663      8.83458448      4.31796607
Pt      1.67549262      8.97766119      4.38810905
Pt      0.23327559      6.58239617      4.38232426
Pt      2.97652673      1.81283400      4.63158726
Pt      3.15646849      6.56907244      4.35149664
Pt      4.32958126      8.88726760      4.48462595
Pt      4.36309991      4.09633847      4.41990684
Pt      0.08371624      1.64794042      4.43805341
Pt      1.55193696      4.08465547      4.54116368
Pt      7.61994554      2.82760032      6.81489262
Pt     10.16830642      7.64020044      6.67937786
Pt      8.94863028      5.23304658      6.83789887
Pt      8.95306346      0.49205129      6.96680921
Pt      6.05824710      0.42467014      6.90812504
Pt      3.38029947      5.12796824      6.76410943
Pt      3.42134955      0.36368585      6.86602211
Pt      7.41345265      7.76873506      6.86674037
Pt      4.61198172      2.77759838      6.83528936
Pt      1.96554326      2.71575166      6.94242166
Pt      0.42047909      5.18804584      6.68152316
Pt     10.29259066      2.75902434      6.91557402
Pt      6.24745813      5.21066394      6.86005034
Pt      0.45150197      0.22006666      6.76805898
Pt      1.87253486      7.61815543      6.86636824
Pt      4.61662102      7.63398322      6.83253391
O       6.36788873      5.11295677      9.23119057
H      10.89096967      2.18614533      9.78268509
O       2.61120037      7.65245293     10.11954051
O       1.14394397      5.45924386      9.17928110
H       4.77350323      2.27869027     10.43101219
H       5.29795460      8.18335570      9.35683469
H       7.81466196      6.65679181      9.48457814
O       0.52707185     -0.47974569     10.16310466
H       1.74204642      8.22357334      9.97122214
H       5.78553772      5.88644807      9.42887991
O       9.10630923      0.00931529      9.13195549
H      11.27479446      8.73172605     11.00381662
H      11.40957143      5.58112975      9.62370560
H      -0.14469596     -0.61696749      9.44571141
H       1.75755315      6.03242160      9.72845193
H       6.80871047      2.37715667      9.54354995
H       1.58707707      3.79083837      9.22994215
H       9.38330338      0.86055522      9.70606944
C       7.73646502      5.57057809      9.46097535
H       2.91527136      7.60509101     11.01262064
H      10.42586827      1.69034629     11.11009745
O      10.01826252      2.01789211     10.24419554
H       3.90554126      7.51398049      9.51080970
H       8.23666431      9.44829126      9.41347697
H       8.53419668      5.06835540      8.82539244
O       4.87341961      7.36017756      9.13689600
O       3.90208821      2.51659273     10.67653635
O       1.69748331      2.75948039      9.16785848
H       2.51994816      2.55496958      9.72009897
H      10.17296682      6.63012306     11.44148702
O      10.35018994      5.81614740     10.91100090
H       3.83043245      1.94884415     11.49821208
O       6.53568182      1.98083698     10.46308645
O       4.61619204      4.92140521     11.75919401
H       4.44931044      4.09265493     11.34302464
H       8.02881347      5.25206867     10.45256030
H       5.75464408      6.42683260     12.06505320
H       6.79767221      2.66555477     11.11186781
H      10.50366515      5.06502059     11.56991746
H       6.59302695      8.20311723     10.92378351
H       6.73480046      9.80374251     10.61995498
O       6.72812127      8.89077196     10.22849611
O       6.33747361      7.22425131     12.25264351
H       4.13812533      4.87802140     12.56861734
H      11.60035239      1.46106080     13.74952851
H       7.15167491      6.79794416     12.53822877
H       8.52922440      9.32856841     14.37496875
H       9.77077492      8.97224783     12.74269107
H      12.78649098      2.03098558     12.89726607
O      -0.74896957      8.25722006     12.54072772
O       8.65281713      0.45660420     13.77457577
O      11.82592471      1.83856822     12.87535335
Cl      3.49931292     -1.65141391     12.91549204
H       4.83991109      1.49219321     13.44883701
O      10.97580098      4.34581040     13.46990573
H      11.06004578      3.44269588     13.00681310
O       2.72570421      4.88223156     13.91629164
H       3.01414857      5.79841469     13.81339827
O       6.93557119      3.66731109     12.52052701
H      -0.10379593      8.36040917     13.28300097
O       4.04119726      1.27488504     12.99908938
H      11.83754543      4.60448487     13.80099234
H       6.73365060      3.06555003     13.21205374
H       6.07399049      4.13380638     12.39454775
H       9.36212498      0.99014957     14.15699358
H       7.25588351      1.35797912     14.41702198
O       5.79917218      5.12298956     15.54292745
H       2.84158134      4.60442840     14.84527168
H       6.75613883      4.81364485     15.40482523
H       4.92465987      8.01256841     14.56831795
H       3.76356736      0.30236570     13.08139795
H       9.45968547      5.03035727     13.83430780
H       4.11271774      5.20444276     18.51337412
H       5.72886396      6.08515609     15.43793294
H       7.93381196      4.87314303     13.29955328
O       6.47402583      2.02387143     14.44285889
H       6.28686900      2.17409431     15.39747753
O       4.03266198      4.27101428     18.27139406
O       5.48707039      7.96241014     15.33958572
O       8.53221473      5.40483647     13.88121807
H       3.37200603      4.24676388     17.56743176
H       7.22284927      7.87464946     15.17109598
Cl      0.20425272      1.21732712     15.70723688
O       0.98347120      8.02446726     14.84592967
O       8.25306758      7.85448173     15.11002212
H       1.81922297      8.07137688     14.30073175
H       1.59924420      3.16785702     16.18821541
O       2.18494783      3.87874518     16.52746464
H       5.07662928      8.52073224     16.10540662
H       5.35671006      3.03061156     17.40876933
H       6.79436664      2.27757942     17.87070775
H       0.89864274      9.00471403     15.19014551
H       1.48544605      4.58308284     16.62838304
H       0.81682028      6.63363562     15.86506529
O       5.96024163      2.24876600     17.27092099
H       8.48258959      7.02276193     14.59326996
H       9.45331568      4.22871925     15.93595454
H       8.79001870      2.73184591     17.69177462
O       0.65946111      6.15357778     16.70851990
O       8.43442485      2.09542527     18.35512585
O       5.12084169     -0.51287079     17.49604647
H      10.93223865      5.74168536     16.69258084
O       9.50249712      4.34378253     16.88082532
H       5.21406234      0.42753241     17.76651032
H       8.64651289      1.18066673     17.96735616
H       4.74702773      8.61323574     18.17936544
H       8.36321786     -1.37152585     16.81916801
H       1.15484418      6.85492250     18.61440859
H       3.35741965     -0.20519814     20.57748208
O       8.36093285     -1.13448065     17.74784629
H       8.77609135      4.93324567     17.17252015
O       1.61154332      7.39385470     19.26805076
O       3.81490669      0.41348812     21.08481400
H       3.59816779      1.18079795     20.51823520
H       9.30013012     -0.88404698     18.05319977
O       0.29155338      2.66562735     19.69369642
H       1.07806359      7.23601148     20.10900438
H       2.09798733      2.81719708     19.71422433
H       3.22500146      7.02214195     19.25822058
O       7.07092354      4.24667014     20.74187609
H      10.99708401      1.77359943     19.33316397
H       3.52736232      3.31046781     19.40437631
O       3.02994308      2.78328701     20.08576367
H       7.03510699      4.46977212     19.80624633
H       5.37536564      0.88343234     21.17589981
H       4.71527245      6.88291694     19.88397889
H       6.71536996      3.32025010     20.71501622
H      10.67975563      3.14537484     20.01417257
O       4.20966178      6.88833496     19.04877025
O      -0.11112525      0.08032987     18.60783497
O       6.19122649      1.47827658     21.14490882
H       5.15756848     -2.29183024     22.15084682
H       8.61870331      5.24241588     21.44394683
H       0.58075494     -0.56770963     18.83173522
O       7.70475034      9.00413149     20.64712145
H       0.21334679     10.06448772     17.71935644
H       7.81848191      8.53841845     19.69093340
O       5.82253920     -2.50912130     21.42756149
O       9.50871671      5.08552136     21.77030520
H       6.68113479      0.91752644     20.49842219
H       7.09090790     -1.28443718     21.07695267
H       6.53001375      5.76686083     17.41194473
H       2.42362089      3.31800368     21.85439077
H      10.12190110      5.86114523     21.79641657
O       7.24209596      5.71216574     18.09528847
H       6.28201011     -3.27817488     21.76607813
H       4.68326132      6.03129121     23.92392295
H       7.54014303      6.61526602     18.19520685
O       2.25524840      3.29089705     22.85665920
O      10.04983869      9.40431006     22.33876644
O       4.01592377      6.73148703     23.72263162
O       7.09978184      1.79843929     23.62064193
H       9.41863499      4.10144032     22.99729282
H       1.48361697      2.64419091     23.01056499
H       3.09196399      6.31550101     23.91339982
H       9.27065528      9.46968020     21.65584475
H       6.78077113      1.57301225     22.70480917
H       7.85644333      2.42870426     23.51478583
H       3.46200099      2.38666233     23.85004065
H      10.65708846      0.54976229     22.38658652
H       1.83694967      4.82106103     23.49806466
O       0.11818323      7.16202022     21.61894630
H       0.67997665      6.78039036     22.37905145
O       1.49701018      5.76501977     23.65683903
O       4.30834405      2.06938561     24.29832991
O       9.42864940      3.30208887     23.67873113
O      11.47333453      1.64022894     23.39045625
O       6.39044645      5.16249223     23.61674197
H       7.58570096      9.77234498     23.99538324
H       4.46828437      8.46391606     24.28247396
H      10.65080226      2.26915553     23.48440354
H       6.64503590      4.36580851     23.06077797
H      10.85171466      7.98076102     22.13408707
H       9.46538318      3.70292499     24.54989487
H       4.68936337      0.37461825     24.39628855
H       9.08614067      9.22844576     23.77272210
H       4.98389848      2.80018952     24.32147759
H       1.22539756      5.93452484     24.62788512
O       8.26229138      9.08041720     24.33276401
O       5.18562220     -0.51966595     24.49023738
H       0.61653718      1.47694976     24.32256768
H       6.98326791      4.95526688     24.34812659
Pt      2.48493009      9.30160607     26.73877409
Pt      5.30367122      9.35026674     26.67247822
Pt      8.04946569      9.33222405     26.44686131
Pt     10.87263322      9.24560653     26.66062483
Pt      8.11998024      4.55701193     26.66601779
Pt      3.84220252      6.97470335     26.69302377
Pt      9.62605553      6.77828070     26.59419747
Pt      6.73591734      6.86696740     26.69868376
Pt     10.90862277      4.50664830     26.76119508
Pt      1.15702279      6.82765179     26.60498962
Pt      9.51453251      2.03279941     26.61279049
Pt      6.87695503      2.11420284     26.59049399
Pt      2.62015495      4.53670218     26.63394451
Pt      5.31860602      4.45204459     26.67195640
Pt      1.08141946      1.90614367     26.77277107
Pt      3.73377589      2.09382789     26.57044220
