   246
 Tv_1:  11.152900   0.000000   0.000000 Tv_2:   0.000000   9.658700   0.000000 Tv_3:   0.000000   0.000000  26.829700
Pt      5.19457124      7.56047067      2.14135426
Pt      6.66519495      0.33877212      2.26935961
Pt     10.89219332      7.67470623      2.22115760
Pt      8.11404229      7.76608792      2.01991296
Pt      8.00965768      2.82936225      2.22021436
Pt      2.48493115      7.53973872      2.08131513
Pt      9.53020539      5.27663946      2.06100733
Pt      6.82025131      5.24256498      2.24393573
Pt      5.28240846      2.81297730      2.00655154
Pt      4.14221511      5.14444207      1.93198928
Pt      9.56898695      0.38395005      2.14710613
Pt      1.18063729      5.26107688      2.01360897
Pt      1.06090459      0.38167564      2.05825823
Pt      2.54176173      2.66026828      2.08787210
Pt      3.96959604      0.33137012      2.16420585
Pt     10.87260341      2.88885750      2.03946114
Pt      5.87898628      6.39159082      4.63458827
Pt      8.61764298      6.35212703      4.35983484
Pt      7.26941713      8.75641218      4.50189055
Pt      7.24337663      3.93809872      4.56919481
Pt      8.56348401      1.53765561      4.47464419
Pt      5.78172792      1.55014877      4.38463419
Pt     10.08112057      3.90384359      4.38343070
Pt      9.95876889      8.83337232      4.40512368
Pt      1.66658243      8.71814094      4.48425977
Pt      0.35764506      6.29682673      4.35782556
Pt      3.00829414      1.54951247      4.42669403
Pt      3.13543649      6.27732810      4.32586514
Pt      4.55818020      8.71972626      4.50254218
Pt      4.46325104      3.85549637      4.41855621
Pt      0.32952122      1.47789946      4.42248968
Pt      1.67382239      3.92385828      4.39519230
Pt      7.49241663      2.59068211      6.86345261
Pt     10.29504583      7.45522380      6.64079825
Pt      8.85550435      5.10591226      6.74432989
Pt      8.93480573      0.24598593      6.83546134
Pt      6.15745205      0.25378621      6.83182793
Pt      3.40371752      4.99899717      6.71514873
Pt      3.36655450      0.15476656      6.73180467
Pt      7.53856751      7.48121359      6.85082780
Pt      4.75405834      2.51161546      6.83799245
Pt      1.95438371      2.74437377      6.77741432
Pt      0.52017651      5.15730867      6.82953275
Pt     10.28204412      2.71549001      6.73699844
Pt      6.17063690      4.91025381      6.81435119
Pt      0.58016732      0.22984518      6.85569365
Pt      2.08220306      7.39763794      6.79832826
Pt      4.76596577      7.37417341      6.89396059
O       6.31476409      4.93425534      9.47154331
H       9.10162431      3.17132137      8.96146390
O       2.47085083      8.07252355     10.32304866
O       0.79498728      5.45336859      9.58062032
H       4.68972493      2.78180982     10.85528918
H       5.16613793      8.26937256      9.58682009
H       7.15065111      6.90944030      9.85697064
O       0.59423596     -0.25011536      9.25663156
H       1.92690407      8.83125696      9.89139856
H       5.47430633      5.46228900      9.52789433
O       8.72898887      0.10693137      9.12836087
H      11.22960003      8.63702015      9.52537508
H      11.06524523      5.72626455      9.35698705
H       0.40156904      0.39693822     10.01687609
H       1.36206091      6.24020639      9.68146617
H       6.42447100      2.43096043      9.70797725
H       1.39754058      3.64877314      9.43777129
H       8.79871023      1.06547888      9.45410548
C       7.45030833      5.87142917      9.72951578
H       2.56757822      8.35886921     11.24527288
H       9.79680526      2.60229215     10.29771052
O       9.01355788      2.56030692      9.75080195
H       3.71778159      7.52122829      9.37944228
H       7.81276468      9.53788873      9.47761781
H       8.20977566      5.74058486      8.89647358
O       4.70079601      7.48459919      9.07680553
O       3.74830315      3.20434013     10.72918582
O       1.78286209      2.87357802      9.01442933
H       2.71392707      2.80445007      9.42267488
H       9.29109017      8.08779614      9.43651805
O       9.96713646      7.35874424      9.66522222
H       3.09608803      2.77806384     11.31330542
O       6.11565240      2.01080752     10.48063228
O       4.12456134      5.58677192     12.19867060
H       3.83441883      4.69383794     11.78026758
H       8.03090763      5.54132427     10.65076252
H       5.39526425      6.78294552     12.43690555
H       6.73132760      2.33409310     11.22636887
H      10.06445969      7.33664514     10.66750766
H       6.30757128      8.65773449     11.32313971
H       6.12924842      9.99459208     10.50231325
O       6.26428961      9.00955359     10.41697763
O       5.84934046      7.66927646     12.78787808
H       3.28251644      5.97138387     12.46692143
H      10.95696814      3.60375929     12.61728704
H       5.22843609      8.08319248     13.46784001
H       8.74598640      9.40066935     13.63204749
H      10.48438794     10.33555280     11.99276934
H       9.38575902      3.65683871     12.50221431
O       0.09113066     10.67985332     11.47225963
O       9.01467858      0.67498655     13.37375352
O      10.21810432      3.86615086     12.02998793
Cl      2.71498980      1.16462260     13.02004723
H       1.27010312      4.31351797     14.60878643
O      10.31984592      6.39282099     12.41740494
H      10.44643004      5.38973571     12.12159424
O       1.84384542      7.27215091     13.53917475
H       2.56913428      7.71327418     14.03733727
O       7.39590672      2.72031750     12.73332261
H       0.97132339     10.62216804     12.01843371
O       1.27751947      4.19162698     13.64086313
H      11.17072125      6.92436155     12.62021493
H       7.87472826      1.87035941     12.96705069
H       7.05095474      3.13867205     13.55473353
H       9.30721204      1.29303609     14.09092021
H       4.87084521      4.02399970     14.09068726
O       4.27959610      8.28504778     14.78360694
H       1.48800383      6.75077138     14.30126610
H       4.39206257      7.76297601     15.55392593
H       5.52204273     11.18994948     15.01339610
H       1.99516032      3.52656137     13.59502949
H       8.79817388      7.19035603     13.15587991
H       3.56562718      7.61594034     17.85303093
H       4.38038113      9.22997598     15.05250356
H       7.41035390      7.65839921     13.68682907
O       5.56019183      3.59421149     14.61339938
H       5.61816411      4.13480589     15.46052079
O       3.91314120      7.01826328     17.10919416
O       5.62548846     10.52242900     15.72030359
O       8.35666047      7.67848998     13.92141038
H       3.38224351      6.16474077     16.91703220
H      10.98610464     11.37585318     15.68928236
Cl     -0.23645297      3.77877281     18.17881748
O       1.36920972     10.52103765     15.75355979
O      10.09218229     11.79131729     15.36555833
H       1.71556298     10.49028566     14.82812416
H       1.13903121      4.79549463     17.05016178
O       1.84545895      5.42679696     16.65008849
H       5.00366454     10.94881368     16.44345029
H       5.26011790      5.67165959     17.25124423
H       6.76085148      5.32340564     17.48539175
H       2.05371417     10.92769297     16.37985840
H       1.41306913      6.32192537     16.78028882
H       0.81481464      8.81085270     16.36858004
O       5.89134976      4.88567138     17.33005002
H       9.95214415     12.50332467     15.98911214
H       8.84421418      7.40610085     15.61627446
H       8.68065360      6.18938734     17.67379174
O       0.41926715      8.00385624     16.83086711
O       8.20340976      5.37218165     17.98827828
O       3.47738043      1.51133253     17.33691272
H      10.60304175      8.02911498     16.58435123
O       9.00947043      7.52969529     16.59208357
H       3.48454334      2.33632756     17.92959759
H       8.87229916      4.59937194     17.89322175
H       3.39106189     10.40808529     18.00853062
H       7.00314800      0.35806213     16.68392943
H       0.43166715      8.25810681     18.44745245
H       5.01046512      4.08888968     18.44029327
O       7.66715587      0.09297880     17.37391290
H       8.43494955      8.32096230     16.69340574
O       0.70017714      8.51980803     19.43448060
O       4.32287330      3.63661248     19.06002730
H       3.79230876      4.31089485     19.53970933
H       8.26297827      0.80644276     17.56027835
O       0.49061082      5.95728366     20.06674258
H       0.59826135      7.66336295     19.92901392
H       2.36560455      6.19469175     20.29794256
H       2.39703910      8.76385407     19.31273644
O       5.62137825      7.32036215     21.11742933
H      11.49631906      5.18407827     19.37954681
H       3.90861151      6.75658890     20.24507759
O       3.34587371      6.03542209     20.50729061
H       6.05439770      8.01310287     20.59806902
H       7.57925568      5.17166186     19.64413620
H       3.83838002      9.00638421     19.92328364
H       6.22814922      6.49178471     21.05301399
H      11.11340933      5.63852397     20.88216094
O       3.38493883      8.91281372     19.06668352
O       1.61655875      1.75995518     20.08936494
O       7.47297608      5.07538320     20.62889870
H       5.19984541      3.05799880     20.35562969
H       8.95337022      5.39493843     21.40152560
H       1.15105338      0.91279963     20.15699139
O       9.62243740     10.19069363     20.14722253
H       0.97582261     11.98318824     19.59525311
H      10.45304414      9.93666621     19.70889961
O       5.95847585      2.60410030     20.89164030
O       9.77330402      5.36157040     21.93087224
H       7.18325674      4.11446475     20.74448338
H       9.95349584      1.30033613     20.70376886
H       6.27812802     10.42314520     20.09744540
H       1.85310273      2.53517273     21.74027508
H       9.64533847      5.71981258     22.81860535
O       6.07281471      9.52547156     19.82746223
H       5.44303373      2.36595952     21.72336458
H       4.12969514      8.07445807     24.04034847
H       6.65948388      9.48119117     19.05711945
O       2.15311347      2.99859339     22.52120815
O       9.43454982      8.33190475     22.41870614
O       3.34006536      7.46737398     24.35390160
O       7.88258371      2.70128540     23.68961877
H       9.94822925      3.50133004     21.81492740
H       1.67654330      2.59267890     23.28191146
H       3.24074709      6.67034904     23.75261765
H       9.46078837      8.96365738     21.62746710
H       8.28137251      2.98781182     24.55795252
H       7.06721734      3.28164391     23.73935600
H       5.02778586      3.16147289     24.13272994
H      10.39480942     -1.44705344     22.61431138
H       3.56033926      5.56288212     21.96805245
O       0.82016891      8.47381518     22.78532935
H       1.78236633      8.31183232     23.10817095
O       3.48182835      5.29197325     22.93522077
O       5.43846041      4.06110100     24.23092703
O       9.76146928      2.58361685     21.92781328
O      11.35810489      1.23560704     23.63839631
O       5.38437602      8.77968887     23.27461247
H       7.75163920     10.29915875     23.92762829
H       4.98293083     10.46354324     23.07422608
H      10.85541651      1.75660347     22.94461436
H       5.66786353      8.16738439     22.44064018
H      11.74592374      9.36807300     22.94902932
H       8.95665024      2.64894719     22.54318021
H       3.88079544      1.93676775     22.68999687
H       8.59481811      8.85280323     23.49283395
H       4.79185543      4.55145353     23.65940301
H       2.79974811      4.54772246     22.92429877
O       8.04958324      9.39379419     24.25719210
O       4.78780451      1.77020853     23.04803370
H      -0.40358386      1.02180154     24.38242056
H       6.21062339      8.87450712     23.86342224
Pt      2.46196618      9.06479319     26.61353456
Pt      5.26618346      9.09271854     26.66809858
Pt      8.10843271      8.92869269     26.39595784
Pt     10.77721555      9.06106237     26.54919664
Pt      7.97166516      4.26021554     26.55283477
Pt      3.79799886      6.68783714     26.55700288
Pt      9.41510809      6.50105989     26.57385265
Pt      6.67352492      6.57771608     26.61993202
Pt     10.70993621      4.24339187     26.39709614
Pt      0.89456036      6.62443547     26.55822034
Pt      9.37572522      1.70081456     26.67617766
Pt      6.67069491      1.82008449     26.63946709
Pt      2.26397481      4.15252392     26.48578315
Pt      5.03044617      4.23438014     26.51222193
Pt      1.01343497      1.75306991     26.48219646
Pt      3.79122455      1.80286963     26.51417403
