   246
 Tv_1:  11.152900   0.000000   0.000000 Tv_2:   0.000000   9.658700   0.000000 Tv_3:   0.000000   0.000000  26.829700
Pt      5.51413095      7.85973138      2.09480832
Pt      6.91417180      0.54436383      2.04141003
Pt     11.11831071      7.88414106      2.17592217
Pt      8.28533537      7.90806852      1.97982598
Pt      8.25512804      2.93272363      2.21557399
Pt      2.79179272      7.74242802      2.07109759
Pt      9.94759900      5.38519100      2.15142507
Pt      7.11921420      5.40275791      2.16882788
Pt      5.50364020      2.95069513      2.05096939
Pt      4.29191106      5.48237618      2.18879963
Pt      9.59012035      0.62901266      2.13516374
Pt      1.52019417      5.42469500      2.27172082
Pt      1.21235792      0.57945516      2.14309605
Pt      2.72208506      2.96991648      2.15171182
Pt      4.08788023      0.52307571      2.21572689
Pt     11.01561436      3.06122801      2.10558154
Pt      5.87325665      6.47958945      4.46495641
Pt      8.73421517      6.52199110      4.34398040
Pt      7.37596758      8.80904233      4.30985669
Pt      7.26674076      4.05150473      4.45893415
Pt      8.77151627      1.70295480      4.51084600
Pt      5.90160247      1.61211738      4.34751794
Pt      9.95144412      4.17491658      4.44475543
Pt     10.04128338      8.96728245      4.53535844
Pt      1.67030101      8.82681373      4.33061931
Pt      0.41899705      6.36791299      4.45201606
Pt      3.00832189      1.56022470      4.49912949
Pt      3.16675848      6.55961179      4.50495433
Pt      4.60868138      8.84811723      4.58039918
Pt      4.61212263      3.98648070      4.43501973
Pt      0.31574223      1.62640566      4.47269737
Pt      1.77867952      4.07354569      4.45733037
Pt      7.43223304      2.63134737      6.72278285
Pt     10.16601497      7.43645976      6.66284254
Pt      8.89516267      5.14911080      6.84813978
Pt      8.86664669      0.21204411      6.87004507
Pt      6.01843139      0.29484092      6.71386370
Pt      3.19273869      4.99954294      6.71438265
Pt      3.23910571      0.17652171      6.75306772
Pt      7.48586835      7.52429161      6.71425627
Pt      4.52940877      2.69407284      6.75673226
Pt      1.83526090      2.67199098      6.87883840
Pt      0.53853224      5.10398312      6.87481198
Pt     10.12885120      2.69436927      6.76446157
Pt      6.10970996      4.96653204      6.80612996
Pt      0.55922922      0.17461240      6.85092168
Pt      1.95185261      7.46265477      6.77558117
Pt      4.77717659      7.43884773      6.91622390
O       6.00466576      4.99562799      9.05986116
H       8.93174992      2.72567730     10.90539872
O       2.39170370      6.75714736     10.14001718
O       0.66429574      4.96381440      9.06877131
H       4.14881830      3.23516020     10.43293292
H       5.22741332      8.02373066      9.54595811
H       7.10603497      6.70154158      9.81037454
O       0.80992573      0.03599151      9.01310293
H       1.88217823      7.59749022     10.22928847
H       5.33518561      5.70910429      9.09977677
O       8.78684693      0.21326758      9.11911686
H      11.27260953      9.16430309      9.49685804
H      10.94923995      5.31819591      9.60982392
H       0.80364617      1.01194167      9.35311977
H       1.37535874      5.61889330      9.25186652
H       6.50733822      2.02061372      9.07206859
H       0.80073894      3.21290271      9.47891277
H       9.09669917      1.05467175      9.62511913
C       7.15598084      5.55398771      9.82307751
H       2.48610604      6.39973645     11.12174928
H      10.37035782      2.17565308     11.17069678
O       9.81883358      2.58185098     10.51017725
H       3.73683535      7.07722052      9.65049238
H       7.93778993      9.56360071      9.58664373
H       8.10792048      5.23950315      9.33858528
O       4.64763372      7.21450527      9.16547584
O       3.30445443      3.32029417     10.94905442
O       1.37719959      2.41794445      9.43548792
H       2.09488499      2.73630832      9.97491640
H      10.07389290      6.78893596     10.68261835
O       9.88861343      5.83487785     10.47250567
H       3.42306309      2.67685998     11.71022014
O       6.09111866      1.89451239      9.97239093
O       2.96842879      5.86789895     12.41705463
H       3.28781102      4.92622036     12.16708313
H       7.13910401      5.08696101     10.79068496
H       4.81596896     10.03766383     12.79831048
H       6.54553925      2.44045222     10.65993550
H       9.88677108      5.30155992     11.26456166
H       5.92853034      9.08522350     11.19117786
H       6.00159900      9.90427410      9.86352731
O       6.28621185      8.95658161     10.23811390
O       5.46079900      9.33186422     12.76869681
H       2.14836276      5.66957375     12.95477987
H      11.33071214      0.78408294     13.14376067
H       5.10454969      8.57087992     13.31319722
H       7.76320075      9.95679277     13.36874137
H       9.73915636      8.88123403     11.27836419
H      10.79834681      2.04661968     14.16173614
O      -0.64027102      8.36228974     10.92811044
O       8.22892365      0.59015559     12.57060151
O      10.76219015      1.60552847     13.20988141
Cl      1.37536766     -0.95651363     13.10256671
H       4.54393092      2.43812709     13.56249059
O       9.35033757      4.95117801     13.21548003
H       8.92457091      4.08244885     13.19190290
O       0.80633860      5.07822033     14.06902734
H       1.18279763      5.82204486     14.55554331
O       7.44701814      3.02782893     11.98912316
H      -0.05411634      8.27357359     11.75124343
O       3.75540351      2.02425977     13.18025764
H      10.19968287      4.78204951     13.65662095
H       7.54168711      2.05177130     12.24721147
H       6.74419266      3.39586477     12.62075702
H       9.07232314      0.94354319     12.95376038
H       6.24392752      3.66865948     15.02389805
O       4.85776718      6.19990814     14.09676708
H       0.89132334      4.39425718     14.76291419
H       3.97700587      6.10343612     13.50508499
H       1.89978742      7.67805424     14.67184364
H       3.19816455      2.09763029     14.02930137
H       8.14759721      5.95874000     13.78250409
H       3.21592127      4.66701373     17.38178317
H       4.52430505      6.60017079     14.94082123
H       6.58637547      6.42613473     14.06287200
O       5.73474708      3.70089918     14.20581246
H       5.33489323      4.58473820     14.20116378
O       3.81034393      4.19178594     16.81250856
O       2.25799733      6.88866437     15.20974310
O       7.54047049      6.51068205     14.36034371
H       3.33598954      3.46085351     16.33806107
H       7.86358701      8.36856806     14.83415730
Cl     -0.25554270      2.85888082     15.96091521
O      -1.51092114      9.56180121     16.77525025
O       7.53767180      9.26140435     15.15632849
H      -2.28952640      9.51082949     16.12738569
H       1.66677445      2.01980668     15.77892176
O       2.73059949      2.00441694     15.75339635
H       1.60855341      6.85438279     15.94237216
H       4.90776488      3.34517486     17.63867473
H       6.22690414      2.66982478     17.90445287
H      -1.04405885     10.39147348     16.53979991
H       2.92442994      1.10723804     16.06613253
H      -0.47158562      8.10190868     16.47024265
O       5.43361002      2.89180262     18.33287303
H       6.58030754      9.04013784     15.45934837
H       7.84991658      6.40600089     16.16637221
H       7.98180123      4.20761501     16.72544551
O      -0.46552351      7.09249187     16.49114593
O       8.02917745      3.21538846     17.01945883
O       2.85655340     -0.34500002     17.31505757
H       9.83526541      6.92512727     16.99628748
O       8.12572998      6.29482174     17.18603186
H       2.87858491      0.36392499     18.02439691
H       8.98589182      3.09102369     16.75033342
H       2.15725525      8.69533981     17.58655000
H       8.47928159      0.75057732     18.76553027
H       0.54286479      7.32778401     17.70532084
H       3.62441677      2.05882516     19.32552477
O       8.42682554      0.34608305     19.63708322
H       7.38376758      6.79593599     17.70001899
O       1.18421347      7.54946255     18.48270118
O       2.86747340      1.39036635     19.32495553
H       2.08933600      1.87131426     19.67327369
H       8.03131498      1.03151350     20.24816849
O      -1.95349673      4.27269222     19.90387258
H       0.62890087      8.10665221     19.15478123
H      -0.10915598      3.15172032     19.83897001
H       1.85977304      6.05256529     18.89434331
O       6.12697010      7.24519976     19.14326379
H       8.88940736      4.09850597     18.97776324
H       1.27180923      3.74676107     19.33746187
O       0.86179366      3.17724759     19.98745186
H       5.60076437      7.97666328     19.59172993
H       5.41035354      4.09665524     19.38595778
H       3.03870678      5.16847218     19.34246754
H       5.63572607      6.43899798     19.49721309
H       9.02100648      5.24163542     20.09670394
O       2.21794855      5.10330582     18.79582864
O       0.62102808      0.52777187     22.67803358
O       4.90074420      4.84316021     19.86529134
H       3.87459502      0.19588154     20.57886692
H       7.79595918      7.20290604     20.33974980
H       0.78607762     -0.37978590     23.05574957
O       8.10460878     12.21382575     21.54542697
H       1.32018820     10.78601569     23.07897953
H       8.48259527     12.88044964     20.87263931
O       4.51667815     -0.53669649     20.76439743
O       8.64031403      6.83781271     20.74556228
H       4.65961689      4.53145883     20.77359379
H       7.12412564      2.68444096     21.74489459
H       4.32160859      8.64221064     16.75342415
H       1.36727602      4.14749674     21.45160140
H       9.40206523      7.52210029     20.49975935
O       5.16393075      8.23502582     16.44713205
H       4.94814240     -0.39269594     21.65089250
H       4.78102943      6.41796969     23.90573866
H       5.50692134      7.83370144     17.32740473
O       1.53148430      4.49696493     22.35309304
O       9.49996553     11.66597246     23.53645745
O       4.23197580      7.21407782     24.13506336
O       5.11314024      2.90371977     22.26582408
H       8.63823285      6.73166721     22.47356090
H       0.62550428      4.48760221     22.77711172
H       3.36828003      7.33985420     23.72753245
H       8.87221324     11.78755457     22.74195961
H       4.20436009      2.67341614     22.68042552
H       5.37274824      3.76661642     22.73492260
H       2.41066223      3.11380417     23.35903169
H      10.33657845      1.44743695     23.34399949
H       1.43483801      6.58981390     23.01083472
O      -0.45812018      8.92399804     20.21813987
H      -0.09586289      9.42598012     20.98670169
O       1.55373955      7.54770976     23.38213497
O       2.80509386      2.22748279     23.37923901
O       8.53663351      6.68446001     23.41666886
O      10.49488348      4.54915125     24.05271869
O       5.75027703      5.26552963     23.57993944
H       7.19261955      9.55120422     24.07200576
H       5.04028213      8.70598627     23.81320174
H       9.75136620      5.31330456     23.93406333
H       6.71389629      5.49298665     23.53030294
H       9.99711984      9.53084624     19.79599186
H       8.58054696      7.64662754     23.70015680
H       4.95299410      0.56466325     23.60904073
H       8.59678148     10.38039756     23.97990220
H       3.12697486      2.06836208     24.31599011
H       1.29147865      7.40326047     24.37276872
O       8.16324672      9.41219710     24.23351964
O       5.60608665     -0.15475066     23.56430801
H      -1.19836980      3.64093958     24.03144554
H       5.80519954      4.68414176     24.43346346
Pt      2.67089299      9.25792044     26.65381228
Pt      5.40685593      9.18464194     26.67420277
Pt      8.17263407      9.18950072     26.45537392
Pt     11.02651011      9.20539211     26.54232403
Pt      8.24482209      4.36317000     26.63176970
Pt      3.83322540      6.89377946     26.42538311
Pt      9.59127575      6.72238604     26.69210029
Pt      6.95211749      6.79292171     26.62674858
Pt     10.95615409      4.35296626     26.43358156
Pt      1.04457392      6.83621814     26.67768651
Pt      9.62290819      1.93907920     26.55377292
Pt      6.86547058      2.15595889     26.56513465
Pt      2.64752077      4.37675287     26.65183922
Pt      5.30319865      4.47972090     26.70386171
Pt      1.22795471      1.97671232     26.67281052
Pt      3.99362432      2.00126197     26.46136146
