   246
 Tv_1:  11.152900   0.000000   0.000000 Tv_2:   0.000000   9.658700   0.000000 Tv_3:   0.000000   0.000000  26.829700
Pt      5.37643515      7.84349828      1.93879744
Pt      6.99818054      0.61631921      2.04781314
Pt     11.18826746      7.82735318      2.23714731
Pt      8.15039924      7.92331355      1.99713771
Pt      8.33219494      3.05414902      2.15756289
Pt      2.71560164      7.71580162      1.94592890
Pt      9.69121077      5.27975074      2.04971177
Pt      6.91748247      5.50144293      2.07096463
Pt      5.53546851      3.03492229      2.01453416
Pt      4.14393078      5.46722629      2.05846875
Pt      9.73392596      0.51831147      2.05651535
Pt      1.22088312      5.38241082      2.05583172
Pt      1.37752458      0.67850477      2.10298467
Pt      2.88164431      3.03081354      2.11709603
Pt      4.11129841      0.61238726      2.02340704
Pt     11.25478861      2.95692087      2.13771344
Pt      5.93044324      6.50818876      4.37548356
Pt      8.81037788      6.45320679      4.24693046
Pt      7.31312965      8.98739613      4.26647469
Pt      7.36261084      4.15941013      4.35971261
Pt      8.63339657      1.57648972      4.35475888
Pt      5.88281262      1.75766429      4.37920020
Pt     10.12747444      4.00328132      4.38405443
Pt     10.00641941      8.84248784      4.38100007
Pt      1.87736212      8.84376082      4.25437507
Pt      0.41692575      6.35204905      4.50667574
Pt      3.22278893      1.60452305      4.50884165
Pt      3.19269086      6.44453834      4.39107354
Pt      4.71547528      8.90352211      4.44005593
Pt      4.60714927      4.03156459      4.30851662
Pt      0.36996861      1.50808906      4.45381098
Pt      1.80182941      4.02129014      4.48579706
Pt      7.59380249      2.54043447      6.74096506
Pt     10.35926014      7.54776043      6.67746661
Pt      8.97443071      5.16680397      6.70402808
Pt      9.02257346      0.20141680      6.72021694
Pt      6.11238026      0.20505741      6.79296162
Pt      3.43403481      5.08841875      6.62084364
Pt      3.37398068      0.21897364      6.67539431
Pt      7.60760582      7.55035013      6.50926428
Pt      4.94769761      2.68784443      6.86348943
Pt      2.06694977      2.67454101      6.83791289
Pt      0.78578077      5.25183500      6.79365167
Pt     10.29748709      2.62613492      6.75315827
Pt      6.25586136      5.05406116      6.67117699
Pt      0.69213771      0.19136605      6.61414523
Pt      2.06607374      7.58085597      6.66776762
Pt      4.84726132      7.49033122      6.79117015
O       6.05639874      4.91282339      9.06686073
H       9.47805128      3.39338150      9.28872978
O       1.90719236      7.34171622     10.13303025
O       0.64757691      5.11057128      9.17330382
H       4.18577173      2.97823479     10.43932996
H       5.30157182      8.02654991      9.42520371
H       7.40391674      6.45964084      9.41771238
O       0.62083259      0.05196329      9.00608099
H       1.34871170      8.10405559     10.02552683
H       5.38388945      5.61961929      9.18025728
O       8.76955649      0.33052146      8.94366595
H      10.94689638      9.64777103      9.47287735
H      10.97024510      5.36536133      9.69148542
H       0.94247066      1.03986721      9.18303967
H       1.31532971      5.76195840      9.46721039
H       6.12086140      2.71027658      9.89910385
H       1.10835888      3.33513813      9.18705846
H       8.81219303      1.22346750      9.37740129
C       7.25724089      5.40191280      9.65099894
H       2.14330709      7.29084898     11.09419795
H      10.04002536      2.88391717     10.71261667
O       9.29218436      2.75838250     10.01246671
H       3.75552027      7.42380776      9.34969703
H       8.02851102      9.44872143      9.32334985
H       8.11045843      4.77220777      9.42696002
O       4.67215443      7.34780979      8.98726146
O       3.38167526      3.66143537     10.42944500
O       1.69820234      2.58017120      9.02202288
H       2.51327702      2.98604388      9.74006799
H       9.79925448      7.24384654     10.81826459
O       9.73176613      6.26432317     10.73901473
H       3.12213489      3.91750805     11.37314421
O       5.45016049      2.15531712     10.36995090
O       2.46883205      6.71018334     12.98617724
H       2.55637172      5.69509880     13.10481505
H       7.22008744      5.34854670     10.74358672
H       4.11813907      7.01315314     12.89386883
H       5.75070624      2.08421555     11.32097526
H       9.39032752      5.91577358     11.59717323
H       6.70786900      8.85053802     10.81522659
H       5.96636597      9.85170217      9.74002477
O       6.47171930      9.01069901      9.76143382
O       5.17035090      7.01504884     12.88709745
H       1.60405314      6.92691787     13.43694339
H      11.68040812      2.04640662     12.06325022
H       5.36215070      6.30682985     13.50921790
H       6.79529155      9.50470286     12.64772781
H       8.68289571      8.69924548     11.93560718
H      10.81359462      3.01499448     13.01599927
O      -1.61307040      8.91730081     11.49053993
O       7.01261616     -0.96349549     12.16426153
O      11.29592521      2.95772765     12.13424643
Cl      0.95308851     -0.09684640     12.85848720
H       3.17543908      3.36082480     13.50091102
O       8.74167295      6.20228988     13.96629761
H       8.74663795      5.18254503     13.87916117
O       0.20531140      6.97494410     14.60136354
H       0.34140881      7.94776994     14.47396158
O       6.37744901      1.69572551     12.84284821
H      -0.97464644      8.95936118     12.23110320
O       2.70080361      4.03850882     12.87177268
H       9.65085783      6.38146977     14.18825605
H       7.17447527      2.14182382     13.14657243
H       5.65789911      2.08865901     13.41783548
H       6.36545169     -1.74449280     12.36661088
H       3.99749890      1.74966355     14.88120662
O       4.48609039      7.57855649     16.39360270
H       0.51663289      6.80365758     15.50540719
H       4.25039250      6.68115410     16.19553823
H       2.36088332      9.62929787     14.79943342
H       1.75798761      3.76517570     12.67700969
H       7.69397239      6.75296645     15.07833761
H       4.86294185      4.66657829     17.13148029
H       3.82874860      8.14680216     15.92685847
H       6.30148037      7.09851611     16.08526286
O       4.34572077      2.51030561     14.43317139
H       4.51026245      3.27841030     15.03654239
O       4.44514257      4.71918302     16.17087083
O       2.86561075      9.70554727     15.65333886
O       7.31387849      7.07830927     16.05983660
H       3.43805935      4.68733825     16.37902397
H       7.53566535      8.79978963     16.36351988
Cl     -2.37253609      3.16656556     14.11617832
O      -0.88236046     10.43855835     15.37234086
O       7.87780034      9.69730457     16.67997355
H      -0.52688542     10.24958497     14.48979247
H       1.08910804      4.68777165     17.24728359
O       1.75927228      4.13839330     16.79885253
H       2.21669106     10.05112465     16.33275184
H       6.49452435      2.50383968     17.86252094
H       6.76419521      1.16130918     16.92908222
H      -1.16226620     11.37866803     15.20763886
H       1.32014109      3.34889103     16.57209259
H       0.40064638      7.05686390     18.23767192
O       6.04106889      1.84589587     17.24290001
H       8.57813279      9.94954225     16.04529412
H       7.80570687      6.23138419     17.44081276
H       9.07936828      4.44050741     17.67189306
O       0.21093613      6.34947790     17.54389707
O       9.61553413      3.73459014     17.25506129
O       3.45237357     -0.56961872     22.58525784
H      10.39692887      6.30492757     17.54482312
O       8.32710771      5.97215690     18.19964910
H       3.30675766     -0.13505853     21.72395186
H       9.36162912      3.53279243     16.34172769
H       3.31777546      8.14223999     22.40402828
H       8.28849765     -0.45831425     18.23266662
H       2.83480399      7.10100098     19.64614728
H       0.92463408      1.60177856     17.98168665
O       8.57236340     -0.54602512     19.17156456
H       8.17543228      6.53662010     19.05136635
O       2.68934040      6.80602350     20.57733907
O       1.09960903      0.76599585     17.44223065
H       0.27237624      0.64930016     16.89022318
H       9.52459220     -0.84789718     19.26672679
O       0.12657770      2.77323390     19.05197436
H       1.63882083      6.94128314     20.77727006
H       1.90668886      3.69364076     19.57958068
H       5.98138896      5.59264156     18.96552246
O       7.58337735      7.26355109     22.52866456
H      10.60994399      3.18945427     18.40878579
H       2.66982777      4.89915063     20.16731745
O       2.73771225      3.95539013     19.98920018
H       7.74295129      7.74806351     23.37835725
H       2.82208783      1.46283327     20.32797418
H       5.18132040      4.35093450     19.48395721
H       6.88489874      7.78942350     22.08841150
H      10.80883854      2.31008074     19.75022041
O       5.56621812      4.73673347     18.67444416
O       0.54021893     -1.19306865     19.10379261
O       2.87767978      0.49976751     20.30481811
H       4.62790674     -0.67752965     17.61619691
H       8.47264522      5.67139252     21.94693153
H       0.68615025     -0.82979434     19.99110610
O       9.52327265     11.11187789     20.57534905
H       0.71219396      9.24058199     18.44052007
H       8.99503766     10.51539664     19.94311261
O       4.77134650     -0.08137295     18.41136117
O       9.14343998      5.06185447     21.62484669
H       3.40127403      0.24387148     19.49377931
H       8.78061910      1.84822226     21.05832268
H       5.48002508      7.99642721     19.53827182
H       3.05549663      3.42503048     21.81624609
H       9.87849641      5.65394286     21.52714334
O       6.25063258      7.43381420     19.77469653
H       5.05796101      0.82337372     17.98721126
H       4.72953266      6.14491331     23.72687347
H       7.03835150      8.01302999     19.73554233
O       2.90318545      3.40638565     22.80322659
O      10.55532718      9.48434836     22.50812658
O       3.91268288      6.66235578     24.17559115
O       7.82445680      2.07370220     22.85280684
H       9.65738771      4.11626040     23.01801432
H       2.11453680      2.76301384     22.99489243
H       3.07866683      6.11501926     23.93170302
H      10.11943290     10.09982008     21.83242395
H       6.95224473      2.49785205     23.05483130
H       8.52819019      2.45293742     23.47225998
H       4.49142138      2.89343054     23.13057668
H      11.23647504      0.45357244     22.93437000
H       1.92476682      4.70869448     23.28434526
O       0.02472255      6.90504232     21.74209751
H       0.43344156      6.65710618     22.58565412
O       1.46645354      5.55565929     23.61324574
O       5.34925518      2.92895619     23.61305930
O       9.80675405      3.47281678     23.80334266
O      12.14261419      1.69011820     23.38660820
O       5.58378437      5.46796098     22.59955560
H       7.74898573     10.23325497     23.81972193
H       4.51015860      9.32232656     23.67621120
H      11.38595511      2.28717827     23.35743219
H       6.36459536      5.95831000     22.36799973
H      10.96072978      7.93484246     21.94376601
H      10.20552022      4.08562028     24.54268958
H       5.34087065      0.94662562     24.18408555
H       9.09846223      9.43509657     23.91781162
H       5.23389211      3.32331304     24.51150319
H       1.25420027      5.42814853     24.64604876
O       8.15537279      9.43583479     24.25871050
O       5.28351925     -0.03822009     24.32800005
H       1.01870351      1.50608598     24.36871731
H       5.82463458      4.60005569     23.09510166
Pt      2.59599359      9.18850870     26.46248748
Pt      5.32412978      9.17438426     26.48372115
Pt      8.12977942      9.16490338     26.47482049
Pt     10.92304978      9.28733545     26.55615900
Pt      8.06176691      4.36819673     26.49683637
Pt      3.77718246      6.72759277     26.35827353
Pt      9.63902204      6.77753840     26.61708892
Pt      6.77658315      6.79095013     26.50597729
Pt     10.91244428      4.46565172     26.48343478
Pt      1.07255562      6.84994409     26.47718076
Pt      9.50279252      2.00493674     26.63979523
Pt      6.81003837      1.99725359     26.63988660
Pt      2.51159007      4.33627068     26.57265816
Pt      5.39013166      4.39332039     26.43244698
Pt      1.06301654      2.00416202     26.57633923
Pt      3.80764179      2.02535397     26.56442120
