   246
 Tv_1:  11.152900   0.000000   0.000000 Tv_2:   0.000000   9.658700   0.000000 Tv_3:   0.000000   0.000000  26.829700
Pt      5.44546325      7.74526881      2.20290839
Pt      6.88649956      0.60005872      2.24291876
Pt     10.94638500      7.72457133      2.17686221
Pt      8.16305613      7.92553611      2.17975756
Pt      8.29807068      2.98806490      2.26703370
Pt      2.60889363      7.79237807      2.02121667
Pt      9.48526272      5.37694582      2.17967803
Pt      6.79708033      5.29722048      2.18808042
Pt      5.43480205      2.96185283      2.18775716
Pt      4.04097881      5.40118671      2.10473656
Pt      9.63937800      0.56996358      2.23974838
Pt      1.25187103      5.41068850      2.22856617
Pt      1.34389212      0.47691762      2.13639480
Pt      2.68104309      2.91463329      2.35475181
Pt      4.05760372      0.56570618      2.19443361
Pt     11.10536724      2.98920634      2.29954238
Pt      5.60289388      6.40453828      4.40531341
Pt      8.34848137      6.49205345      4.47796964
Pt      7.07466050      8.92856730      4.49854509
Pt      7.16899920      4.02584703      4.57405328
Pt      8.69283741      1.61138498      4.70582148
Pt      5.74834791      1.69999256      4.54722047
Pt      9.83767250      4.01960502      4.50963999
Pt      9.93784855      8.72716906      4.52994239
Pt      1.56342953      8.63625417      4.32358461
Pt      0.13000789      6.30432270      4.54617515
Pt      3.03093387      1.64254130      4.70450393
Pt      2.83429366      6.32326250      4.33387708
Pt      4.31959881      8.84249984      4.58296556
Pt      4.37523218      4.00442216      4.48054671
Pt      0.36490946      1.31858758      4.59894218
Pt      1.37778067      3.85211393      4.46428249
Pt      7.42775513      2.68577889      6.91433919
Pt     10.14759136      7.37476772      6.76895133
Pt      8.70565281      5.00454664      6.86547011
Pt      8.72505381      0.16799280      6.94774353
Pt      5.92688407      0.23451629      6.86710100
Pt      3.04404586      5.17751030      6.68513555
Pt      3.19945357      0.21723053      6.92482307
Pt      7.37583832      7.48458196      6.84959120
Pt      4.59209065      2.72571360      6.89971513
Pt      1.82835727      2.72436333      6.94383469
Pt      0.44009572      4.99096571      6.99409321
Pt     10.16139356      2.62787463      6.89592259
Pt      5.93832691      5.08255650      6.71078120
Pt      0.54638830      0.36403262      7.00735825
Pt      1.65598355      7.53974858      6.69682944
Pt      4.58389305      7.52682300      6.86722515
O       6.38351092      5.11794112     10.05939727
H       9.84389489      2.62565841      9.22011434
O       2.37192619      6.98156982     10.21616613
O       0.37395608      5.04613355      9.74831430
H       4.76646554      2.59910992     10.51694898
H       5.25376976      7.79233645      9.38191095
H       7.91955205      6.58667124     10.02117859
O       0.43339114     -0.42550166      9.05098579
H       2.06638468      7.83642980     10.70068319
H       5.73272381      5.76597528      9.53373096
O       8.84702154     -0.15631586      9.12017590
H      10.65649649      9.06701603      9.39097021
H      10.96925291      5.24822042     10.54564074
H       0.85492145      0.25709104      9.71044377
H       1.10217007      5.80049031      9.76810376
H       6.72030867      2.25088084      9.86056452
H       1.23933325      3.62574238      9.53164961
H       9.19141248      0.65079674      9.65121952
C       7.63734159      5.50620274      9.84211395
H       2.81074875      6.28131170     10.74585203
H       9.89988120      2.54879748     10.76185359
O       9.37219831      2.17063573      9.97642467
H       3.72501045      7.24692148      9.35779780
H       7.97080931      9.22245881      9.57343150
H       8.11927898      5.37124875      8.31552241
O       4.65353009      7.06270564      9.06470638
O       3.85076700      2.97847228     10.70453890
O       1.69508965      2.80742349      9.11005912
H       2.65714173      2.78741246      9.53058313
H       9.60523265      6.75250843     11.77557298
O      10.06629445      5.84662723     11.80097666
H       3.50146514      2.48323308     11.45353776
O       6.19326557      1.80389328     10.52957305
O       7.89258613      5.19128714     13.37761703
H       8.68810173      5.19206501     12.77291382
H       8.35061517      4.75861991     10.13186200
H       6.65924425      6.38119709     12.59419890
H       6.49294405      2.23987612     11.37692918
H      10.72848557      5.87786519     12.49048758
H       6.28983781      8.27002943     11.14068233
H       6.21937950      9.74262473     10.39665878
O       6.40763812      8.75380079     10.27095028
O       5.87033801      6.95027198     12.31516041
H       7.44012831      4.36539769     13.31379368
H      10.15367651      3.38735980     13.35010978
H       5.47234058      7.00778663     13.22570391
H       7.98711845      8.16287347     14.90565069
H       8.97245092      8.24979254     12.76476293
H      10.04384271      1.96040165     13.18199265
O      -1.81636534      8.21977305     11.83090194
O       8.84589985     -1.62703924     14.53684143
O       9.59833207      2.74196974     12.86821994
Cl      1.02521802     -0.29572560     11.87480873
H       2.51242125      2.32157872     13.50553252
O      12.82645044      6.06169689     13.07087233
H      12.63063329      5.41701236     13.76092460
O       3.70109440      5.20354571     11.84614204
H       3.77412283      4.27606685     11.45169113
O       6.99497070      2.79944263     12.77421373
H      -0.91788574      8.51238185     11.85714860
O       3.00376437      1.70049945     12.92492350
H      13.66417825      5.72411906     12.63170329
H       7.94923982      2.60989435     12.69726841
H       6.55748326      2.23263679     13.54749536
H       9.23389962     -0.74806544     14.66818322
H       4.62234235      1.30031358     13.75223885
O       4.78956186      6.63774466     14.69847719
H       4.52546619      5.73362567     11.93974349
H       4.72904980      5.98575871     15.41960727
H       5.81148475      7.96759887     15.32511769
H       2.34609611      1.07731691     12.56026053
H      10.21330317      4.79143504     15.53468399
H       4.72206148      5.87237575     17.68588560
H       3.88052792      7.11815560     14.79791722
H       8.93403041      5.25359723     14.91129425
O       5.52923117      1.22161645     14.24061887
H       5.43805258      1.62707683     15.17387343
O       4.67770266      5.12278650     16.96919183
O       6.49101393      8.65609365     15.58127093
O       9.25040888      4.95610874     15.77990922
H       3.74712637      4.80670561     17.21328051
H      11.35097864      9.91687970     13.93481129
Cl      0.86902727      3.66017521     14.70159168
O       2.43231961      7.75496163     15.20200378
O      10.76701890     10.42497012     14.57034320
H       2.02587653      7.45799332     14.30507787
H       1.62209369      3.74011476     16.81440229
O       1.96893905      4.20521113     17.58512805
H       6.27032643      9.43692787     15.04149347
H       5.38527086      3.65921779     16.79959018
H       6.82455899      2.85997565     16.76514011
H       2.46785772      8.70536420     15.39257755
H       1.50247103      5.08265297     17.44822449
H       1.31177120      7.39052288     16.60243675
O       5.83480279      2.79426655     16.51484215
H      11.31158353     11.13818126     14.93712828
H       9.19540351      6.19739413     17.31740270
H       8.80983346      3.53229974     16.71113126
O       1.02275355      6.82259622     17.38407723
O       8.63714993      2.73133712     17.26171829
O       3.29911918      0.44374302     16.48541829
H      11.18536536      6.82994005     17.29877315
O       9.62708766      6.80160323     18.05626292
H       2.64674985      0.62036751     17.20775693
H       8.93039707      1.82474373     17.01206997
H       3.96760000      9.56615886     17.00226835
H      10.06615077     -0.07142833     16.50324389
H       1.58589213      7.48834757     18.85711229
H       5.27484556      1.14453385     18.69270357
O       9.75454828      0.27212590     17.39229096
H       9.11323263      7.62956241     18.17742438
O       2.11435234      7.79657659     19.62192995
O       4.50614379      1.64037462     19.00681050
H       4.37667992      2.23702143     18.25182607
H      10.60757409      0.53984133     17.78246440
O      -1.43211819      2.87890811     19.52666468
H       1.53884228      7.63833744     20.33995334
H       0.33080641      2.94088480     19.71626735
H       3.79982694      7.03437105     19.50398899
O       6.53931550      5.48198392     20.88024757
H       9.28640559      3.14628766     18.65933306
H       1.62361076      3.63715816     19.13942823
O       1.35071145      2.99752678     19.85414157
H       5.90608610      5.74577998     20.16658371
H       5.02980942      2.95839852     21.70762792
H       5.22849401      7.62696353     19.31274814
H       6.21176214      4.47876108     20.93156293
H       9.51642187      3.57757761     20.21289817
O       4.74279816      6.74397955     19.35359196
O       1.56909234      0.71110346     18.47258743
O       5.65696044      3.03047656     20.98084666
H       4.90222285      0.14565397     20.93010280
H       8.32150722      5.29392078     21.06901260
H       1.96693457      0.02880958     18.99864291
O       8.00516626     10.09524973     20.08181263
H       1.66596994     11.15966251     19.04563308
H       8.15470395     11.02938190     19.78812634
O       5.66034460     -0.12781153     21.58779849
O       9.30593482      5.04270687     21.27797104
H       5.25160595      2.54205604     20.21967008
H       7.24107709      0.43115719     20.73137519
H       6.48932067      8.76481658     17.37739973
H       1.96867608      3.18607973     21.60187244
H       9.88464963      5.78106888     21.71829821
O       6.17389904      8.85752514     18.33525235
H       5.40745916     -1.02678623     21.86253972
H       4.94527815      7.19809650     23.75914566
H       6.85194743      9.26647612     18.97196210
O       1.87554753      3.12217345     22.58540823
O       9.73139772      9.15392998     22.15420437
O       4.02434162      7.15014858     24.27423974
O       6.93806921      1.75315694     23.60139646
H       9.18986683      4.07548392     22.67400237
H       1.07859957      2.52802264     22.69062543
H       3.54567059      6.42016041     23.75157920
H       9.18050542      9.59036209     21.46563097
H       6.01400311      2.00420685     23.32369196
H       7.47173847      2.53312043     23.22874916
H       3.16516655      2.52108045     23.27171507
H      10.30940871      0.26949379     22.42413699
H       1.95955664      4.57775011     23.23181779
O      -0.07766009      6.90878017     21.93883029
H       0.48237756      6.64426050     22.63098877
O       2.05407752      5.46944556     23.69440561
O       4.10175798      2.10411711     23.49970666
O       8.98633120      3.41845257     23.39976884
O      11.01919624      1.60340621     23.17728551
O       6.12045941      7.20084168     23.01805018
H       7.46208188      9.94545825     23.97962968
H       3.26273322     10.11635730     24.08326847
H      10.33603613      2.30225456     23.39435876
H       6.48289074      6.50249473     22.36091826
H      10.66445223      7.83727450     22.02605517
H       8.94117186      3.97323026     24.21293924
H       3.08998300     -1.12416076     24.16777853
H       8.56525768      8.95307336     23.46807093
H       4.19241676      2.31181177     24.48085438
H       1.92924719      5.32859491     24.68217800
O       7.84097522      9.00095299     24.10127062
O       2.64435101     -0.19994356     24.32453035
H       0.16490910      1.16837329     24.05822645
H       6.82480387      7.71270043     23.47926616
Pt      2.33194936      9.34904159     26.48593837
Pt      5.32075792      9.18176234     26.78834924
Pt      8.13198786      9.26366331     26.59774274
Pt     10.75869667      9.28176515     26.72786207
Pt      8.04076256      4.40098142     26.60520193
Pt      3.94942221      6.78939327     26.56106568
Pt      9.39754530      6.82439841     26.75557169
Pt      6.71447460      6.79503948     26.66578921
Pt     10.78642584      4.44930653     26.69344955
Pt      1.14858104      6.91914207     26.70401141
Pt      9.37750154      1.95540867     26.64729820
Pt      6.64875159      1.91184182     26.61542231
Pt      2.26550206      4.56478360     26.76032917
Pt      5.36702360      4.32721977     26.64942561
Pt      1.02102949      2.11643594     26.65830973
Pt      3.83402636      2.10517368     26.69159930
