   246
 Tv_1:  11.152900   0.000000   0.000000 Tv_2:   0.000000   9.658700   0.000000 Tv_3:   0.000000   0.000000  26.829700
Pt      5.54850184      7.89015164      2.23132717
Pt      6.88692018      0.64625899      2.16277089
Pt     10.98635480      7.73616535      2.29044172
Pt      8.20889779      7.85810655      2.10969636
Pt      8.18954689      3.00877253      2.24161454
Pt      2.66704887      7.80635658      2.05289476
Pt      9.72978815      5.34199891      2.25513751
Pt      6.86289963      5.51386651      2.17758799
Pt      5.38420997      2.95785411      2.02386988
Pt      4.02305789      5.54096471      1.96440363
Pt      9.59059893      0.50716421      2.13268468
Pt      1.18942635      5.45608663      2.10575683
Pt      1.09443263      0.53807752      2.08315724
Pt      2.65540446      2.94312197      2.21936545
Pt      3.98168922      0.55804894      2.19425084
Pt     10.90591938      2.86575843      2.31224383
Pt      5.66468994      6.46232985      4.46881792
Pt      8.52444209      6.49124896      4.47274316
Pt      7.16087888      8.81553925      4.53315994
Pt      7.13735282      4.08043542      4.41723648
Pt      8.61159832      1.50847162      4.44982310
Pt      5.78740995      1.70467470      4.51016371
Pt      9.77455322      4.09840089      4.49965557
Pt      9.99878859      8.84660917      4.52621524
Pt      1.66997347      8.88758862      4.42791017
Pt      0.29219635      6.36900416      4.47010949
Pt      2.96344134      1.68573072      4.58714992
Pt      2.91456497      6.47539002      4.36831415
Pt      4.49678850      8.92820001      4.52356041
Pt      4.22959276      4.03673392      4.27931120
Pt      0.30377618      1.48625021      4.47049035
Pt      1.33818458      4.01072511      4.38644203
Pt      7.38041575      2.62331350      6.80181948
Pt     10.12946821      7.31230118      6.70797429
Pt      8.77442515      4.98432540      7.00078485
Pt      8.69975672      0.18338867      6.88353671
Pt      5.90846363      0.19535742      6.81832653
Pt      3.21063224      5.04848252      6.64654541
Pt      3.25986068      0.15541460      6.89014227
Pt      7.37673130      7.45017542      6.89781428
Pt      4.60929957      2.62367083      6.85586133
Pt      1.76441038      2.54409573      6.72391981
Pt      0.54885242      5.03813700      6.92677722
Pt     10.17559324      2.58884850      6.67040362
Pt      5.98985488      5.01984725      6.69404817
Pt      0.49074389     -0.02259354      6.99631493
Pt      1.80701884      7.43249957      6.68403642
Pt      4.54489383      7.42518525      7.00738667
O       6.15418269      5.08396388      9.89450908
H       9.00314153      3.05335479      9.30185268
O       2.29994652      7.67404317     10.18935872
O       0.97377188      5.20743183      9.47716231
H       4.64606387      2.60070370     10.49588041
H       5.76040830      8.64202265      9.89510049
H       7.65931380      6.55309471      9.84906085
O       0.49774199      0.04534560      9.28471319
H       1.67658734      8.34863698      9.84123415
H       4.87680168      6.49062045      9.35468667
O       8.80835974     -0.17767937      9.13213470
H      10.69887367      9.59012009      9.56368532
H      11.50527530      5.62895839     10.13716740
H       0.69515939      1.05360107      9.51727722
H       1.80946936      5.83397846      9.61536479
H       6.28034333      2.50892312      9.24996522
H       1.27595973      3.56351949      9.53296743
H       8.84032218      0.79563471      9.41802543
C       7.32300384      5.42280388      9.76717732
H       2.56201833      8.00620171     11.11942610
H       9.58655352      2.50643370     10.57832872
O       8.89078714      2.29730434      9.92509059
H       3.67571285      7.68803795      9.57169961
H       7.90740161      9.21698911      9.39566041
H       8.21579152      6.50379418      8.04062717
O       4.57872864      7.39887297      9.10136448
O       3.74586140      2.97564771     10.69645790
O       1.51721544      2.59939459      9.54293248
H       2.51507406      2.58201544      9.79883846
H      10.73381730      7.38643866     11.34349228
O      10.73109668      6.39968688     11.39180075
H       3.46876244      2.59178526     11.56454847
O       6.18045815      2.11079222     10.18986261
O       8.70623074      5.25809205     12.63911034
H       9.52571774      5.55954769     12.19933210
H       8.25068237      4.84520098      9.72360167
H       8.09964474      6.03756474     12.75291459
H       6.71804130      2.65974631     10.78035673
H      11.23421048      6.16679849     12.22012703
H       6.59429803      7.86991821     12.21998283
H       6.32967709     10.04036888     10.44149054
O       6.47966761      9.04547417     10.41909767
O       7.19269159      7.61008500     12.95265324
H       8.19529289      3.76856715     12.61772999
H      11.44971057      2.54439177     11.22267427
H       6.59398699      7.55963867     13.70763259
H       7.63581401      9.78158193     13.31061678
H      10.12070099      9.85659775     12.25142792
H      11.00467070      2.66362104     12.70682649
O      -0.43082237      9.26967335     11.76518452
O       8.30792648      0.82604732     13.22871680
O      10.67373434      2.53967686     11.80305265
Cl      3.27655671     -0.94100433     12.82000858
H       2.43225150      2.44991131     13.46911411
O      12.28062151      5.88978502     13.44650231
H      12.14739740      5.03861806     13.88779753
O       3.50659869      5.64118911     11.86288506
H       4.00698665      4.91453241     11.41110503
O       7.45665555      3.03981722     12.60014283
H       0.44610815      9.42151946     12.27873244
O       3.29002307      2.02779602     13.16798717
H      13.12241693      5.90148891     12.92300989
H       7.85894128      2.13419514     12.92557164
H       6.67688189      3.24039108     13.22229633
H       8.79835152      0.82471284     14.10892968
H       4.57343115      2.93692688     13.93971990
O       5.09786781      7.32210517     14.96275405
H       4.28770784      6.21826100     12.08104426
H       4.71253221      6.84282807     15.77198171
H       5.21385854      9.53292281     14.89661001
H       3.16633853      0.98199072     13.14921463
H       9.56804416      3.66932816     15.40493249
H       4.39557897      6.36545434     18.14883237
H       4.30748834      7.35890005     14.37662968
H       8.29321629      4.50976400     15.84052646
O       5.44715334      3.40912194     14.09246449
H       5.57740499      3.51203057     15.07999012
O       4.14724747      5.96597005     17.27535727
O       5.97576883     10.14734746     15.01951098
O       8.54558636      3.65930179     15.35969569
H       3.12183452      5.92975132     17.39340234
H      10.74056001      9.30298720     15.11491997
Cl      0.77227998      3.15878036     14.85766769
O       0.72877568      8.10768091     15.09372744
O      10.07629101     10.01545801     15.26707786
H       0.88761068      7.35166323     14.48398526
H       1.67447440      4.49552848     16.72841938
O       1.69804506      4.88294417     17.64642336
H       5.64875427     11.02697510     14.90621112
H       5.03444935      4.54608536     17.17246734
H       6.23519013      3.65277263     17.36200248
H       1.60322817      8.41250810     15.38847673
H       0.85706495      5.45553188     17.54556310
H      -0.16212941      7.23824257     16.69892107
O       5.39738950      3.69344885     16.87491166
H      10.62747490     10.81667023     15.44478165
H       7.73082885      5.82012666     18.07122897
H       8.02974771      3.07902204     17.03406666
O      -0.39069831      6.60590766     17.46047810
O       7.62305014      2.96689926     17.91401617
O       2.84455296     -0.24932492     16.51439363
H       9.70642784      6.53768734     17.34875063
O       8.05362022      6.08838325     17.14917783
H       2.40865026      0.04692070     17.37894971
H       7.97339254      2.08775748     18.23425205
H       3.64085194      8.97086430     16.80480124
H       9.42236015      0.41683484     17.35498653
H      -0.21850715      7.62970798     18.86330845
H       4.36341053      1.90693184     18.25270668
O       8.85539279      0.54905231     18.16620197
H       7.61620730      6.93895711     16.96014916
O      -0.25218424      8.34408170     19.58784457
O       4.40460993      1.66745716     19.18450141
H       3.48209308      1.57298380     19.38587821
H       9.26084585      0.11133230     18.96141320
O      -1.51451222      3.89510432     19.32652232
H      -0.10757500      7.76859296     20.44552129
H       0.03865348      3.23801664     19.43408758
H       5.49156119      8.47573441     20.16802624
O       7.22618273      6.05658904     19.63718654
H       8.79726149      3.60894801     18.85709696
H       1.34553707      3.53376422     18.60176528
O       0.99766019      2.93635826     19.36380013
H       6.56651237      6.80003822     19.70786103
H       5.65553428      3.93163117     21.61659910
H       5.68068134      8.35232220     18.65499580
H       6.73700991      5.15490269     19.81422062
H       9.42824299      4.63123306     19.93437587
O       5.31210632      7.80848222     19.39678773
O       1.73997329      0.29333687     18.94105808
O       5.90741703      3.94087309     20.69506333
H       5.27264381      0.87977237     20.28172223
H       7.98364881      5.75342929     21.02835595
H       1.11927651     -0.43791170     19.23069158
O       8.80951910     10.35727299     21.07334905
H       1.29408488     10.75596195     19.03682169
H       9.04263766     11.22500878     20.80575123
O       5.84767296      0.42905254     21.02791633
O       8.50819290      5.48439752     21.91937002
H       5.64721239      3.07823954     20.23215823
H       7.83147177      0.70012064     21.03313108
H       6.68277141      9.35082731     16.53650868
H       1.73441943      3.16392328     20.88456147
H       9.40391323      5.98723385     21.90808063
O       6.82766635      8.77155959     17.33942237
H       5.28139799      0.38546284     21.84522847
H       4.74873019      6.51828988     23.90657105
H       7.61640230      9.17292173     17.85130919
O       1.82173845      3.16765537     21.91684823
O       9.99525700      9.14624710     23.27340982
O       3.88883537      6.85109778     24.14248229
O       6.74493352      2.13377941     24.15935705
H       8.79293247      4.17277941     23.01074146
H       1.06244450      2.67540616     22.29594063
H       3.18032655      6.26373172     23.70112669
H       9.79340673      9.45624620     22.41341760
H       5.85665500      2.45148470     23.84553603
H       7.49895551      2.67307512     23.82095052
H       3.69784695      3.31477123     22.60121861
H      10.63444625      0.16110746     23.58948751
H       1.81814509      4.63765608     22.60026042
O      -0.40855724      6.86079552     21.96287889
H       0.39801707      6.31730472     22.21558380
O       1.82483295      5.52914190     23.15081210
O       4.38976997      3.40656609     23.25094699
O       8.86811063      3.33786301     23.59519390
O      11.09318026      2.01965047     23.59703444
O       6.27815777      6.68713183     23.31194706
H       7.28912571     10.10560053     24.15713062
H       4.65370016      8.72453300     23.64521059
H      10.32457370      2.61179679     23.77965347
H       6.94821817      6.11158818     23.01435250
H      10.60829802      7.57574281     22.67244682
H       9.01395322      3.63327535     24.55284509
H       4.48203777      0.37925725     24.25180768
H       8.67624853      9.23117510     23.96002681
H       4.00058211      3.28742318     24.14326007
H       1.33759184      5.41169162     24.09216439
O       7.74292315      9.19336293     24.36765891
O       4.77220390     -0.01601780     23.41645324
H       0.54213282      2.21568100     24.33300731
H       6.74397511      7.53022956     23.48918489
Pt      2.54052802      9.15908138     26.60105476
Pt      5.44125029      9.19281359     26.68252875
Pt      8.13659720      9.19955005     26.49211192
Pt     11.01394794      9.21940282     26.60329742
Pt      8.05260174      4.50008204     26.58112648
Pt      3.86026179      6.75222105     26.40117892
Pt      9.59885976      6.68958004     26.73770359
Pt      6.78505273      6.79784543     26.70143069
Pt     10.82891688      4.36050119     26.55253614
Pt      1.20229045      6.77166262     26.62122543
Pt      9.34661232      2.00694959     26.77939402
Pt      6.49165749      1.98539584     26.51957320
Pt      2.36882868      4.29285980     26.66348812
Pt      5.33526363      4.34159183     26.56982961
Pt      1.14837092      1.97859957     26.66117946
Pt      3.76960495      1.88335728     26.54141266
