   246
 Tv_1:  11.152900   0.000000   0.000000 Tv_2:   0.000000   9.658700   0.000000 Tv_3:   0.000000   0.000000  26.829700
Pt      5.59531857      7.78388215      2.17314081
Pt      6.93542397      0.56819669      2.06681078
Pt     11.14053132      7.93073722      2.08599994
Pt      8.34396138      7.91243238      1.97557313
Pt      8.33699140      3.05368362      2.10748406
Pt      2.87111157      7.98168179      2.26736453
Pt      9.69470074      5.55411057      2.09776615
Pt      6.90518154      5.42982848      2.18107337
Pt      5.50200036      2.97586022      2.22138268
Pt      4.05111038      5.52294592      2.19181289
Pt      9.80389627      0.62610019      2.11155348
Pt      1.45126306      5.57538166      2.16130145
Pt      1.35269921      0.67489657      2.06535588
Pt      2.64075761      3.12973956      2.26961077
Pt      4.13028051      0.64717836      2.28651023
Pt     11.09171333      3.11799074      2.14019914
Pt      5.66886902      6.43480436      4.57849519
Pt      8.49692140      6.40988450      4.37028443
Pt      7.10261822      8.73782609      4.30122666
Pt      7.17662672      3.99353614      4.47543428
Pt      8.49918857      1.57904871      4.44121470
Pt      5.87691264      1.57598964      4.49749625
Pt      9.98509208      4.04206414      4.37724642
Pt      9.88145380      8.94718329      4.50154198
Pt      1.36156218      8.88427833      4.45625625
Pt      0.17285367      6.46673690      4.47444074
Pt      2.92664913      1.70335249      4.56457179
Pt      2.94927946      6.49702526      4.50869624
Pt      4.29256399      8.91021603      4.65617651
Pt      4.34242889      4.04365537      4.45560350
Pt      0.14059545      1.64700725      4.39357927
Pt      1.57223378      4.05463484      4.61511175
Pt      7.24868777      2.52259305      6.70920503
Pt     10.07010503      7.27214978      6.60581907
Pt      8.61429830      4.92802426      6.78973801
Pt      8.69783259      0.10920552      6.76325548
Pt      5.78693507      0.12386542      6.67361757
Pt      3.21392020      4.91655264      6.83431669
Pt      3.05150579      0.05950436      6.92489653
Pt      7.32952731      7.39961114      6.61949574
Pt      4.55954132      2.52343820      6.93092793
Pt      1.61797431      2.46133244      7.06476334
Pt      0.46675161      4.88917269      6.87320793
Pt      9.98943211      2.55216100      6.75280286
Pt      5.95229151      4.97427773      6.91119071
Pt      0.42855182     -0.06734081      6.99885863
Pt      1.70516437      7.28622122      6.80343384
Pt      4.63172731      7.30588550      6.89687243
O       4.97946866      5.19938433      9.55109448
H       8.24486214      3.10327170      9.10147885
O       1.61863880      7.45644003      9.99575240
O       0.21540137      5.20565147      9.29269634
H       3.82357220      2.06723990     10.29726201
H       5.34334020      8.25898375      9.61719058
H       6.91351802      6.01788638      9.22569857
O      -0.10806115      0.02638785      9.24837207
H       0.96506571      8.11920631      9.62859811
H       4.61805018      6.15414091      9.34449049
O       8.36916035     -0.00474658      9.08632357
H      10.03563956      9.67408299      9.34046169
H      10.60380443      5.78432666      9.54029106
H       0.12229018      1.01607602      9.35863104
H       0.85011272      5.95126910      9.51081290
H       6.05646281      1.92295983      9.72580938
H       0.62519403      3.29149303      9.43451458
H       8.27942456      0.94627464      9.37581158
C       6.25790270      5.11997052      8.99514273
H       1.65107129      7.59201529     10.93269187
H       9.03812703      2.60217438     10.44825852
O       8.14112246      2.47276415      9.84867967
H       3.21916007      7.57537518      9.17888796
H       7.69539436      9.09258834      9.51456394
H       8.37152770      5.04332028      8.37198228
O       4.14731179      7.48473468      8.89353459
O       2.95221201      2.44215526     10.68595331
O       0.93635055      2.39086629      9.34409216
H       1.88059688      2.45684642      9.93164099
H       8.83822832      7.54897502     11.01334780
O       9.18823601      6.65775245     10.81380331
H       2.89784145      2.17246781     11.59567840
O       5.29786764      1.38798739     10.04722363
O       7.11459178      4.95107928     12.24107781
H       7.44332870      5.26155458     11.40544354
H       6.58869175      4.11532126      9.22701836
H       5.66263176      6.27346955     12.55304792
H       6.86209052      1.65606327     11.76942464
H       9.50420506      6.35468869     11.68309957
H       5.73972151      8.18982210     11.16056603
H       5.64904789     10.11474864     10.00255264
O       6.11106796      8.48435398     10.27766756
O       5.25361130      7.16238922     12.47578442
H       7.21130397      3.94345290     12.28995457
H      10.73564160      3.26623912     11.71158601
H       4.74332534      7.20278669     13.35575808
H       7.33172180      9.63729308     14.49346152
H       9.02149216      9.77504185     12.62849152
H      10.19318718      1.58878194     11.73339303
O      -1.58893494      9.40422052     11.84908011
O       8.11255512      0.52419855     14.15222596
O      10.01060126      2.56885271     11.55286396
Cl      1.08929729     -1.29810864     13.12364653
H       1.48533318      2.62939198     13.31180420
O      11.54114738      4.60316833     12.24308949
H      11.35350851      5.06665381     13.07781762
O       3.04626454      5.10842778     11.70838040
H       3.37074221      4.46767833     11.03946813
O       6.82676603      2.25705015     12.50817201
H      -0.77393940      8.98141782     12.23265783
O       2.13886248      1.98093897     13.26701961
H      12.25531157      5.11225920     11.82221353
H       7.34547864      1.89742146     13.19933574
H       5.36048882      2.59336529     13.71378761
H       8.71254941      0.69033344     14.94198958
H       3.82664716      2.38295031     14.15639851
O       3.70563977      7.31921362     14.73556456
H       3.74699346      5.84446608     11.80090232
H       3.97645464      6.73323807     15.46506674
H       4.69521723      8.98719500     15.04943153
H       1.65643160      1.02490196     13.26573223
H       9.45393691      4.88283124     14.78289692
H       4.20049706      6.54656585     18.08167324
H       2.74851480      7.40273294     14.76684160
H       8.35332628      5.16152207     13.72337923
O       4.78263025      2.46671147     14.47442348
H       5.28440401      3.23989629     16.41085002
O       4.09723522      6.07163126     17.26105170
O       5.53885700      9.54679091     15.13426665
O       8.96110902      5.57769011     14.37419573
H       2.25047091      5.77304019     17.32346410
H       9.76301657     12.41476758     16.39443115
Cl      0.11132542      3.63246715     15.28159926
O       0.21924651      9.32098116     15.67701315
O       9.01242283     11.78818437     16.52109016
H       0.49607624      9.02992593     14.75776196
H       1.20937188      4.87719663     16.75363973
O       1.35035658      5.43105156     17.55409148
H       5.28623866     10.51089969     14.95848618
H       4.63629559      5.24606403     17.44244658
H       6.30594693      3.88783303     17.41243738
H       0.90997759     10.13617007     16.18148210
H       0.32824579      6.71533598     17.10266376
H       0.02374740      8.47966463     16.23549971
O       5.34598432      3.60593962     17.28931619
H       9.16698067     11.30140567     17.36567657
H       8.36001965      6.42653301     16.03345737
H       8.16953595      4.93660163     17.81266291
O      -0.25093663      7.47787543     17.24688831
O       7.79330688      4.02416175     17.89076094
O       1.42868089      1.43674814     16.70447221
H       9.94994289      7.10803155     16.96589363
O       8.40405103      6.58831740     17.04982471
H       0.91217377      2.09448463     16.20372872
H       8.14930003      3.34942559     17.25759708
H       1.34247454     11.34312830     17.63065499
H       9.77645300     -0.09447725     19.30063639
H       0.05164597      8.08661968     18.77449260
H       4.48777337      2.81432871     18.82349905
O       9.24279536      0.63278887     18.84006861
H       7.93729685      7.41537217     17.19267908
O      -0.17013006      8.70431307     19.54224358
O       4.13826117      2.68725134     19.75065863
H       3.27129464      2.32258315     19.75426283
H       8.95752162      1.28991457     19.50815850
O      -3.00568050      2.47399615     20.52335026
H       0.14498492      8.16211720     20.33504132
H      -0.47200229      4.62985977     20.07268470
H       3.72025956      7.47049448     20.49939549
O       7.19073883      6.43867935     19.86782968
H       8.03472724      3.15177157     19.80430787
H       0.90299069      4.85442338     19.20470851
O       0.47510208      4.33713193     19.95093414
H       6.87444449      7.11647642     19.18055218
H       5.07414249      4.90992243     21.84890352
H       3.89213300      8.93459994     20.16863582
H       6.38434996      6.12352392     20.35630800
H       7.23924293      2.13549291     20.78015913
O       3.41205778      8.15953152     19.87091231
O       1.30665515      1.66127040     19.47634946
O       5.03341419      5.41476143     20.98114434
H       4.89367307      1.72823221     20.83930399
H       8.67452001      5.60758889     20.98338600
H       0.94644937      0.73457811     19.67420398
O       7.22633693      8.91502517     21.69252496
H       0.70261099     12.00253354     19.99362846
H       6.47839364      9.53822960     21.39112011
O       5.53032874      1.32190015     21.48125683
O       9.48577445      5.15838778     21.38043191
H       4.73030836      4.65926927     20.42144352
H       7.21672636     -1.45198095     21.02027692
H       6.74680732      9.28272975     17.30503902
H       1.65796367      3.65841206     21.25885994
H      10.06862650      5.94535773     21.61995698
O       6.97764965      8.81933778     18.13224079
H       5.01188210      0.81693017     22.16172336
H       5.11956269      6.91613580     24.11638410
H       7.75188836      9.42994324     18.45644862
O       2.01802807      3.53683397     22.20654779
O       9.92807294      9.23303999     22.80593202
O       4.17238212      7.17381536     24.41590963
O       7.00472432      2.21028527     24.07432838
H       9.40983195      4.18033950     22.83865492
H       1.43938828      2.90154096     22.64041900
H       3.51214252      6.62611622     23.91218609
H       9.39213334      9.56824924     22.05515991
H       6.20995161      2.66400421     23.62924293
H       7.78039694      2.76104354     23.85925816
H       3.76697860      3.49515528     23.10252828
H      10.53323869      0.30731732     23.08483719
H       1.98687168      5.14382496     23.36496772
O      -0.03332004      7.13595186     21.82389864
H       0.77759290      6.77070535     22.26345696
O       1.90917318      6.08131155     23.66761704
O       4.68516531      3.65394433     23.45753604
O       9.62033289      3.64669381     23.64409191
O      11.52319265      1.71832998     23.39421922
O       6.56005402      6.78301343     23.46695038
H       7.42152822     10.43383674     24.12060933
H       3.84443559      9.41103908     24.15438057
H      10.90402564      2.49495316     23.59608611
H       7.10390365      6.55769950     24.25330762
H      10.65358730      7.80819935     22.40080569
H       9.74485826      4.36557753     24.28610974
H       3.83967600      1.28754745     24.13059936
H       8.64268019      9.34670071     23.89749450
H       4.59396048      3.61740645     24.44841763
H       1.32739112      6.08811786     24.49798339
O       7.77065192      9.48479916     24.31093893
O       3.69114142      0.54199832     23.55320293
H       0.65806694      1.56130242     24.31941944
H       6.76990451      7.60659743     23.13102593
Pt      2.51775802      9.30482980     26.75051718
Pt      5.21932282      9.44222101     26.82935297
Pt      8.02528225      9.39390098     26.50571628
Pt     10.72076059      9.33759467     26.59226765
Pt      8.17247026      4.56220320     26.48516218
Pt      3.85606966      6.87391022     26.61304340
Pt      9.51320844      6.79605697     26.61811069
Pt      6.63468782      6.93416754     26.70824292
Pt     10.98418584      4.46202709     26.52796976
Pt      1.06640179      7.00860295     26.67217989
Pt      9.41470549      2.19043973     26.50949899
Pt      6.69244679      2.10009267     26.54426799
Pt      2.54153802      4.28617661     26.64001622
Pt      5.31449964      4.48461496     26.55396339
Pt      1.17172678      2.08625150     26.54367918
Pt      4.00866618      2.06014236     26.57013130
