   246
 Tv_1:  11.152900   0.000000   0.000000 Tv_2:   0.000000   9.658700   0.000000 Tv_3:   0.000000   0.000000  26.829700
Pt      5.44865545      7.85740068      2.19838122
Pt      6.83525907      0.65167302      2.15026411
Pt     10.99027397      7.99622922      2.15451277
Pt      8.15853171      7.89445295      2.15556034
Pt      8.10134625      3.03473745      2.22457134
Pt      2.61958524      7.89930986      2.17179161
Pt      9.57079834      5.55845502      2.23202508
Pt      6.89432186      5.54769547      2.18480232
Pt      5.29279172      3.20454790      2.15369194
Pt      4.09008497      5.55187377      2.11573144
Pt      9.48942027      0.72166648      2.21920047
Pt      1.19247881      5.45929285      2.24893237
Pt      1.05260665      0.60113225      2.35657985
Pt      2.55229161      2.89977832      2.29465414
Pt      4.07610474      0.69097012      2.23475907
Pt     10.96375725      2.98964470      2.18521358
Pt      5.59162872      6.39581220      4.60114661
Pt      8.34148088      6.57140133      4.54255453
Pt      6.89055976      8.93649780      4.51450739
Pt      7.03221495      4.12699132      4.66356634
Pt      8.50688915      1.67203721      4.51020104
Pt      5.59991349      1.68483674      4.44528729
Pt      9.75662062      4.16760957      4.52826524
Pt      9.82149070      8.97633232      4.55042242
Pt      1.47343306      8.88832364      4.60521451
Pt      0.05225795      6.44182113      4.35670061
Pt      2.89594609      1.64383707      4.66697062
Pt      2.78507003      6.44853024      4.42095457
Pt      4.20208834      8.75859280      4.47084745
Pt      4.30927833      4.05856949      4.49090109
Pt      0.08755089      1.73642297      4.70359455
Pt      1.57414724      4.02567502      4.49669165
Pt      7.30624742      2.64974279      6.97425541
Pt     10.00974961      7.45645041      6.73477173
Pt      8.76606520      5.01635742      7.06878831
Pt      8.67685188      0.14390265      6.94740146
Pt      5.80372503      0.25658795      6.73263894
Pt      3.06591973      5.06104124      6.67461718
Pt      3.07070663      0.15034052      6.87423824
Pt      7.29788372      7.37518457      7.00169872
Pt      4.46335787      2.66040977      6.91041539
Pt      1.66656711      2.58644166      6.93831503
Pt      0.23887063      5.08783956      6.77883893
Pt      9.96243942      2.73523135      6.85246005
Pt      5.77219675      5.05599154      7.04581343
Pt      0.21344263      0.25457021      6.93223355
Pt      1.54952589      7.44585526      6.75958742
Pt      4.56205973      7.48293893      6.96145454
O       4.45796614      5.04450335      9.64682614
H       8.49887314      3.36667044      9.45374439
O       1.73903962      7.28583852      9.97343626
O      -0.10032527      5.02430561      9.49913477
H       3.78295806      2.20355482     10.92526217
H       5.73315312      8.18498777      9.72315414
H       6.38636446      5.76752665      9.36123970
O       0.16886214      0.34572146      9.10024618
H       1.40794588      8.13991634     10.45907110
H       4.25629348      6.43025700      9.37579595
O       8.51790151      0.19575806      9.22069437
H      10.32540584      9.75801333      9.36112481
H      10.22784947      5.09395324     10.02894607
H       0.35498524      1.30317974      9.38073164
H       0.40676201      5.88461121      9.51171427
H       5.44795718      1.48542649      9.66921000
H       0.94533967      3.62179545      9.18884109
H       8.31413493      1.25616217      9.35283187
C       5.73383630      4.87821402      9.28438296
H       1.98558290      6.61917637     10.73204198
H       9.15942564      2.49179699     10.55453426
O       8.29939203      2.60894432     10.06230699
H       3.30871766      7.73955360      9.42150501
H       7.80126978      9.32929077      9.63258520
H       7.91436746      6.33548830      8.20286162
O       4.24361585      7.54622896      9.12028724
O       2.82797216      2.57661933     10.93438438
O       1.41415570      2.71116957      9.03622142
H       2.29158504      2.60502890      9.79334885
H       9.09486858      6.54038086     11.15380802
O       9.03826325      5.54448247     11.15364553
H       2.36447767      2.34830422     11.81643533
O       5.26465203      1.36477532     10.64696654
O       7.03136433      5.09233617     12.97867388
H       7.65727411      5.27900652     12.22228407
H       6.27928369      3.99600236      9.62528226
H       5.98597330      6.36966764     12.89012147
H       6.79137905      2.20757181     11.82371777
H       9.70853240      5.19700613     11.80895528
H       6.48154898      7.93528116     10.98666136
H       5.52409874     10.10291185     10.75038791
O       6.46847114      8.61709070     10.31546361
O       5.57745494      7.29153814     12.95919965
H       7.14765615      4.08228323     12.97906531
H      10.10103522      1.24972001     12.05280387
H       4.68533321      7.15130028     13.41718186
H       8.15407492      9.16355068     13.99680624
H       9.39649909      8.76941768     11.58929664
H      10.75079053      2.73902341     11.92501315
O      -1.14316143      8.10387991     11.11521507
O       8.55520420      0.41354773     13.92266770
O      10.31266330      2.02606628     11.50162057
Cl      1.11525937     -1.22922153     12.96030216
H       1.67278517      2.34566347     13.97439576
O      11.19667766      4.46368607     12.47156981
H      11.17340143      4.29481578     13.42772263
O       2.30237948      5.46623820     11.79667303
H       2.81309943      4.84155183     11.29287046
O       6.94265447      2.27150777     12.81705404
H      -0.30284365      8.18505742     11.69316991
O       1.89324278      1.81752402     13.14528289
H      12.13339163      4.80091372     12.29335880
H       7.63919185      1.56037990     13.02591420
H       5.42524359      2.08046756     13.43580912
H       9.05082425      0.69318249     14.73580759
H       3.74514685      1.77711492     13.87345687
O       3.25701992      6.63935218     13.94806796
H       2.86739172      5.84135630     12.60775393
H       3.33326345      6.35712002     14.93007709
H       4.70966115      9.36888282     16.35190119
H       1.43125062      0.90643175     13.09503948
H       8.00487011      6.65332018     14.21435954
H       3.03773089      6.23109038     17.32682459
H       2.47644688      7.30347693     13.82872749
H       6.81010034      7.62581975     14.02375678
O       4.68784829      1.91427697     14.18167109
H       4.80581488      3.05639051     15.63750674
O       3.20062330      5.67229777     16.50368973
O       5.53136028      9.62974036     15.79498885
O       7.75922298      7.57852427     14.38446846
H       2.27770065      5.26314038     16.32882348
H      10.42931219     10.15847181     16.63750566
Cl      0.87813384      3.80447193     15.61597985
O       0.57070059      8.49862801     16.26748444
O       9.88561044     10.92401159     16.30247821
H       0.62469446      8.36164172     15.30147129
H      -0.40291061      4.26211667     17.23867088
O      -0.67898892      4.26834987     18.18395174
H       5.25550582     10.41106365     15.22663257
H       4.29951425      4.19470864     16.57163387
H       6.45268587      4.73833222     16.70727702
H       1.53243730      8.65726387     16.41067997
H      -0.70878918      5.24471524     18.46803124
H      -0.03229519      7.39012904     17.74259419
O       5.04752569      3.56179594     16.46444450
H      10.57459974     11.62350156     16.15791180
H       8.13698398      7.49739308     16.23691285
H       7.89228731      6.40950727     17.28485989
O      -0.62280152      7.34261428     18.53566620
O       7.39722262      4.94719758     16.86327754
O       3.30667268     -0.62328785     17.27580635
H       9.66014727      7.46755657     18.02916425
O       8.06950566      7.37733578     17.23127902
H       2.91560077     -0.00434403     17.91190973
H       7.76360746      4.20088578     16.37819230
H       3.42145482      8.19866492     17.84574769
H       8.92658865      2.35139420     17.97392158
H       0.57828572      7.90115218     19.69967646
H       4.80922861      2.85870739     18.13867656
O       8.32502854      2.03152248     18.72501560
H       7.52330504      8.93487113     17.79634861
O       1.35778715      8.10865928     20.24215451
O       4.74666124      2.45990782     18.99270683
H       3.82764170      1.99411201     19.11568492
H       9.01175176      1.65296775     19.37356676
O      -2.85193513      5.58119407     20.76930540
H       1.04285008      7.84564045     21.10690042
H      -0.13459491      2.74398776     20.63304343
H       2.96700808      7.35472825     19.52110738
O       5.97961793      7.65628554     19.56011002
H       8.93089262      5.29786865     19.99486706
H       0.05430252      3.33084904     19.18088416
O       0.52009030      2.84912974     19.93057639
H       5.90981685      8.55276571     20.03154602
H       5.65899043      4.30774494     21.76867712
H       4.52820087      7.16755079     19.20288290
H       6.56051555      7.17002481     20.14993204
H       7.50515716      4.93287639     20.70852189
O       3.61161411      7.00860034     18.84337927
O       2.45721298      0.83188370     19.44091018
O       5.96511866      4.50273602     20.88781882
H       5.78352389      1.10965736     19.83380380
H       8.72436853      5.67279098     22.09466425
H       2.19158647     -0.02047855     20.01244740
O       8.81669629     10.75891605     21.52668051
H       1.70262554     11.14744753     19.46734924
H       8.78828812     11.55701012     22.14455773
O       6.23531778      0.53068645     20.49645618
O       8.92350882      5.67736848     23.14775052
H       5.81931169      3.70444212     20.32336365
H       7.91202866      0.97416406     21.23233866
H       6.36517583      9.78526188     16.65643360
H       2.89415205      2.78033129     21.50354089
H       9.87246659      6.03449306     23.25959581
O       7.03547110      9.77722204     17.68143971
H       5.56255123      0.48504058     21.18615477
H       4.71561272      6.84387682     23.81715498
H       7.58019714     10.54571127     18.14483898
O       3.16767389      2.58298894     22.39704299
O      10.34058874      9.17735643     23.36152891
O       3.80502521      7.19231828     23.83629486
O       6.19897686      1.19987679     23.58006054
H       9.23160486      4.04328384     23.26629620
H       2.24646338      2.44696277     22.80314414
H       3.32374038      6.39667515     23.69757502
H      10.08101726      9.34620771     22.38632002
H       5.30202970      0.84711988     23.41931075
H       6.13803849      2.18635356     23.69814147
H       4.35351362      3.49477965     23.52952500
H      10.98320802      0.19773498     23.63476500
H       2.26201494      4.29219904     23.36149733
O       0.31867180      6.77835915     22.77034803
H       1.01601074      6.48788433     23.41776028
O       2.16773635      5.18133324     23.77260294
O       5.28509545      3.83854677     23.48699257
O       9.44992520      3.04292212     23.42876856
O      11.88155600      1.89041383     23.57340794
O       6.72132859      6.83784582     24.33654023
H       7.42263100      9.99493578     23.88055258
H       3.63370673      8.69510592     22.73717296
H      11.04969758      2.42712327     23.34333069
H       7.48266549      6.32128912     23.93410539
H      11.09859174      7.61825675     23.19743478
H       8.92432625      2.81631430     24.26622046
H       3.26299442      0.57824962     22.41464610
H       8.88357197      9.19490057     24.02761148
H       5.34439736      4.56086961     24.17206522
H       2.28028635      4.94400529     24.77713058
O       7.94325757      9.22723342     24.33172947
O       3.98552781     -0.06840764     22.41832228
H       0.71903223      2.03344055     24.53359889
H       7.09245995      7.77876256     24.14571029
Pt      2.45054365      9.33180306     26.81092139
Pt      5.30633934      9.25262582     26.71052356
Pt      8.06722712      9.16320981     26.56040569
Pt     10.77921790      9.38755483     26.69484591
Pt      8.02444268      4.41331230     26.71132767
Pt      3.78317379      6.77898966     26.50847260
Pt      9.39297682      6.85521518     26.71506673
Pt      6.58129800      6.86107856     26.48979541
Pt     10.78546238      4.49235182     26.70944246
Pt      1.01617543      6.85613986     26.73360390
Pt      9.47528809      2.06930984     26.66721220
Pt      6.44221951      2.06741255     26.73199417
Pt      2.50230138      4.43595255     26.83294575
Pt      5.27968046      4.46115946     26.64424147
Pt      1.17834361      2.08638251     26.52664691
Pt      3.79511577      2.16426939     26.73295958
