   246
 Tv_1:  11.152900   0.000000   0.000000 Tv_2:   0.000000   9.658700   0.000000 Tv_3:   0.000000   0.000000  26.829700
Pt      5.37403340      8.01368334      2.20921811
Pt      6.61308941      0.73503822      2.09334385
Pt     10.83130456      7.91813352      2.01769601
Pt      8.09343926      8.05835804      2.10050996
Pt      7.99512116      3.00856343      2.17331531
Pt      2.56593776      7.89207664      2.20076496
Pt      9.55461447      5.51727169      2.22822152
Pt      6.68215672      5.58818079      2.25732305
Pt      5.14998953      3.13290266      2.23467268
Pt      3.84628214      5.61136640      2.27621698
Pt      9.50308923      0.63625475      2.14751567
Pt      1.10570648      5.55682571      2.19006222
Pt      1.12562049      0.61244569      2.15540075
Pt      2.29506425      3.06559765      2.29642564
Pt      3.79596265      0.71540890      2.34987756
Pt     10.81977300      3.06811475      2.16747932
Pt      5.46586967      6.43166544      4.59110077
Pt      8.32432611      6.47860738      4.44094501
Pt      6.91355720      8.94992184      4.55469211
Pt      6.89910522      4.09035300      4.47696873
Pt      8.32797668      1.62825947      4.49920282
Pt      5.47056555      1.68792628      4.42878208
Pt      9.61615544      3.99510531      4.42797629
Pt      9.63993776      8.97495642      4.50064448
Pt      1.24471418      8.97992227      4.54235685
Pt     -0.03297061      6.53156280      4.43678173
Pt      2.73715923      1.72838795      4.54687842
Pt      2.70118641      6.54577023      4.53337866
Pt      4.19227082      8.87980986      4.59265261
Pt      4.19208410      4.11836212      4.56439027
Pt     -0.15399021      1.62753838      4.47069106
Pt      1.38694595      4.16390720      4.55026258
Pt      7.09141086      2.63831388      6.75094401
Pt      9.81677068      7.50464792      6.71632542
Pt      8.53214383      5.12579030      6.78682022
Pt      8.39375289      0.28475473      6.86359132
Pt      5.55929489      0.21527434      6.83554984
Pt      3.11242189      4.99506544      6.86458719
Pt      2.87262077      0.35634549      6.76216283
Pt      7.04725506      7.43156029      6.75623676
Pt      4.52224720      2.70802649      6.92762921
Pt      1.64919278      2.65295182      6.81079035
Pt      0.32420977      5.20614893      6.88778567
Pt      9.82703763      2.74432846      6.79352488
Pt      5.89842209      4.99169035      7.06014641
Pt      0.08393159      0.36438476      6.87015661
Pt      1.59014640      7.55589054      6.74776676
Pt      4.32661724      7.52102930      6.94171955
O       4.55742867      5.19266975      9.72702174
H       9.27334243      3.17213800      9.02493195
O       1.44191197      7.79426077      9.92017857
O       0.34571476      5.48752968      9.09944545
H       3.67721639      1.50936034     10.45032789
H       5.78433310      8.27132746      9.88558136
H       6.67031954      5.57863756      9.48275660
O      -0.01414373      0.44962180      9.08821902
H       1.06184847      8.70113172      9.80500688
H       4.32823317      6.21529604      9.58491089
O       8.50062010      0.22898214      9.16177156
H      10.16902896     10.02342888      9.07698026
H      10.68567850      5.77395381      9.72196793
H       0.28663907      1.40678452      9.26651526
H       0.92365662      6.30040533      9.28869242
H       5.50547583      1.68324352      9.20446823
H       1.09947968      3.80177136      9.34661731
H       8.31319576      1.15440663      9.51285192
C       5.83305715      4.95588824      9.13001046
H       1.72793796      7.67724992     10.85866341
H       9.63369555      2.84018189     10.59401439
O       8.82459846      2.80458240      9.89433262
H       3.38976798      7.97595651      9.19056377
H       7.91403920      9.21647022      9.51384953
H       8.43207036      4.91803149      8.29840857
O       4.29734364      7.67455783      8.95047257
O       2.70136910      1.35495016     10.47657814
O       1.29614009      2.94120895      8.93061003
H       1.91519672      2.35456661      9.48062988
H      10.08712931      7.02298396     11.31303974
O      10.00452117      6.06133666     10.97791049
H       2.38779030      1.53716701     11.40407382
O       5.41721860      1.48081352     10.14371268
O       7.83524959      4.48292131     12.23637383
H       8.12121137      4.24599652     11.26722774
H       6.00529185      3.89429248      9.19553200
H       7.12958011      6.05079943     12.50221449
H       6.18653709      1.90527552     11.97855507
H      10.70970592      5.64529552     11.53822950
H       6.45049060      7.76519263     11.24101688
H       5.95817437     10.37136666     10.34985117
O       6.49673367      8.52064783     10.54485564
O       6.50833116      6.80625112     12.66508878
H       7.42127041      3.63559695     12.49756788
H      11.63949521      3.14141188     11.86769345
H       5.90079416      6.36535000     13.29707415
H       7.68208368      8.44351166     13.28104748
H       9.79809006      8.79395592     12.45755782
H      10.86426172      1.79832340     12.20217556
O      -0.76571807      8.46499760     11.75974672
O       8.12785395     -0.38489541     13.14708551
O      10.96347313      2.46867506     11.50113395
Cl      2.09123403     -1.83129981     12.94692554
H       1.68820552      1.53348868     13.83244491
O      12.44466643      4.61949191     12.39139050
H      12.45673872      5.01966689     13.32045884
O       3.92126210      4.01900811     11.92051650
H       4.19724305      4.39748531     11.06614729
O       6.59680597      1.74612627     12.85433426
H       0.08642260      8.15715575     12.12873539
O       2.41911568      1.35921600     13.18820748
H      13.41396171      4.52271084     12.19287534
H       7.32724614      1.04165465     12.79734712
H       5.55316938      1.23425781     14.10452223
H       8.40250445     -0.14383871     14.05208846
H       4.09825759      1.33126375     14.27720942
O       4.28870688      5.78210300     13.89816392
H       4.25763867      4.68421993     12.54123668
H       4.27466209      5.43245343     14.84263459
H       3.68555470      8.21634751     16.60989389
H       2.35688472      0.35147130     13.21101160
H      10.04084502      3.57479031     14.72993893
H       3.71170082      5.41576042     17.84981800
H       3.62838465      6.47676724     13.91782844
H       9.23491739      4.33256015     13.57177915
O       4.86538550      1.04816609     14.78893663
H       4.63007781      1.87160018     16.47255451
O       3.48240077      4.82833723     17.03618756
O       4.79033818      8.39154951     16.19230533
O       9.57410235      4.45534636     14.49466272
H       2.51832351      5.10426748     16.80585804
H       8.38065582      9.43491399     16.39047760
Cl     -0.16195076      1.63205688     15.19895863
O       0.50328336      8.07507267     15.41678066
O       8.36767020     10.12008559     15.66578630
H       0.92699398      7.61428051     14.66119928
H       1.17446256      3.88076637     15.53298628
O       1.30552484      4.85872993     15.64516179
H       5.02504020      9.12682602     15.57714352
H       4.12474701      3.22994065     17.27350801
H       6.60102096      2.31393898     17.57460329
H       0.47744804      8.99630951     15.15216484
H       0.40947781      5.18389282     16.01073204
H      -0.41493999      6.87522333     16.46984819
O       4.56352820      2.26950615     17.39526239
H       9.27034348     10.49077050     15.73352488
H       8.46390139      4.99479514     15.64953989
H       7.91817793      4.34026789     17.00515629
O      -0.49310642      6.16634955     17.16354186
O       7.50060295      2.52912427     17.56057693
O       2.63837777     -1.58329906     16.96252456
H       9.74616578      5.74807319     17.05367707
O       8.25259310      5.23110869     16.62653583
H       2.39430975     -0.86928937     17.68002475
H       7.78524595      1.91630758     16.78532528
H       1.85025386      8.04678442     16.27507247
H       9.45601348     -1.94289014     18.33412342
H       0.54685665      6.72404135     18.82721552
H       4.36668026      1.27386750     18.70873682
O       8.87163355     -1.21249326     18.38281971
H       7.13270198      6.31732608     17.08817309
O       1.06118303      7.07972329     19.60222245
O       4.50840897      0.71345677     19.53762584
H       3.59635683      0.30317526     19.67174564
H       9.11829548     -0.55287173     19.05866166
O      -1.78260951      2.78459312     19.63751885
H       0.43825235      7.14567508     20.40291931
H      -0.21265275      2.50474053     19.68370265
H       3.31353216      6.79522810     19.55479458
O       5.98200695      4.90102954     20.94512107
H       8.70898900      2.81527851     18.90087827
H       1.00654089      3.05973399     18.81188073
O       0.78850681      2.52973604     19.57823993
H       5.24972240      5.19792712     20.33919242
H       5.35714627      2.20301915     22.14141269
H       4.86478535      6.98896247     19.71954452
H       5.90957430      3.85245921     21.00359367
H       9.32688136      3.68258842     20.18945784
O       4.13915941      6.28059017     19.44907719
O       1.81051515     -0.08207874     19.04722885
O       5.91750507      2.21679458     21.29611144
H       5.66253597     -0.69951172     20.07203607
H       7.95738386      5.01122343     20.99908437
H       1.43813004     -0.96495298     19.41417739
O       8.22762062     10.33347252     20.77497390
H       1.30875407     10.45504777     19.18977391
H       8.74973104     11.05970504     20.34182093
O       5.74532671     -1.61973478     20.49609248
O       8.91365795      4.79633232     21.20918395
H       5.30176781      1.82060428     20.66037893
H       7.37192596      1.07041766     21.10676999
H       5.63223810      7.92572049     16.66214686
H       1.66392978      3.27055590     21.51192364
H       9.37748071      5.65087910     21.32703066
O       6.60403869      7.04836782     17.55358175
H       5.25562100     -1.44926532     21.31541482
H       4.18850087      6.05685601     23.90582919
H       7.14923095      7.54659850     18.13597234
O       1.86110110      3.20305118     22.49414055
O       9.46710561      9.05479724     22.74581928
O       3.57634732      6.72048598     24.38323870
O       6.49382229      2.74885765     24.25179689
H       8.97147211      3.91660812     22.72257351
H       1.21354322      2.44632907     22.70815480
H       2.64012980      6.29465123     24.12930493
H       8.99702007      9.57539662     21.96792659
H       6.09576157      3.68003395     24.18194606
H       7.49377910      2.96530617     24.22618087
H       3.08840349      2.25772510     22.97925809
H      10.20404270      0.04232881     22.96921013
H       1.43830254      4.95116910     23.29129760
O      -0.72644458      6.86394593     21.76962190
H      -0.15397563      6.47246152     22.50056513
O       1.11603614      5.87176034     23.56808466
O       3.90432335      1.72330635     23.14966776
O       8.99760954      3.58612938     23.65394418
O      11.07286051      1.63100045     23.48862963
O       5.87568664      5.37051748     23.56338836
H       6.34941412      8.92142100     23.97995387
H       4.13581349      8.34028263     23.55547636
H      10.39623687      2.30561972     23.84356456
H       6.46211708      5.98640829     23.94361830
H       9.93848639      7.53807246     22.25555290
H       9.41152102      4.25016241     24.33993269
H       4.28761963      0.06014654     22.85783530
H       7.98477482      9.00698152     23.64698877
H       4.01799057      1.74926647     24.16363928
H       1.06231569      5.85270189     24.61129532
O       7.26291656      8.85729704     24.30966967
O       4.75208285     -0.81490532     22.89779949
H       0.33005521      1.32239752     24.37575246
H       5.98594545      5.31945599     22.60325623
Pt      2.16152405      9.51451882     26.66493898
Pt      4.81503519      9.49707049     26.72499853
Pt      7.80465223      9.43794710     26.48998566
Pt     10.59237301      9.44401336     26.58582501
Pt      7.87008268      4.67905444     26.79617710
Pt      3.52256880      7.01815552     26.62638234
Pt      9.18285580      6.95766241     26.52104586
Pt      6.42278859      7.04306111     26.80947487
Pt     10.54505453      4.58554246     26.65282364
Pt      0.77895510      7.10476194     26.55930216
Pt      9.24532495      2.07031245     26.65471669
Pt      6.41569085      2.15339408     26.50997841
Pt      2.17780811      4.62279846     26.72349233
Pt      4.84537995      4.53901870     26.85836860
Pt      0.82684088      2.35603165     26.52583449
Pt      3.55985025      2.13455432     26.78544284
