   247
 Tv_1:  11.152900   0.000000   0.000000 Tv_2:   0.000000   9.658700   0.000000 Tv_3:   0.000000   0.000000  26.829700
Pt      5.97982806      8.27107924      2.15464898
Pt      7.32795900      0.93737468      1.96498014
Pt     11.61762469      8.16810708      2.15635650
Pt      8.70570418      8.18095946      2.21984086
Pt      8.72422158      3.32464740      2.22190488
Pt      3.11186935      8.14801940      2.24496505
Pt     10.14860683      5.77639361      2.30371946
Pt      7.31830716      5.78399348      2.20274869
Pt      5.88094029      3.30833890      2.19863859
Pt      4.44077388      5.73274847      2.21382811
Pt     10.00856374      0.91383329      2.12908834
Pt      1.72008700      5.71345114      2.25290402
Pt      1.63002473      0.90186712      2.20972165
Pt      3.16320547      3.25875830      2.28067604
Pt      4.40184749      0.89022463      2.12503612
Pt     11.56318115      3.32821539      2.16699321
Pt      5.80739877      6.66823289      4.38397213
Pt      8.61384598      6.70799951      4.78822563
Pt      7.29312196      9.07799864      4.54099960
Pt      7.24964400      4.28332679      4.41844537
Pt      8.50395145      1.91066195      4.56397545
Pt      5.77510790      1.81488265      4.53407712
Pt      9.98442227      4.36296968      4.52009215
Pt     10.02247674      9.12109344      4.42882044
Pt      1.67017285      9.12353575      4.57547430
Pt      0.26453241      6.67923845      4.53684876
Pt      3.06619397      1.78990069      4.53142486
Pt      3.03091679      6.59349732      4.49679724
Pt      4.44216688      9.10739115      4.45593501
Pt      4.34003196      4.24472445      4.64596632
Pt      0.10250043      1.86043731      4.34908839
Pt      1.50039868      4.18042468      4.52041826
Pt      6.98389077      2.78263142      7.02181867
Pt     10.02701766      7.69905587      6.97862021
Pt      8.47629443      5.09636009      6.90158867
Pt      8.67655477      0.40156114      6.88527557
Pt      5.89632931      0.20099328      6.81931833
Pt      2.81661734      5.13133540      6.83543289
Pt      3.13875937      0.31275304      6.85894412
Pt      7.33352867      7.66884030      7.08000999
Pt      4.31652979      2.71654566      6.91905125
Pt      1.60574670      2.76964981      6.81239250
Pt      0.07190699      5.14678685      6.92248175
Pt     10.00078432      2.74078697      6.76771028
Pt      5.80303677      5.29799410      6.79191345
Pt      0.31701668      0.34790104      6.94020767
Pt      1.62306678      7.50645545      6.86308913
Pt      4.40690980      7.53314393      6.83488723
O       7.80859099      6.64728070      9.75132461
O       1.73216914      7.35187182      8.93393710
O       0.17035293      4.50723252      9.11988062
O       0.41300846      0.71797923      9.03967555
H       0.76160309      7.61410027      9.16726437
O       8.36252025      0.08841102      8.92184547
H      -0.34524006      1.38621608      9.13519390
H      -0.16018179      5.13071397      9.86948784
H       4.67116051      3.31147858      9.50454232
H       1.32695444      3.49653839      9.26516702
H       8.32557356      1.01228508      9.27611989
C       7.24534144      7.46587483      9.09563660
H       2.59500872      5.99791627      9.05938594
O       7.71761668      4.00673967      8.48450114
H      -1.66609693     -0.69197027     12.41819506
H       4.50822399      7.61604491      8.38938485
O       4.25840160      2.49605816      9.12196075
O       1.80168884      2.66438935      8.83072177
H       1.19611230      1.42620826      9.10008081
O      10.36257442      7.83148401      9.15200827
H       3.15075441      2.55268931      9.06408857
O       5.07897923     -0.77934788     10.48860602
O       3.09282548      5.13620124      9.02967320
H       6.35888899      8.12995162      9.52938607
H       6.27016134      0.36187646     15.32997953
H       5.62654608     -0.14606954     10.99157816
H       9.96046117      7.11447646      9.79282142
H      -1.55930468      0.64273741     11.44977891
H       4.73065629     -1.44587512     11.06567658
O       9.05081789     -0.09211161     11.73309413
O       6.09891088     -0.21899466     14.59986870
H       4.01471759      5.30524699      9.33107521
H       6.41896199      2.31074184     11.97279571
H       6.18318974      8.47264295     14.85344365
H       6.43486115      0.48281920     12.96098501
H      -0.08210382      6.27055252     11.64407388
H       5.77447521      3.04794513     13.11642209
O      -0.82169098      5.99597613     11.06598083
O       6.64786870      0.70197670     12.01515613
O       6.36275261      3.26296632     12.30057604
Cl      3.75128143      6.42863638     12.55530153
H       1.54709704      0.92750062     11.83500626
O       8.79334344      4.40956813     12.67971039
H       7.91300737      3.91283947     12.48097768
Cl     -0.07366934      2.37836345     12.30689981
O       4.56799635      2.98022435     14.49459356
H      -1.51959268      5.41160270     11.59148758
O       2.23960023      0.22975405     11.69922978
H       9.44700638      3.71943145     12.60312092
H       3.87244350      3.64505357     14.55222764
H       4.01651875      2.15089047     14.35670919
H       7.58054595      0.38146130     11.95949365
H      -0.70711705      1.54391651     13.93381121
O       2.05545808      4.28118840     13.78622836
H       2.63311513      5.00281931     13.36247264
H       4.07037924     -0.26249707      9.37423721
H       2.61241180      0.53008024     10.84114764
H       4.34050006      0.02690481     14.22823335
H      -0.26579716      1.23855312     15.97359372
H       1.54308314      3.88392167     13.07046924
H       8.62889181      0.67460164     16.42104866
H       3.17071108      0.34888423     13.22710944
O      -1.23911476      1.02555384     14.64027983
H      -1.29332236      0.07068039     14.30775783
O       0.19437024      1.63356697     16.79682709
O       3.09539820      0.02865034      9.01778251
O       3.45318090      0.42191336     14.18704654
H       0.34908548      2.61328851     16.52344511
H      -1.04406163      7.48000605     14.72317142
O       8.21786982      0.85011291     17.29191370
O       0.19411847      1.39194110     19.78328454
O      -0.94623794      8.13617400     13.89445595
H       0.14816579      1.38942172     18.75421446
H       7.88900776      2.38992433     17.32851830
O       7.71948484      3.35728853     17.24247975
H       6.73132714      6.44664638     14.84925556
H       7.54254515      0.14215780     17.59710736
H       2.83168260      0.33991459     15.85905351
H       1.66911235      0.64203220     16.86828063
H       0.68778766      0.54916024     19.90150193
H       6.77374923      3.46860056     17.41814963
H       7.86056084      4.39756545     15.92527457
O       2.59491424      0.18002370     16.84705237
H      -0.10678103      7.76818392     13.43526470
H       4.81530348      3.03981702     16.36229272
H       3.49733446      0.74054401     18.26297259
O       7.97312182      5.07580261     15.19748374
O       4.21338377      1.10867289     18.84735451
O       1.01578069      7.31643175     12.41447793
H       8.21001642      4.57177331     14.41063807
O       4.91584330      3.28101001     17.29633291
H       1.36000820      8.08150805     11.86681804
H       4.41342336      2.05530345     18.54184211
H       1.91468995      6.91481299     12.57663613
H       5.54677948     -0.21173163     18.43919776
H      -1.90901862      6.07818945     15.76669350
H       3.00034334     -1.58173379     17.22916149
O       6.28479121     -0.79322895     18.11619345
H       4.26651436      4.00953533     17.45997564
O      -1.02315191      6.53951179     15.94138624
O       3.43401450      7.38352484     17.75020215
H       4.34773649     -1.97892053     17.68598386
H       6.61162415     -1.36770151     18.83054125
O       9.30787752      2.12020294     21.44126163
H      -1.12854571      7.14579675     16.75054320
H       1.12196004      2.73572248     20.12755256
H       0.27325390      5.14502282     16.26247155
O       8.41059006      4.13084960     19.77314262
H      -1.12620429      1.73596734     20.80263927
H       2.00649417      3.94975796     19.43672561
O       1.62015481      3.56770910     20.30458286
H       7.94913407      4.95940788     19.99320841
H       5.55404068      0.34947894     21.33997229
H       1.07745734      4.32639522     15.27062915
H       8.06392313      3.92451672     18.84059056
H       8.91362275      2.78354689     20.86598432
O       0.82307549      4.35656735     16.22500417
O       9.76198478     -1.61013537     18.11562478
O       4.56222149      0.47510519     21.40391944
H       1.87503007      8.19450727     19.56368442
H      10.20038870      5.63955163     20.01634689
H      10.58461950      8.27602452     18.61446534
O       7.30623653      9.68956630     21.32486976
H       9.43976515     -0.67248197     17.87812293
H       8.00353407     10.42467416     21.28687973
O       0.92210233      8.32575029     19.75583720
O      -0.12041248      5.86564138     20.47390231
H       4.34117107      0.66379779     20.44288377
H       7.31715888      9.25610231     22.21465336
H       8.49272600      7.39813150     19.42069803
H       2.52718683      3.76676364     21.75053828
H       0.48381388      4.98383093     20.43622715
O       8.01033536      6.85269889     20.03046762
H       0.74557887      7.49236000     20.21092643
H       7.27399734      6.63973150     23.35195705
H       7.96834702      7.45663478     20.80057585
O       2.76870434      4.18348267     22.63184599
O      11.76028115      9.87729000     24.23897046
O       6.59290064      7.34006879     23.19644705
O       7.71199519      2.50947815     24.38126020
H       8.05942936      5.14800084     24.69311428
H       2.08661117      3.71101375     23.24618771
H       5.67689938      6.84145257     23.25409552
H      12.66816316      9.46644215     23.97727315
H       6.75954607      2.72486291     24.05297699
H       8.19899402      3.35579161     24.06873414
H       4.94568463      1.79337876     22.90980395
H      11.77434673      1.16937593     23.91334460
H       3.73078264      5.59635086     23.10335511
O       3.41545503      9.18786924     23.47064689
H       3.47638254      8.20503000     23.18170672
O       4.05452046      6.43615764     23.52238452
O       5.26135453      2.77939625     23.12191572
O       8.28234622      4.94037179     23.72120432
O       0.09737282      2.81747454     23.33694670
O      10.65168235      5.91771254     23.26458614
H       8.41856092      0.41636138     24.14018726
H       6.39767932      8.60719285     24.02718826
H      10.48240513      2.79260152     22.71978749
H      11.13546743      5.08565938     23.32220231
H       3.85464058      9.60508694     22.65164281
H       9.13609652      5.35661421     23.46582908
H       4.98076730     -0.29935481     24.29974735
H       9.89716882     -0.15481284     23.91476522
H       4.40453247      3.30571096     23.11920377
H       3.92451076      6.25155076     24.50026152
O       8.94950385      9.25653774     23.99814149
O       5.98581359      9.51951457     24.36748543
H      11.02396521      2.96358284     24.28546679
H      10.72832561      6.01428148     22.27293237
Pt      3.25456316      9.45011518     26.66417396
Pt      5.99779276      9.49473408     26.58966878
Pt      8.82360578      9.44656077     26.52018387
Pt     11.60515872      9.47280761     26.48427579
Pt      8.88626293      4.69332612     26.73259523
Pt      4.73936435      7.03804285     26.65854750
Pt     10.34792790      6.98767042     26.72027556
Pt      7.52548561      6.98042894     26.61606231
Pt     11.67153746      4.61958119     26.65400645
Pt      1.90816940      7.11482591     26.69771674
Pt     10.29433039      2.29183145     26.65410286
Pt      7.42009603      2.25949493     26.53038143
Pt      3.31385257      4.68097733     26.68203135
Pt      6.10819385      4.72008070     26.72676682
Pt      1.92377116      2.34697529     26.78788749
Pt      4.68316098      2.16986474     26.41978824
O       2.83553338      4.69567829     17.92005718
H       2.88142812      5.70948835     17.92885094
H       2.16046996      4.43239011     17.22204977
O       5.87647715      6.92502071     14.62548549
H       2.68778517     -0.92978408      9.04057704
O       9.72636423      2.66679193      8.80573878
H      10.43247527      3.60225927      9.07457841
H       8.74622785      3.09002272      8.85598639
O       5.63379931      4.70149976     10.00856103
H       6.38325486      4.59127373      9.38495415
H       5.90930665      4.32628305     10.90530381
H       5.54653242      6.61309449     13.80014047
H       9.85995770      8.62606826      9.43842781
