   247
 Tv_1:  11.152900   0.000000   0.000000 Tv_2:   0.000000   9.658700   0.000000 Tv_3:   0.000000   0.000000  26.829700
Pt      5.80926464      8.08783053      2.24884509
Pt      7.22681097      0.82716692      2.17219019
Pt     11.47021119      8.17219715      2.18886475
Pt      8.69654161      8.17953109      2.36347906
Pt      8.69272029      3.37030183      2.31174144
Pt      3.08561029      8.04769941      2.19940385
Pt     10.13962624      5.68532657      2.27185580
Pt      7.38176465      5.75563364      2.34189434
Pt      5.92562523      3.23684277      2.16830839
Pt      4.52374838      5.51099752      2.07343972
Pt      9.93460172      0.96214637      2.09862942
Pt      1.65521599      5.68930689      2.26774007
Pt      1.63521481      0.85024916      2.17350316
Pt      3.09633145      3.26224656      2.28308509
Pt      4.37403045      0.83824072      2.14114034
Pt     11.48257935      3.25971449      2.21717239
Pt      5.82481927      6.63241391      4.48876595
Pt      8.70538617      6.72332409      4.74035130
Pt      7.24549786      9.14664963      4.60030387
Pt      7.23666705      4.30931727      4.48132735
Pt      8.65024263      1.80957192      4.37631944
Pt      5.82134406      1.80422576      4.45879815
Pt      9.94214119      4.27111308      4.60229105
Pt     10.01791568      9.12188319      4.55427462
Pt      1.68281392      8.99462397      4.45412756
Pt      0.29021175      6.68939406      4.47444489
Pt      2.99815135      1.68245560      4.44297249
Pt      3.20576678      6.50981913      4.41522821
Pt      4.55947940      9.07177420      4.44219410
Pt      4.41180103      4.14742293      4.48738980
Pt      0.20724013      1.74694180      4.46520741
Pt      1.53965277      4.07899961      4.55869846
Pt      6.97844282      2.69273220      6.80535616
Pt      9.80718679      7.59258831      7.03043356
Pt      8.30289423      5.18967755      7.05607391
Pt      8.45954644      0.42485297      6.93523059
Pt      5.59952133      0.38489175      6.81110763
Pt      2.75501404      5.14681941      6.80984024
Pt      3.00586255      0.32055379      6.81765164
Pt      7.06334731      7.65881917      6.96224895
Pt      4.26976200      2.81071009      6.83264745
Pt      1.41995045      2.70705887      6.90466548
Pt      0.04090617      5.21341005      6.91132415
Pt      9.82152195      2.77248300      6.97844345
Pt      5.60308205      5.24383358      6.72117364
Pt      0.16358820      0.36954507      6.77340987
Pt      1.38665484      7.52737650      6.76305912
Pt      4.29843651      7.61963571      6.77083379
O       7.57977821      7.00068314      9.71898077
O       1.72350252      7.37359242      8.89232843
O       0.08307946      4.73787153      9.18909666
O       0.13649160      0.71518550      8.79388313
H       0.86020248      7.61762232      9.30305587
O       8.58358197      0.43379963      8.99228654
H       0.89577290      1.35655074      9.10079654
H      -0.10649194      5.38695672      9.98109174
H       4.66429657      3.35911909      9.42906700
H       1.33569511      3.54941420      9.23822088
H       9.02808782      1.36072593      9.23149928
C       6.88250836      7.52685021      8.92247771
H       2.55449545      6.17803230      9.05451194
O       7.24472623      3.92811724      8.37228095
H      -0.39008714      1.37855940     11.89079645
H       4.07531019      7.41262045      8.34161682
O       4.23000662      2.51817594      8.91007217
O       1.67840249      2.68548182      8.94536359
H       0.03779159     -0.10092177      9.34079813
O      10.24041501      8.08410731      8.96773270
H       3.19086396      2.70128210      8.99940527
O       5.24721911      0.02299998     10.81405711
O       2.98438017      5.22545071      8.93341113
H       5.92363717      7.94697832      9.13881113
H       6.77849406     -0.74449862     15.49035442
H       6.05762630      0.43711900     11.27525895
H       9.79535392      7.47219564      9.59684461
H      -0.29933681     -0.25209446     11.92685883
H       5.00436355     -0.89837709     11.11370359
O      10.30250980      0.49168291     11.78126345
O       6.73544912     -0.59973930     14.49047515
H       3.90345546      5.27994920      9.11065002
H       7.30492264      2.75806273     12.33387150
H       6.79395870      8.16420222     14.01229460
H       7.49345834      0.74155986     13.19326913
H      -0.01256100      7.18593021     11.60231408
H       6.50696610      3.78527491     13.29030060
O      -0.71956073      6.67064651     11.10704503
O       7.51239419      1.12269011     12.29583558
O       7.10378963      3.76239099     12.43810218
Cl      4.33181229      6.81877045     11.63031312
H       2.22250977      1.66052650     11.94885002
O       9.42111148      4.86840650     12.78193868
H       8.50317563      4.51441748     12.61177515
Cl      0.95940850      3.18947846     12.72713869
O       5.31287362      3.47307703     14.26189031
H      -1.17769795      6.07038623     11.73386134
O       2.82354308      0.84622687     12.02358292
H      10.11377330      4.23859237     12.48557137
H       4.48284747      3.95466342     14.05246532
H       5.07040805      2.48099159     14.07740257
H       8.32055229      0.86144893     11.77438963
H       0.13878161      1.52610785     14.39239908
O       3.13835651      4.97170847     13.94283786
H       3.42501118      5.69998901     13.25468074
H       3.79191449      0.00427906      9.58545525
H       3.54777918      1.07391705     11.37375619
H       5.09666957      0.21617769     14.27230682
H       1.05941301      1.74710386     16.30021631
H       2.32842358      4.42761851     13.63405833
H      10.08972677      0.78439076     16.52159092
H       3.76560848      0.79915771     13.58755366
O      -0.05143613      0.97859906     15.22391435
H       0.55939535      0.15988885     15.11235687
O       1.76184518      2.02187157     17.01695234
O       2.97831210      0.01299671      9.04026803
O       4.42410721      0.93114537     14.32378021
H       1.97579479      3.02776320     16.82871798
H       1.02523728      7.72543151     15.47155099
O       9.66023543      0.69352426     17.40389826
O       1.18195773      1.69047716     19.78402202
O       1.33637220      8.40280095     14.85037066
H       1.13979721      1.77526007     18.78235568
H       8.88531789      2.39717957     17.47454522
O       8.68183805      3.38394900     17.48010262
H       7.61251221      5.99242187     13.10591994
H       8.81637861      0.30029813     17.15939898
H       3.28562623     -0.47734119     16.01400833
H       2.62735467      0.62759154     16.95732712
H       1.33195978      0.77139908     20.12788790
H       7.72551610      3.45017659     17.19879106
H       9.46229659      4.31493893     16.16012944
O       3.22911722     -0.21153280     16.94524575
H       1.20854651      8.09778248     13.87184463
H       5.71129922      3.54719045     15.99380206
H       4.44845416      0.73002133     17.62998205
O       9.65179799      5.10412258     15.55409728
O       5.12279852      1.17961666     18.20744394
O       1.50098664      7.86607057     11.90175645
H       9.65791623      4.76392208     14.65147305
O       5.93017876      3.53087026     16.94236551
H       1.97465702      8.79944147     11.76764824
H       5.29300617      2.09494247     17.84628629
H       2.26917103      7.23555405     12.07737929
H       6.57330251      0.13727453     17.76511764
H      -0.52193829      6.18205067     16.10771476
H       3.81934919     -1.28116206     18.37415585
O       7.14899456     -0.59395631     17.39108022
H       5.51162473      4.28773613     17.43761647
O       0.27565662      6.65044013     16.58491175
O       3.80436272      7.84607161     19.27113201
H       4.49359910     -1.33446302     19.81916357
H       7.14134937     -1.39338746     18.04845340
O      10.51312986      2.75398918     21.53863042
H      -0.17824859      7.13879403     17.29725091
H       3.52901276      3.30892496     19.91112137
H       1.64278160      5.53447214     16.90651888
O       9.50216886      4.43842885     19.86258766
H      -0.05793361      2.33860462     20.86271893
H       3.87837010      4.75801211     19.67265222
O       3.56989218      4.16618164     20.42878286
H       9.01919501      5.32407124     19.77918184
H       6.23985513     -0.03667743     20.78554522
H       2.64157435      5.27217158     15.75997051
H       9.12799688      3.94978812     19.06083276
H      10.05798937      3.45173851     20.96135165
O       2.41322608      4.91959004     16.65523385
O      10.15489017     -1.64874245     18.74603849
O       5.22060805     -0.02438251     20.64196992
H       2.26348451      8.33722588     19.86083495
H      11.58454525      4.98351939     20.52461688
H      10.90729082      8.11862690     19.30444775
O       7.89007043     10.13274323     21.35368479
H      10.10256527     -0.87527036     18.20955970
H       7.86516275     11.07905399     21.65586014
O       1.39493604      8.65820640     20.28465342
O       1.04949906      5.59761339     21.03906617
H       5.20608971      0.59281414     19.81403619
H       8.02412022      9.52859765     22.13998035
H       8.74579848      7.41813133     19.27584175
H       3.65386899      3.78164472     22.13911947
H       1.96203444      5.16100551     20.89843198
O       7.90043955      6.92801248     19.33181269
H       1.50939623      8.29657062     21.20815486
H       7.19103173      6.83385234     22.89180330
H       7.52731156      7.13999494     20.20906065
O       3.51346740      3.73631317     23.11722345
O      11.50480341     10.00085690     24.05030222
O       6.56244209      7.49953884     22.57437860
O       8.55855079      2.28893959     23.36246429
H       8.10706035      5.64875550     24.47107600
H       2.68633830      3.25434393     23.34651777
H       5.74807584      6.96395512     22.30928126
H      12.30985035      9.39574144     23.70147984
H       9.21504907      2.77089893     22.79006194
H       8.30705055      2.88755167     24.06461802
H       4.73378084      0.50354111     22.03130636
H      11.70248890      1.28059283     23.90538773
H       3.61332856      5.49782899     23.33741617
O       2.34913382      8.54133340     23.13906792
H       2.92892035      7.63138492     23.20979958
O       3.93427487      6.49506169     23.43073983
O       4.31575168      0.75897028     22.94301963
O       8.37216689      5.68445967     23.48578831
O       1.06036875      2.83454745     23.51511597
O      11.13119171      5.71973297     23.44104093
H       8.97603595      0.76609394     23.96478594
H       6.34610497      8.60557131     24.02958060
H      11.61701015      2.99830532     22.74802374
H      11.22348540      6.43556774     24.07386012
H       3.05162142      9.22085874     22.99049923
H       9.32926391      5.68515760     23.36487780
H       5.28253855      0.19055027     24.01704530
H      10.06229587     -0.41952108     24.06905498
H       4.06214619      1.63635491     22.82888038
H       4.33676112      6.45730702     24.40185854
O       9.05197777      9.44011250     24.34165868
O       6.01590532      9.41310381     24.51424517
H      12.09039169      3.67027271     24.05387342
H      11.72068485      5.90702883     22.63153819
Pt      3.17136830      9.56333391     26.59387047
Pt      6.11934126      9.58898530     26.61241473
Pt      8.87433624      9.56979887     26.55724624
Pt     11.64040254      9.59454640     26.46852214
Pt      8.76021511      4.79739104     26.79790466
Pt      4.61669776      7.08169416     26.61190752
Pt     10.17627114      7.15280372     26.80922276
Pt      7.34796932      7.16714219     26.92793418
Pt     11.51448371      4.75737472     26.47739930
Pt      1.93162411      7.19601180     26.69529600
Pt     10.15595064      2.40670393     26.59231610
Pt      7.45524764      2.50153823     26.61668246
Pt      3.03588734      4.75322797     26.53437905
Pt      5.98711359      4.72599704     26.59982633
Pt      1.79279209      2.33713041     26.81236986
Pt      4.67313905      2.42983865     26.72705259
O       4.37131934      5.49432351     18.33695096
H       4.28407433      6.38350654     18.73327923
H       3.52867316      5.31002141     17.82797881
O       7.37734748      6.91104316     12.90458497
H       2.57010640     -0.93294942      8.98685805
O       9.45331008      2.90054611      9.03302609
H      10.51720310      3.98467730      9.30629411
H       8.50234278      3.40956887      9.09106362
O       5.39441351      4.37922419     10.26596848
H       5.09524065      5.26698863     10.71968405
H       5.89479640      3.92345198     10.99634155
H       6.55076753      6.88015493     12.41909043
H       9.31213972      9.42788408      9.15865293
