   247
 Tv_1:  11.152900   0.000000   0.000000 Tv_2:   0.000000   9.658700   0.000000 Tv_3:   0.000000   0.000000  26.829700
Pt      6.10448978      8.13887336      1.99851653
Pt      7.51266207      0.98011284      2.02084259
Pt     11.55902531      8.13588630      2.21592321
Pt      8.83276020      8.21178540      2.09411858
Pt      8.74129558      3.32322236      2.26409911
Pt      3.32425499      7.98340415      2.10899070
Pt     10.15943222      5.69329544      2.22066599
Pt      7.40604815      5.81290955      2.21289515
Pt      5.91429460      3.21569864      2.18542281
Pt      4.61543111      5.60978041      2.14492507
Pt     10.25954964      0.91223071      2.14365551
Pt      1.73523268      5.62118045      2.21696157
Pt      1.82887862      0.78743770      2.18846136
Pt      3.12053825      3.21298634      2.15799060
Pt      4.58876389      0.85397518      2.12763869
Pt     11.56991714      3.18849590      2.23776069
Pt      5.79598799      6.69039855      4.36354540
Pt      8.59156130      6.70029743      4.61858899
Pt      7.34410208      9.09268479      4.36255400
Pt      7.18193586      4.36747962      4.52950886
Pt      8.63638866      1.78294441      4.46905485
Pt      5.76779172      1.75264482      4.49748711
Pt     10.07683012      4.32151655      4.55234468
Pt     10.07044028      9.05989269      4.56249614
Pt      1.66680843      8.94258570      4.53084235
Pt      0.23068491      6.64224649      4.50745096
Pt      3.00097539      1.69876085      4.48434175
Pt      2.96538037      6.56446509      4.38273024
Pt      4.40013601      8.96884391      4.35458165
Pt      4.38159502      4.00708402      4.40765348
Pt      0.25193781      1.77949172      4.48099785
Pt      1.64537793      4.20650551      4.58413428
Pt      6.94185361      2.75958741      6.94708395
Pt      9.71817612      7.63408808      6.94703450
Pt      8.16889884      5.35348113      6.84676522
Pt      8.27141292      0.39379630      6.77244540
Pt      5.52030041      0.32073064      6.77429956
Pt      2.74400962      5.15441273      6.82712369
Pt      2.88241214      0.30838367      6.76237850
Pt      6.87351070      7.68209086      6.99920521
Pt      4.14447958      2.75629945      6.82655532
Pt      1.46111991      2.73513114      6.88534968
Pt     -0.07209480      5.12861902      6.90875669
Pt      9.85085817      2.76578306      6.82506121
Pt      5.42056439      5.15159116      6.63427895
Pt      0.07451680      0.36539541      6.79104249
Pt      1.17201943      7.50896374      6.94919714
Pt      4.13864402      7.53489583      6.73365048
O       7.44892471      6.81839925      9.61834452
O       1.62522149      7.55667420      9.03150197
O      -0.08980917      4.90599037      9.07585059
O       0.45334325      0.26186048      9.08200362
H       0.78322114      7.92921125      9.44066155
O       8.46952636      0.42055002      8.95694999
H      -0.33471012      0.31949482      9.71863239
H      -0.22098750      5.64024898      9.73495335
H       4.63221045      3.30557826      9.44293891
H       1.29577833      3.26509038      9.41484864
H       9.10198891      1.18022496      8.94224014
C       6.81120827      7.62032085      9.01019030
H       2.49295246      6.17638310      9.42229832
O       7.53699901      3.92523781      8.35188147
H      -0.66469069      0.03588764     11.86232085
H       4.39492138      7.66689785      8.40903025
O       4.20276010      2.48178406      9.08664553
O       1.64940126      2.47902821      8.95357685
H       0.97525231      1.16415076      9.16805519
O      10.20039849      7.84965355      8.99136042
H       3.19259303      2.59642957      9.10572983
O       5.33239678     -0.00735240     10.77158685
O       3.02062528      5.32732612      9.06170029
H       6.21243597      8.43300824      9.47749872
H       6.62213290     -1.11913985     14.61847314
H       6.13955662      0.50304273     11.20559139
H       9.69859378      7.14267334      9.52859159
H      -0.65302860      1.52119071     11.54446477
H       5.22481864     -0.76842551     11.34594714
O      10.05061210      0.69909602     11.33484886
O       5.99353288     -0.67830943     14.03799952
H       3.99653969      5.44251889      9.25741018
H       7.00108641      2.89778995     12.34008230
H       5.40451856      8.36256559     13.59037964
H       7.10792923      0.61554899     13.06475966
H      -0.33454326      7.30313719     11.43324337
H       6.14217615      3.83071348     13.21542533
O      -0.68540151      6.45691161     11.16315925
O       7.40501655      1.19101214     12.36814606
O       6.75973661      3.86088282     12.48070717
Cl      3.95948424      7.23035162     12.52594332
H       2.28042493      1.78743974     12.02727499
O       9.33363344      4.38613477     13.80739127
H       8.41915861      4.23933067     13.48042730
Cl      0.67859257      3.17689389     11.99982029
O       5.42021637      3.40883195     14.82346601
H      -1.11106072      6.09774630     11.98200262
O       2.86152157      1.00723454     12.34469762
H       9.91768535      3.83172350     13.22113289
H       4.58459077      3.82367614     14.48333534
H       5.10853081      2.40971384     14.84364270
H       8.25037998      0.81855641     11.96296944
H      -0.30118073      2.01348189     14.86423040
O       2.84460319      4.30281595     14.01168946
H       3.04304101      5.14748983     13.48946476
H       3.81704454     -0.09623811      9.33917225
H       3.54994120      1.00205243     11.65354410
H       4.75072023      0.30600305     14.53277804
H       0.54513902      2.24419905     16.80038462
H       2.18655594      3.90300222     13.36537361
H       9.79853780      1.43782174     17.07706301
H       3.62917624      1.17110030     13.98242676
O      -0.70882155      1.39954467     15.50101418
H      -0.06603894      0.66588962     15.34638938
O       1.18424253      2.73587597     17.30816073
O       3.01023182     -0.15464725      8.82719447
O       4.18812016      1.06740738     14.78304585
H       1.45594712      3.57365217     16.85824125
H       0.66722994      8.29170523     16.24464191
O       9.35318795      1.35574965     17.97517710
O       1.41772148      2.39112866     19.79063883
O       0.93667431      9.03189455     15.61838609
H       1.29533616      2.58841854     18.76388718
H       8.80413564      3.03603215     18.21457779
O       8.62844926      4.06232174     18.23544158
H       7.97024986      7.11354126     16.03370736
H       8.43389797      1.09021890     17.78770122
H       3.87561564      1.01155544     16.52818094
H       2.83851205      1.72400502     17.39751391
H       1.74966665      1.48119393     19.83437801
H       7.68001387      4.28660783     18.05681311
H       9.26726307      5.07035971     16.93368651
O       3.69072119      1.11059055     17.48034573
H       1.24370181      8.63394845     14.75432884
H       5.78681891      4.16343696     16.34017580
H       5.06946627      2.01704699     18.42902406
O       9.47399483      5.76897013     16.26317919
O       5.53889115      2.52078574     19.10230266
O       1.15618849      8.36691279     12.57270362
H       9.44814496      5.26315516     15.38598857
O       6.06012313      4.79211126     17.09939713
H       1.69019244      9.18247156     12.20431514
H       5.95661905      3.32265685     18.70914816
H       1.87120832      7.68175963     12.65946109
H       6.81400616      0.10397033     18.69274051
H      -0.62651673      6.61846657     17.10948323
H       3.68169271     -0.42925109     17.98751506
O       6.89889210      0.12290140     17.73736609
H       5.24723232      5.11547793     17.56019935
O       0.13374289      7.13638797     17.57025059
O       3.77984892      8.35953966     18.45163649
H       4.68528703     -1.22234833     18.82872153
H       7.08208855     -0.81532359     17.39971119
O      10.61376007      2.72386169     21.66622983
H      -0.13820380      7.74192613     18.26385682
H       2.48695672      3.58950197     20.29509536
H       1.40180714      5.76258381     16.34139134
O       9.88541695      4.98810666     20.32855443
H       0.02272461      2.45598272     20.89550866
H       3.40282145      4.73208627     19.87541174
O       3.01066237      4.34759478     20.68767901
H       9.19228617      5.57365920     20.74908875
H       7.24819330      0.74126221     21.06452428
H       2.37002589      4.84225453     15.53449037
H       9.55477562      4.66825966     19.42841491
H      10.33378078      3.68295064     21.32311796
O       1.94338725      4.92136740     16.43278097
O      10.45496911     -0.42200819     19.84900867
O       6.41004522      0.61723945     20.55527241
H       2.48548709      8.78416100     19.92160064
H      11.37999016      5.80513338     20.72592739
H      11.46669568      9.28024315     20.13810933
O       8.82104596     10.32272741     21.87252487
H      10.36843407      0.32221837     19.21182352
H       9.43290856     11.17590949     21.79301194
O       1.89868740      9.30940231     20.54498891
O       0.98899905      6.21492062     21.26376892
H       6.29596006      1.47554883     20.02527630
H       9.31098137      9.73959056     21.18408588
H       8.06336525      7.18627719     19.71542757
H       3.72386627      3.73213843     21.99675659
H       1.75452671      5.66598052     20.92391360
O       7.77012987      6.61069219     20.46798853
H       1.99013115      8.90862987     21.49315889
H       7.69204865      7.07626738     23.30485556
H       7.38851463      7.19970650     21.17443397
O       3.83289832      3.32238836     22.91206370
O      12.13887976     10.08437733     24.32264883
O       6.85894543      7.50121021     23.00148857
O       8.21228717      2.38002009     24.25716453
H       8.52971426      5.40646906     24.66327418
H       2.85858246      3.15638763     23.12993643
H       6.10197764      6.95199844     23.09601456
H      12.90902776      9.55184045     23.84140806
H       7.45853609      1.77770175     23.94584827
H       8.13960019      3.22502585     23.84144815
H       5.29448645      0.80238953     21.89115480
H      12.20648642      1.37343619     24.25259031
H       3.83157782      5.55804717     22.90629848
O       2.75130672      8.74711187     23.06944343
H       3.06206659      7.83138467     23.19051432
O       4.16694153      6.33064453     23.44121573
O       4.84811513      0.91975453     22.80321028
O       8.77829214      5.50373208     23.74076967
O       1.11325092      2.97072345     23.74098057
O      11.45366309      5.86892307     23.71977816
H       9.10146152      0.14269823     23.61519239
H       6.65612030      8.92458264     23.96705906
H      11.68429707      2.80156841     22.98003284
H      11.75950333      6.52312529     24.34153858
H       3.56871440      9.27931834     22.90945136
H       9.82178679      5.64265004     23.70860659
H       5.78515400      0.57676165     23.85463600
H      10.57703236     -0.16936960     24.03050489
H       4.51399873      1.81765591     22.84091673
H       4.12311650      6.08386996     24.42408388
O       9.62543855      9.32336260     24.26574997
O       6.57803026      9.79431954     24.41085182
H      12.02592295      3.87312142     23.96312691
H      11.80260890      5.93492042     22.76621999
Pt      3.33967712      9.52348624     26.55453129
Pt      6.13075007      9.54163225     26.61533037
Pt      9.11069905      9.52710009     26.52932649
Pt     11.79450340      9.57138213     26.61556267
Pt      8.97418512      4.79176699     26.85207809
Pt      4.78801714      7.08819738     26.62064239
Pt     10.48910050      7.18602986     26.56931158
Pt      7.50994758      7.11710272     26.65177179
Pt     11.69733187      4.79397648     26.71565570
Pt      2.01020173      7.16011243     26.53551475
Pt     10.33696796      2.44930777     26.67445005
Pt      7.53725756      2.44529550     26.53695332
Pt      3.35754075      4.83446137     26.61819313
Pt      6.16782548      4.71557919     26.67360008
Pt      1.91738029      2.39242924     26.67569176
Pt      4.78191520      2.35454361     26.59163752
O       3.87560390      5.51242772     18.35078739
H       3.86458054      6.50325970     18.37644650
H       3.23170003      5.31283606     17.69853236
O       7.15387885      7.63407874     16.14915572
H       2.44779051     -1.05997208      9.00007836
O       9.65732262      2.67962692      8.87996755
H      10.46435196      4.12971433      9.21179174
H       8.68999767      3.06892773      8.90090957
O       5.54590765      4.50486814     10.05226221
H       6.32659058      4.18921100      9.49609978
H       5.95722900      4.37824036     10.96716999
H       6.44992584      6.94420122     16.29608268
H       9.08246250      9.32783154      9.24839463
