   247
 Tv_1:  11.152900   0.000000   0.000000 Tv_2:   0.000000   9.658700   0.000000 Tv_3:   0.000000   0.000000  26.829700
Pt      5.94115614      8.17525687      2.18456005
Pt      7.33143862      0.90264689      2.17083312
Pt     11.67553829      8.18612884      2.22998815
Pt      8.83312547      8.12016854      2.22983514
Pt      8.71276118      3.32055515      2.16660614
Pt      3.18073920      8.09159420      2.21961562
Pt     10.24085658      5.64589828      2.22817414
Pt      7.40960922      5.78976525      2.09205245
Pt      6.01839206      3.30784447      2.19549452
Pt      4.64252946      5.80647060      2.03258596
Pt     10.11587920      0.90779321      2.34347626
Pt      1.92327163      5.72438585      2.20190843
Pt      1.82131814      0.84336131      2.34523278
Pt      3.17473824      3.30393349      2.19639858
Pt      4.51706788      0.94498363      2.19252802
Pt     11.69889826      3.33744536      2.26023013
Pt      5.86311599      6.58910188      4.40224599
Pt      8.51072034      6.59489165      4.60522113
Pt      7.22404413      8.99464596      4.50152295
Pt      7.17602476      4.28686491      4.39277573
Pt      8.56619078      1.76751804      4.46820626
Pt      5.83640025      1.83024093      4.42794330
Pt     10.11271713      4.24026381      4.49395212
Pt     10.00630179      9.08191360      4.69424306
Pt      1.54659844      9.06945462      4.66731548
Pt      0.17688861      6.66020428      4.51975416
Pt      3.05615560      1.90334494      4.61784397
Pt      3.05763463      6.64118683      4.60580490
Pt      4.37617779      9.01566007      4.44147916
Pt      4.33988223      4.31238265      4.42922880
Pt      0.24881915      1.74728688      4.58657352
Pt      1.60930801      4.28989540      4.56081876
Pt      6.93132502      2.66311718      6.77220912
Pt      9.35196408      7.38147012      6.99306153
Pt      8.08570714      5.06099275      6.68203265
Pt      8.21168933      0.33257935      6.94047353
Pt      5.43430782      0.40072053      6.74558129
Pt      2.72831401      5.19895675      6.94822756
Pt      2.71197680      0.38175608      6.81204069
Pt      6.65788707      7.67476366      6.86011913
Pt      4.27295462      2.83921703      6.88823840
Pt      1.43912223      2.79734431      6.78611482
Pt     -0.18745846      5.15489153      6.90671759
Pt      9.98823900      2.51966614      6.76159337
Pt      5.41852329      5.28174303      6.81074221
Pt     -0.24020992      0.12595541      7.08301521
Pt      1.06290520      7.54244585      7.11224045
Pt      3.97277869      7.71499438      6.86638771
O       5.62632663      5.92890955      8.85346402
O       1.49454989      7.43759098      9.14924286
O       0.06799352      4.96855164      9.15208230
O       0.22264072      0.51202845      9.04970661
H       1.01548478      9.64409153      9.31423206
O       8.41152649      0.58763657      9.05970775
H      -1.79365029      2.00192469      9.27926375
H       0.01513028      5.65964505      9.89639202
H       4.81651348      2.85961163      9.63477190
H       1.02685260      3.51610686      9.23041710
H       7.51502506      0.40082062      9.44895284
C       5.77912751      7.23399981      8.63984210
H       2.30700950      6.14019191      9.32802615
O       7.63892062      3.95371954      8.32420638
H      -0.27318344      1.60051001     11.99265527
H       4.53849280      7.78087913      8.57390835
O       4.18518332      2.42537222      8.94492062
O       1.43224206      2.62200610      8.92849986
H       0.70033603      1.64555123      9.15077475
O       9.35881245      7.72939206      9.12451328
H       3.24225282      2.65914962      9.20244406
O       6.11278869      0.44913650     10.52353123
O       2.78871395      5.30948712      9.13000760
H       6.29832225      7.65032715      9.54269979
H       7.26046404     -0.87743214     16.13292905
H       6.56164732      0.42444776     11.37336189
H      10.14400153      7.42645600      9.71433885
H      -0.73714968      0.77869735     10.74100969
H       5.45728824     -0.26863240     10.61830651
O      10.41334908      0.77583115     11.71464372
O       7.08604083     -0.66389706     15.22627914
H       3.77169684      5.27215111      9.36348856
H       7.66662188      2.51177298     12.89988403
H       6.80114409      8.18285044     14.76044976
H       7.58143840      0.02500369     13.71850337
H       0.35906561      6.99765919     11.69167717
H       6.97826304      3.64170658     13.70982020
O      -0.36202402      6.67521255     11.10712477
O       7.74935422      0.50214136     12.80808527
O       7.45307358      3.41896897     12.84425093
Cl      4.03241305      7.89573075     11.54844351
H       3.13661682      2.34262853     12.21032549
O       9.63925043      4.90222040     12.90591290
H       8.89097719      4.29696351     12.61743761
Cl      1.27393252      3.53619254     12.55693677
O       5.76722831      3.82594797     14.73852436
H      -1.04354781      6.21294421     11.70246327
O       3.44929301      1.42302745     12.24534546
H      10.48465568      4.44353363     12.64274551
H       5.07382852      4.46566835     14.43295479
H       5.19104075      3.01653245     14.82463714
H       8.67819227      0.43583845     12.54069954
H       0.57653046      2.16273526     14.41129400
O       3.34708240      5.42723044     14.06986873
H       3.55270655      6.22024482     13.53869052
H       3.39422629      0.77519143      9.31276566
H       4.13658667      1.25763504     11.58855832
H       5.54717077      0.75745763     14.69021988
H       1.38662892      2.30499505     16.55696832
H       2.69043119      4.79581542     13.65908709
H      10.06942816      1.30726526     16.03980580
H       4.31746154      1.03909981     13.81829644
O       0.40204448      1.48688848     15.12820173
H       0.90346526      0.59938019     15.01449737
O       1.89376840      2.64230480     17.36046834
O       2.88822748      0.02008576      8.89518699
O       4.76764966      1.34539040     14.67115012
H       2.05715263      3.57197280     17.14168841
H       1.70911261      8.53904417     15.66884208
O       9.72726712      1.32860717     16.96586942
O       1.48758254      2.34965905     20.07712418
O       2.16966802      9.12216161     15.02989024
H       1.65518931      2.38828705     19.10806076
H       9.61695513      3.26817841     17.31781224
O       9.26831982      4.16420149     17.57560731
H       7.27630659      6.20096417     13.25719590
H       8.84304078      0.90057488     17.00019618
H       3.81553302      0.34779667     16.28845037
H       3.02376118      1.16635360     17.31421527
H       2.07701044      1.59183424     20.35471236
H       8.36251044      3.99404401     17.89571534
H       9.43340268      5.58764367     16.41587623
O       3.57884933      0.39402969     17.24678875
H       2.01812931      8.70560811     14.13985602
H       6.21336864      3.95878126     16.81578083
H       4.97330650      1.26788960     18.19878280
O       9.70303846      6.41991496     15.85584826
O       5.58118411      1.71160397     18.88320592
O       1.29309317      8.37977925     12.39088819
H       9.82828487      5.99588822     14.99245390
O       6.14115913      3.93950344     17.82098748
H       0.67534097      9.10928304     12.08537323
H       5.77233976      2.60821117     18.48880874
H       2.24481029      8.42730717     12.03772134
H       6.80787849      0.38214258     18.23626454
H      -0.09826120      6.88649260     16.43931359
H       4.16467184     -0.85817426     18.43937570
O       7.51389257     -0.11900687     17.89029508
H       5.52199630      4.68111035     18.04011363
O       0.70151607      7.43063898     16.83176763
O       4.46894971      8.26744479     19.24691730
H       5.39386020     -1.25519290     19.38745125
H       7.97746481     -0.46951458     18.76316268
O      10.52641198      3.30382647     21.26755099
H       0.54370836      7.82051081     17.72245272
H       2.31667978      3.89603036     20.46665886
H       1.74471873      6.11277077     16.75272488
O       9.81745510      5.64238653     19.98989537
H       0.03976639      2.84992191     20.74712433
H       3.14056377      5.13011195     19.73796652
O       2.64624036      4.81963280     20.57581726
H       8.84162697      5.46101620     20.24988527
H       6.63171905      2.01914900     21.63744991
H       2.57289319      5.37658385     15.62000727
H       9.86531432      5.46736385     19.01313067
H      10.35427342      4.15527141     20.82332339
O       2.33137580      5.33803259     16.56939438
O      11.26156589     -0.36168887     18.82866859
O       5.78220674      2.38322918     21.35891849
H       3.16834221      8.74836822     20.56898238
H      11.27776058      6.80570881     20.41634820
H      12.10176327      9.80524111     18.83460489
O       8.77706644     11.06696911     21.63329694
H      10.66573201      0.25369646     18.29515502
H       9.29390993     11.87640607     21.36484648
O       2.35267888      9.15685125     20.98141387
O       0.84612574      6.82467091     21.04538148
H       5.54021105      2.02802558     20.43448424
H       8.86175789     11.06638372     22.62816015
H       9.66950630      8.72188342     19.94128054
H       3.29813597      4.90708781     22.14620602
H       1.45306559      6.08679624     20.90725270
O       8.73064551      8.92784454     20.12881694
H       1.69394928      8.35201072     21.02469972
H       7.66730888      5.13134060     21.79498706
H       8.79002021      9.76939310     20.73349669
O       3.35067176      5.10262780     23.13638714
O      11.77086429      9.83114647     24.32084167
O       7.21406953      5.57383278     20.97527374
O       7.24047579      2.39777682     24.19262365
H       7.87743597      5.40695501     24.04014762
H       2.49480802      4.76346544     23.41462815
H       6.75775035      4.82643370     20.56731065
H      12.72608617      9.44796060     23.93570945
H       6.19037686      2.49509564     24.12766902
H       7.56517395      3.30456501     24.08545406
H       4.89445794      2.22122008     22.79778619
H      11.80170323      1.19531537     24.17222605
H       4.17726926      6.30989964     23.78078141
O       3.14819467      9.36895845     23.57060693
H       2.93520353      9.41861336     22.57610474
O       4.65858931      7.13204307     24.17119644
O       4.34991547      2.18164654     23.66895939
O       8.43031679      4.87182981     23.43440395
O       0.90063105      3.03003848     23.74173524
O      10.66473617      6.70209751     23.59571014
H       8.49706696     -1.23584743     23.89761475
H       7.23057103      7.92200831     22.28919935
H      11.50615135      3.42507842     22.95747924
H      11.36220557      6.67386167     24.27915613
H       3.59302271     10.22232933     23.92311040
H       9.32718419      5.22895887     23.54504069
H       6.30441583     -1.86840945     23.52365847
H      10.03967098     -0.74939534     24.26110748
H       3.83283566      3.05856912     23.68827781
H       4.15912541      7.89355727     23.81155563
O       9.09622672      9.20143869     24.35090107
O       7.27058389      7.72419607     23.21590801
H      11.63996713      3.30538354     24.60180678
H      11.28274466      6.62913547     22.78776559
Pt      3.31413468      9.48178598     26.66984097
Pt      6.18450662      9.33054322     26.58547151
Pt      8.93862908      9.32783575     26.64038884
Pt     11.62001843      9.45959670     26.65438136
Pt      8.79484690      4.63677377     26.63301205
Pt      4.65740766      6.90818518     26.41879153
Pt     10.34149416      7.04028849     26.77688690
Pt      7.50964703      7.06276569     26.62576984
Pt     11.60994580      4.65773909     26.69596205
Pt      1.88267513      7.03361840     26.57287698
Pt     10.33130186      2.25182987     26.96396865
Pt      7.33522322      2.22119401     26.66711520
Pt      3.30136876      4.55434901     26.73959723
Pt      6.13643119      4.70688604     26.67479870
Pt      1.83035765      2.19504846     26.68290861
Pt      4.65077728      2.15456460     26.59656349
O       4.26681531      5.60878698     18.37348655
H       4.40710289      6.51795751     18.70588928
H       3.72888301      5.59764480     17.53291609
O       6.55700446      6.84716305     13.52684840
H       2.22458375     -1.57018714      9.31483153
O       9.70705668      2.91540328      8.86760902
H      10.40939345      4.38458944      9.21583787
H       8.55897961      3.43027127      8.69218752
O       5.74793089      3.59487338     10.49874511
H       6.33355901      4.06061761      9.86659074
H       6.28480377      3.33839263     11.29808545
H       5.99512294      6.96567020     12.69437986
H       9.04162334      8.69603218      9.27489171
