   247
 Tv_1:  11.152900   0.000000   0.000000 Tv_2:   0.000000   9.658700   0.000000 Tv_3:   0.000000   0.000000  26.829700
Pt      5.90823965      8.16215647      2.02236873
Pt      7.19292259      0.87377243      2.05518028
Pt     11.41531601      8.24213707      2.17599021
Pt      8.64999266      8.20142610      2.20446961
Pt      8.71563928      3.31408270      2.13988205
Pt      3.01678411      8.15516160      2.23305840
Pt     10.04117508      5.69735948      2.27309102
Pt      7.28053300      5.65178073      2.21546282
Pt      5.85000782      3.26102900      2.40063181
Pt      4.40785547      5.70337498      2.22290841
Pt     10.12245828      1.00031083      2.24832300
Pt      1.61478188      5.71506867      2.31592110
Pt      1.68599855      0.88320373      2.18329619
Pt      3.04050410      3.35969611      2.31447094
Pt      4.33705193      0.95342036      2.25201352
Pt     11.41925261      3.29090185      2.26292028
Pt      5.89338156      6.60474898      4.35856907
Pt      8.67852156      6.63830441      4.58120215
Pt      7.16840393      8.93100807      4.44475083
Pt      7.23895230      4.31867650      4.56467423
Pt      8.57585165      1.66588018      4.42329972
Pt      5.92028644      1.78156554      4.56446441
Pt     10.03219437      4.17653176      4.48127137
Pt     10.08454802      9.02313822      4.63015426
Pt      1.62863604      9.03303061      4.57618641
Pt      0.34774722      6.68020915      4.50250653
Pt      3.00158747      1.75003147      4.63504447
Pt      3.14475232      6.70803533      4.49752657
Pt      4.37400940      9.05589105      4.48222619
Pt      4.49019218      4.19236456      4.64607225
Pt      0.32077458      1.87380136      4.58219213
Pt      1.68877144      4.25511708      4.64179035
Pt      7.16100208      2.68025195      6.94526698
Pt     10.00283896      7.69052645      6.94326281
Pt      8.66984466      5.20828745      6.84015230
Pt      8.56044213      0.41262568      6.82814673
Pt      5.95087797      0.30811062      6.72460583
Pt      3.03742894      5.10263154      6.88882856
Pt      3.04229018      0.41632280      6.89092629
Pt      7.15418965      7.52649428      6.89762142
Pt      4.42903750      2.73008018      6.95801706
Pt      1.63270324      2.77609646      6.87862783
Pt      0.27621395      5.23693663      6.82530954
Pt     10.03359169      2.71807469      6.75985521
Pt      5.88633400      5.10792805      6.87973748
Pt      0.13320964      0.36121201      6.88170145
Pt      1.66368644      7.63917037      6.85168992
Pt      4.42859011      7.56354294      6.83396721
O       6.05468840      5.68514635      8.84873727
O       1.92752733      7.60167393      8.93142547
O       0.05546613      4.88957560      9.06795892
O       0.18190052      0.53415113      8.98287743
H       1.05128790      7.36934990      9.32540334
O       8.64851487      0.02555362      9.10185811
H      -0.67597752      0.92980107      9.31175447
H       0.21953588      5.52012294      9.81467294
H       4.82594572      3.42034916      9.39587241
H       0.82800267      4.20717480      9.19670282
H       7.79406452      0.26261210      9.53750777
C       6.15382631      7.01861248      8.68420377
H       2.56097784      6.39885268      9.01761638
O       8.53979028      3.54466088      8.18628674
H      -0.35264883     -0.91200994     12.91866485
H       5.03932326      7.52040725      8.57971757
O       4.50623379      2.59944678      8.92037556
O       1.64152745      2.59054888      8.94229823
H       0.86491590      1.34673470      9.08390971
O       9.71835998      7.46662574      8.93350254
H       2.55443319      2.47443901      9.20876426
O       5.71380472      0.26021203      9.37747201
O       2.99530229      5.42598851      8.99745263
H       6.67413680      7.39978116      9.56977261
H       6.37042419     -0.47726250     14.92862005
H       5.52312083      1.23525882      9.50155245
H       9.17813231      6.76183099      9.20157718
H      -0.46863664      0.05856314     11.71855624
H       5.91607109     -0.06595989     10.32201576
O      10.32769988     -0.74131971     12.03355456
O       6.52813456      0.23677880     14.26380649
H       3.64309744      5.28150418      9.71549956
H       6.78935257      3.08014457     12.43211028
H       6.50166643      9.41769397     13.39123204
H       8.04083920      1.22644505     12.79380841
H      -2.05795053      8.11361579     11.40591065
H       6.04835365      3.83585900     13.48529558
O      -2.76113233      7.45929815     11.31596170
O       7.74855440      1.79051411     12.04948189
O       6.51752008      4.01852846     12.69530789
Cl      3.18471826      7.84298240     12.51010002
H       2.24796539      2.12397768     11.91006661
O       8.95465320      5.53118915     13.12094679
H       8.22981087      4.85348610     12.96476171
Cl      0.62845717      3.65139759     12.76889060
O       4.80899096      3.86819531     15.36109904
H      -2.64956507      6.72811298     11.97387414
O       3.14649154      1.69810228     11.82479676
H       9.77736459      5.07306747     12.80896504
H       4.15631793      4.50336439     14.95085352
H       4.59926963      2.93944136     15.05454813
H       8.58542133      2.07279043     11.69543322
H      -0.23925169      2.19192020     14.30754422
O       2.92306669      5.27079573     13.90553503
H       3.07490502      6.16278444     13.44975261
H       4.09763361      0.09535662      9.32363601
H       2.92552064      0.91537182     11.25505216
H       4.83164353      0.73635578     14.42263362
H       0.50995892      3.05159744     16.29984902
H       2.15313974      4.84410275     13.52459272
H       9.45889210      1.05281461     16.40417558
H       3.63674080      1.33792421     13.58750149
O      -0.56462937      1.50927502     15.01314917
H      -0.12235495      0.68119988     14.64151674
O       1.15902037      3.08282587     16.98879942
O       3.07153338      0.15571784      9.11738276
O       4.03058671      1.32341510     14.46114580
H       1.69662453      3.92508527     16.71294267
H       0.41335818      8.17490101     14.92023786
O       9.25128457      1.10174227     17.33827343
O       0.31983922      2.61447741     19.66853840
O       0.65491773      8.77755022     14.11357730
H       0.43792217      2.70105746     18.71641445
H       8.90801352      2.97824362     17.76989167
O       8.61962994      3.87152336     17.86962764
H       6.81306792      8.31577349     11.69113965
H       8.32791033      0.76411856     17.50662275
H       3.20025651      1.18580652     16.16027438
H       2.08098888      1.43843486     16.98906243
H       0.60684944      1.73811674     19.96013177
H       7.63535816      3.80504667     17.97582931
H       9.46137013      4.53148986     16.31237006
O       2.89605733      0.90033368     17.02659653
H       1.54434137      8.45387502     13.87504093
H       5.45692892      4.26622125     16.85450069
H       4.29106816      1.82309828     17.83654225
O      10.11193382      4.86247649     15.69209667
O       5.09407031      1.95126572     18.43262388
O       0.66348338      6.61678691     11.13890884
H       9.63423474      5.03494001     14.82466610
O       5.72606541      4.36059695     17.82614880
H       0.09797997      7.37030147     11.36895677
H       5.42663758      2.89819129     18.34244341
H       1.51516709      6.82392481     11.55458538
H       6.10095074      0.68150241     17.72899646
H      -0.54549159      6.36763841     15.85198089
H       3.46716700     -0.37616359     18.10593844
O       6.62763791     -0.02004617     17.29706761
H       5.25594166      5.10339983     18.25388857
O      -0.01100471      7.26226604     16.03179199
O       3.45687382      8.67123829     18.88671760
H       3.96075277     -0.53093936     19.56601036
H       6.79198753     -0.78578329     17.89137330
O       9.35847570      3.01101879     21.28824304
H      -0.15922275      7.53651002     16.92930569
H       1.46248746      3.88775016     20.01135985
H       1.60905466      6.18105287     16.41679454
O       8.75825220      5.31889669     20.26291331
H      -1.00994531      2.66745436     20.74646693
H       2.44711626      4.95101947     19.99728843
O       1.81550222      4.59298386     20.58121412
H       8.39740114      6.26071008     20.33773392
H       5.71615231      0.28159732     20.80242024
H       2.59144181      5.34854871     15.46873488
H       8.68272098      5.13472054     19.31695752
H       9.12197246      3.92532009     20.95156348
O       2.38720274      5.46908469     16.47082171
O      10.37582397     -1.05014163     18.72058063
O       4.83031086      0.66817587     20.65907111
H       2.18823487      9.33544512     19.53451879
H      10.44964213      6.11567308     20.79637002
H      11.21132353      8.76862155     19.26249599
O       8.07427878     10.43874663     21.45178030
H      10.16564836     -0.19666841     18.29846564
H       8.28583369     11.34670086     21.29381539
O       1.42198260      9.63473667     20.11755695
O       0.13042452      6.52151907     21.17385043
H       4.91989093      1.25357755     19.77596902
H       7.92853041     10.27255079     22.38677284
H       9.07926332      8.13281009     19.51093157
H       2.17847657      3.77416801     22.03850951
H       0.78904609      5.84181046     20.86418439
O       8.08487918      8.01521614     19.91335866
H       1.52057509      9.13195254     20.92067992
H       6.34123580      6.69677394     23.05511298
H       8.09864269      8.70157982     20.58245770
O       2.20144015      3.48818844     22.99490631
O      11.35943159      9.78557527     24.16363445
O       5.60912871      7.30763192     23.08698919
O       7.47451709      2.72360782     24.25969193
H       7.59054087      5.75671080     24.33544817
H       1.29120799      3.43733056     23.29494659
H       4.80988568      6.78543597     23.32353083
H      12.15147111      9.34459724     23.72024542
H       6.48140115      2.73223294     24.16033621
H       7.66826214      3.66899685     23.98185694
H       4.24474661      1.45056767     22.04954019
H      11.33606474      1.09056919     23.87579244
H       2.60970024      5.41636471     23.51112311
O       2.18161235      8.80908319     22.82081792
H       2.51452497      7.91875598     22.74783101
O       2.82201845      6.36329204     23.58541483
O       4.05624857      1.58694283     23.01491866
O       7.95534987      5.27163696     23.57927551
O      -0.84708674      2.64393982     23.72047388
O      10.47361226      5.97346548     23.64459410
H       8.70955899      0.95186015     24.19176961
H       5.81732906      8.74493357     23.97341558
H       9.93850139      2.88151374     22.77111268
H      10.81649311      6.62320991     24.26472294
H       2.95976866      9.40997084     22.99297516
H       8.93850934      5.60419946     23.51087994
H       4.98919042      0.55443413     23.89507366
H       9.66467829     -0.19360485     24.05742821
H       3.30107764      2.28712839     23.18719160
H       2.62881334      6.51538117     24.52397265
O       8.63244569      9.66032774     24.35419109
O       5.71075986      9.64205626     24.41187282
H      10.49321519      3.44558966     24.21212607
H      10.88444949      6.26496195     22.75995550
Pt      3.33933719      9.56164087     26.61654984
Pt      5.98087553      9.54118680     26.61031934
Pt      8.70681156      9.50223004     26.57487197
Pt     11.59038078      9.44422346     26.55879661
Pt      8.76322463      4.78626716     26.65952473
Pt      4.47843693      6.99027382     26.62840303
Pt     10.18886683      7.09598757     26.80168809
Pt      7.42220458      7.00530099     26.75867692
Pt     11.51756071      4.61909802     26.74379689
Pt      1.72242276      7.07318968     26.68212669
Pt     10.25734573      2.22530009     26.60370288
Pt      7.53032874      2.32894608     26.66843104
Pt      3.04259581      4.65342226     26.83874768
Pt      5.89619981      4.62634116     26.70464628
Pt      1.84403827      2.15164370     26.59219525
Pt      4.57770205      2.33648586     26.71013181
O       3.55914159      5.88647066     18.62581053
H       3.41985143      6.83192866     18.82294293
H       3.08139766      5.72553729     17.77092881
O       6.03193544      8.93305338     11.80793383
H       2.53205489     -0.70712299      9.29084354
O       9.93972019      2.61491779     10.48298180
H      10.54301652      3.18243597     11.05737048
H       9.63817569      3.24376630      9.80735973
O       4.45532479      4.08630723     10.87449905
H       3.84415933      3.49406338     11.31189572
H       5.20907488      4.26844365     11.56741162
H       5.21346775      8.39998570     12.01375156
H       8.99667670      8.67503454      9.15350769
