   247
 Tv_1:  11.152900   0.000000   0.000000 Tv_2:   0.000000   9.658700   0.000000 Tv_3:   0.000000   0.000000  26.829700
Pt      6.15874757      8.24345392      2.07753105
Pt      7.51502478      0.90981477      2.14035614
Pt     11.73915584      8.22044159      2.19341876
Pt      8.97002967      8.27376077      2.05013944
Pt      8.80310938      3.33475509      2.16338998
Pt      3.24941767      7.91976089      2.10163879
Pt     10.18820282      5.88211843      2.28074521
Pt      7.42768235      5.81725632      2.21751939
Pt      6.05395634      3.25212085      2.16073608
Pt      4.76269685      5.68115171      2.05138320
Pt     10.25273281      1.06895843      2.36502173
Pt      1.77156379      5.61891285      2.12102922
Pt      1.92721461      0.79599279      2.15774784
Pt      3.24575099      3.28524757      2.17980336
Pt      4.61251409      0.91017887      2.13336114
Pt     11.65305780      3.36525714      2.32355769
Pt      5.78023273      6.68021680      4.42222120
Pt      8.57866060      6.87579847      4.41496447
Pt      7.16108803      9.21337582      4.50597456
Pt      7.12399390      4.31526578      4.47394257
Pt      8.64829958      1.93499746      4.57660950
Pt      5.87380865      1.88345793      4.47382150
Pt     10.03865683      4.27940372      4.50949805
Pt      9.92690118      9.23334311      4.51770524
Pt      1.56023241      9.02724085      4.62499609
Pt      0.15088201      6.81193257      4.62583337
Pt      3.14654928      1.72799051      4.49291436
Pt      3.01221204      6.69792140      4.38445023
Pt      4.49970459      9.01699893      4.41194037
Pt      4.39150969      4.10961315      4.54634922
Pt      0.34372213      1.80587510      4.57361736
Pt      1.68258055      4.23183510      4.63325636
Pt      6.98971823      2.78828776      6.93755741
Pt      9.51792946      7.60547073      6.89536647
Pt      8.39105759      5.29133852      6.86160648
Pt      8.20780171      0.38928526      6.95277167
Pt      5.56440228      0.25913428      6.75655105
Pt      2.75543314      5.13984314      6.97449513
Pt      2.84385890      0.32062851      6.77436523
Pt      6.90353342      7.58218159      6.84253827
Pt      4.26761569      2.64090997      6.85815839
Pt      1.45182005      2.67350567      6.86102699
Pt      0.07910974      5.24158711      6.95969332
Pt      9.92351691      2.78300812      6.79858332
Pt      5.40350548      5.10533090      6.81140645
Pt      0.00577200      0.36481914      6.89695589
Pt      1.19302313      7.58954207      6.92333646
Pt      4.08707600      7.46500542      6.75059468
O       5.84564871      5.72152563      8.77279614
O       1.59245300      7.69431787      8.99770063
O       0.08736678      4.84830229      9.07151283
O      -0.02890073      0.40959140      9.09689599
H       0.72586127      7.94235328      9.41502410
O       8.35051638      0.28638164      9.00187393
H      -0.87731636      0.88377498      9.33044527
H      -0.09018659      5.54141438      9.73603415
H       4.86917147      2.73142976      9.65979755
H       1.26112739      3.49086384      9.19391058
H       7.45206326      0.49817419      9.39542934
C       6.02969781      7.00603912      8.64340188
H       2.11952664      6.27306790      9.18747466
O       7.81957421      4.06679324      8.27502936
H      -0.67819308      0.24605362     12.69896524
H       4.92055909      7.58340992      8.45391095
O       4.12948558      2.41989863      9.11527283
O       1.67200980      2.65575851      8.90189860
H       0.83745718      0.83694627      9.41843076
O       9.15845927      7.58974095      9.03448099
H       3.33310702      2.88740552      9.33001854
O       5.19359040     -0.00312633     10.58040226
O       2.72621657      5.42188914      9.11267800
H       6.45122167      7.49941076      9.54633480
H       6.37889668     -0.19735390     15.45514673
H       5.93329618      0.36491227     11.25068725
H      10.00576541      7.36461030      9.53779479
H      -0.88830598      1.53466720     11.83888823
H       4.96509163     -0.87188925     11.01367604
O       9.90024820      0.66208194     12.01526377
O       6.10810757     -0.46078020     14.50676134
H       3.55955046      5.74745661      9.55640307
H       7.25733709      2.45097487     13.00432893
H       6.01121052      8.18714423     14.41762696
H       7.20422472      0.13970721     12.99072909
H       0.07494460      7.16107714     11.56976750
H       6.09511756      3.27313553     13.65261402
O      -0.62621309      6.64236784     11.06993345
O       7.35005138      0.80621991     12.27033135
O       6.94043040      3.40585831     13.09882748
Cl      4.25651025      6.91053476     11.42484051
H       1.70958039      1.86966546     11.65433427
O       9.31761687      5.18849175     12.99000935
H       8.49238966      4.63223480     13.00162234
Cl      0.51933252      3.61145148     12.00097334
O       4.46685538      3.36167173     14.44447731
H      -1.25372684      6.34561155     11.79772872
O       2.46641982      1.25662443     11.88304091
H      10.02053064      4.55577414     12.73785304
H       3.86835443      4.02700160     14.02135082
H       4.00932493      2.47605520     14.26444540
H       8.32733681      0.69113491     12.04674740
H       0.42492822      2.74807004     14.03475759
O       2.73286956      5.33606763     13.76398297
H       3.12225196      5.85797826     13.02908760
H       3.67568074      0.10865128      9.25165108
H       3.03589897      1.41442145     11.13812391
H       4.57106644      0.09131656     14.14743614
H       1.10465198      2.89033951     16.43376971
H       1.95857420      4.88788404     13.30968981
H      10.01927793      1.98466029     16.42672267
H       3.11828909      0.61067469     13.59507843
O       0.62449950      2.28407022     14.85378081
H       0.73625670      1.31672220     14.66540342
O       1.38172958      3.24165153     17.29152093
O       2.73503334      0.13123850      8.97229785
O       3.72642281      0.69043219     14.32661084
H       1.57074116      4.18475964     17.10923164
H       0.33860129      8.53800121     14.73137179
O       9.42709732      1.89636703     17.17181666
O       0.52628820      2.78224823     19.75439787
O       0.58456586      9.25260904     14.11518361
H       0.65784845      2.90725293     18.75414484
H       8.76735779      3.35451098     17.63298548
O       8.22675905      4.23065482     17.60511696
H       5.92564185      5.92068744     15.06317801
H       8.68936204      1.29577560     16.86826532
H       3.32822783      0.75657014     15.97722170
H       2.60471527      1.63323671     17.09555607
H       0.99867150      1.89904529     19.80078876
H       7.42851522      3.94705510     17.14521355
H       9.02836989      5.27714516     16.41761296
O       3.15504831      0.84531602     17.03512396
H       1.18101876      8.96048422     13.45011052
H       4.89466868      3.93728241     16.13673298
H       4.55478196      1.31577528     17.57737399
O       9.29594173      6.06377524     15.82406815
O       5.31920879      1.76632515     17.96709583
O       1.68318931      8.20846364     11.82563999
H       9.46777383      5.64722635     14.89690474
O       5.33935847      4.22246680     16.94356427
H       1.97976150      9.09841226     11.50747022
H       5.41331581      2.71382181     17.64895641
H       2.57198697      7.70384619     11.59026680
H       6.43932679      0.86621325     17.32487012
H      -0.49805377      7.05936019     16.18378398
H       3.30796446     -0.47964363     18.54753305
O       7.23512005      0.28803675     16.89488460
H       4.67566744      4.75121227     17.52322791
O       0.14568395      7.76934239     16.26285598
O       3.53665475      8.52630614     19.25430986
H       4.36206439     -0.63717825     19.65371997
H       7.40248643     -0.36333295     17.66176648
O       9.29409540      2.36848550     20.92530921
H      -0.14580643      8.29697111     17.08664087
H       1.53726412      4.23219039     20.58470068
H       1.58278684      7.03245704     16.43812013
O       8.44479684      5.20624282     20.37065115
H      -1.25814206      2.39976173     20.12496707
H       2.60640932      5.23737886     20.03780517
O       2.07682456      5.05143764     20.81362204
H       7.60563190      5.72484730     20.27947763
H       6.18520580      0.57458461     20.73274835
H       2.33297248      6.02537567     15.59006120
H       8.52304644      4.99418711     19.39055399
H       8.65006908      3.12774067     20.78688658
O       2.15754565      6.24452789     16.49862450
O      10.46531960     -0.24818488     18.41362100
O       5.27543885      0.76690966     20.46998171
H       2.02294417      9.19676173     19.95507927
H      10.13092640      5.90188525     20.84541748
H      10.96194215      9.49619036     19.27028676
O       8.04553412      9.65736715     21.51908406
H      10.10611382      0.64718283     18.17290219
H       8.69004603     10.34155273     21.19093192
O       1.33637926      9.81739974     20.32238422
O      -0.30384057      6.37673580     21.40296223
H       5.30172136      1.29199482     19.57320021
H       8.07796219      9.50637549     22.49154055
H       8.99620601      8.48516676     18.81482393
H       2.84465139      3.18496308     24.57138736
H       0.47076362      6.06647356     20.94767909
O       8.06343106      8.26855666     18.94560613
H       1.46512996      9.66244525     21.28504382
H       6.17761600      6.14830567     23.36866824
H       7.93273262      8.52369157     19.89100713
O       2.70850274      3.26059022     23.56259903
O      11.34275055      9.92264009     24.19224798
O       5.59939175      6.92493182     23.41097904
O       7.35334397      2.16834660     23.83411455
H       7.76321455      4.78506973     24.37787469
H       1.74597811      3.00679751     23.34569117
H       4.69127719      6.60105310     23.30392710
H      12.13064427      9.49077474     23.74268881
H       6.43412740      1.92062548     24.01046056
H       7.36736496      3.14464907     23.58456920
H       4.61517368      1.05541423     22.05585831
H      11.51348264      1.26464426     24.02942376
H       2.41514450      5.92610533     22.59768635
O       2.06626973      8.97422568     22.82347236
H       2.33864779      8.10853426     23.19233520
O       2.82529565      6.55658241     23.21541826
O       4.28669937      1.01887128     22.95956306
O       7.68162028      4.73109184     23.39355377
O      -0.15122307      2.68106896     23.23428210
O      10.48186300      5.19991249     23.68412300
H       8.37288346      0.88710605     24.23387914
H       6.12433998      8.29636997     23.91732852
H      10.56197429      2.49314367     22.39351280
H      10.55088533      5.83397003     24.42903868
H       2.96218421      9.48259126     22.90694694
H       8.59801811      4.91127427     23.18737088
H       5.38291087      0.09848459     23.89868540
H       9.82298326      0.21902801     23.94612407
H       3.87675746      1.93470596     23.11020107
H       2.75471508      6.08576397     24.07510549
O       8.86272018      9.68401676     24.37328493
O       6.20066299      9.28519293     24.15082032
H      10.78519852      3.62062301     23.57863843
H      10.79494367      5.71111597     22.88280780
Pt      3.39582730      9.36655032     26.69958464
Pt      6.06713533      9.36437347     26.40617854
Pt      8.97116943      9.35358846     26.44316673
Pt     11.66956785      9.38170433     26.52433629
Pt      8.86173609      4.71062617     26.64391858
Pt      4.83125108      6.89145328     26.51301055
Pt     10.39341679      7.06170646     26.75441498
Pt      7.52475944      6.95081677     26.59247392
Pt     11.67949296      4.53203008     26.68846251
Pt      2.04309111      6.92908533     26.47675831
Pt     10.25364919      2.17005300     26.75408295
Pt      7.51915092      2.26936548     26.67550893
Pt      3.36579839      4.58967079     26.56355758
Pt      6.15454162      4.62382069     26.58841329
Pt      1.88942711      2.17268335     26.62961176
Pt      4.69335368      2.10785944     26.48532399
O       3.62433471      5.58307882     18.52252527
H       3.89213425      6.43990161     18.86146111
H       2.99143963      5.83136830     17.77562975
O       5.54376477      6.62583896     14.57404331
H       2.31145553     -0.80852017      9.10109478
O       9.80305719      2.75025118      8.88767600
H      10.45016332      3.64074860      9.15525078
H       8.84396745      3.13755448      8.96794239
O       6.20867561      3.31443333     10.37745394
H       6.46110742      4.11757105      9.94029083
H       6.19669637      3.49934706     11.33525730
H       5.41476513      6.19148052     13.66803148
H       8.87033292      8.61402440      9.11729816
