   247
 Tv_1:  11.152900   0.000000   0.000000 Tv_2:   0.000000   9.658700   0.000000 Tv_3:   0.000000   0.000000  26.829700
Pt      6.04747721      8.32402610      2.06282727
Pt      7.29915871      1.08758690      1.98760151
Pt     11.48428915      8.11269674      2.31151806
Pt      8.73141806      8.14838593      2.29789971
Pt      8.87845992      3.41505107      2.29571696
Pt      3.21584223      8.23416946      2.13422647
Pt     10.19776337      5.66741742      2.26576933
Pt      7.37539855      5.74518267      2.15757680
Pt      6.06252185      3.41978306      2.27919681
Pt      4.63603875      5.77193495      2.14319793
Pt     10.15332033      0.97016259      2.26818266
Pt      1.84707750      5.70543114      2.20361980
Pt      1.80918472      0.90063828      2.33964628
Pt      3.22705977      3.42767363      2.15877246
Pt      4.48880997      0.92228355      2.11721168
Pt     11.56266236      3.38423490      2.32861426
Pt      5.87998154      6.73510288      4.32311725
Pt      8.54562503      6.79264130      4.66528649
Pt      7.15362802      9.14910135      4.44281394
Pt      7.35116637      4.33391062      4.45103523
Pt      8.75802212      1.83264779      4.47724735
Pt      5.96272327      1.94352581      4.46939163
Pt     10.09455514      4.36869743      4.70257535
Pt     10.08832993      9.11348894      4.66674896
Pt      1.75862073      9.09943058      4.56061086
Pt      0.22982402      6.71226008      4.60728122
Pt      3.13859738      1.96353897      4.52028574
Pt      3.08678909      6.68308762      4.39305811
Pt      4.45244074      9.16547797      4.45390398
Pt      4.45562571      4.32968880      4.54006142
Pt      0.40023044      1.85924269      4.51156215
Pt      1.68217776      4.34959993      4.57506693
Pt      7.37748492      2.73008054      6.85678486
Pt      9.26669449      7.54201990      7.09462559
Pt      7.85647604      5.27659093      7.02981521
Pt      8.83247815      0.35338919      6.90236346
Pt      6.02581570      0.45911065      6.69311018
Pt      2.26152985      5.21286972      6.95316117
Pt      3.28449183      0.45221583      6.86213115
Pt      6.53711598      7.66535118      6.82803123
Pt      4.58971243      2.74407048      6.83256484
Pt      1.70049913      2.75889919      6.87104123
Pt     -0.56227308      5.15760595      7.08267095
Pt     10.17904424      2.58737451      6.89672789
Pt      5.03448660      5.26495722      6.92655158
Pt      0.49747402      0.44442994      6.89695441
Pt      0.92939988      7.56336966      6.92856402
Pt      3.77638757      7.59639767      6.66263171
O       5.54718907      5.90378182      8.83223373
O       1.37335965      7.68162966      9.10187182
O      -0.25050662      4.98338651      9.09519351
O       0.34848860      0.42199055      9.05048853
H       0.60113324      8.26042095      9.29945759
O       8.40210889      0.47066209      9.08112607
H      -0.36023588      1.17321925      9.23041855
H      -0.81013664      5.61286577      9.76153795
H       4.84369470      2.10862474      9.33556251
H       1.66744799      3.38851270      9.48826069
H       7.47935733      0.71355332      9.36585016
C       5.62109366      7.28316632      8.72277010
H       2.19347364      6.18604883      9.36434217
O       7.71455275      3.90227476      8.44876819
H      -1.54833992     -1.13255551     12.64824297
H       4.64964818      7.80504852      8.56102069
O       4.35605664      2.86530594      8.88294532
O       1.97034582      2.55983289      9.03914207
H       1.30741241      0.77803724      9.28143609
O       9.63675992      8.11072129      9.07928795
H       3.06928308      2.73315674      9.07438212
O       4.45648147     -1.57370406     11.30149787
O       2.56436893      5.30446132      9.17789588
H       6.15665217      7.70788588      9.67258672
H       5.94893029     -1.27678209     16.14743805
H       5.28924111     -1.35798150     11.83965176
H       9.60825720      7.42168172      9.79660083
H      -1.43357469      0.00171487     11.70359449
H       4.36740214     -2.56377263     11.33293749
O       9.05407497     -0.69696061     11.99389494
O       5.93083113     -1.35614977     15.16397032
H       3.53846160      5.36498511      9.36428086
H       6.13434982      4.21773866     11.29900281
H       5.92449741      7.31486159     14.85744044
H       6.44810541     -0.45515035     13.60620466
H      -0.37107515      6.41473122     11.41584547
H       6.81629954      3.94884745      9.95628769
O      -1.26937372      6.18272184     10.98241216
O       6.48691990     -0.11822085     12.67354038
O       6.87072225      3.75115843     10.90130180
Cl      3.94794890      5.07377166     11.94983817
H       2.00041243      0.74307694     12.06896883
O       9.17745452      3.98977333     12.13837882
H       8.32962531      3.73829105     11.66317988
Cl     -0.26522613      1.60507806     12.07503797
O       5.71042911      2.49703575     14.65860259
H      -1.57424098      5.37348842     11.40597227
O       2.37324953     -0.12457268     12.35971158
H       9.77594227      3.23086765     12.14579692
H       5.22203219      2.95467952     13.97971645
H       5.13964461      1.64389216     14.66529799
H       7.45294823     -0.34757485     12.53570885
H      -0.89146462      1.26719785     14.02479996
O       1.36306011      4.38460716     13.33217631
H       2.19551971      4.51957448     12.76823744
H       3.87110912     -0.28853620      9.36368500
H       3.16110393     -0.34369164     11.82195360
H       4.75542392     -0.56842797     14.79684931
H       0.11916639      1.43061788     16.23589841
H       0.79914831      3.69687944     12.90777925
H       8.57331809      0.36241156     16.28932373
H       3.39335596     -0.01344504     13.99626698
O      -0.92246305      0.77382475     14.88116667
H      -0.50698275     -0.05184287     14.55014803
O       0.62047423      1.92205613     16.90420388
O       2.99993707     -0.08639207      8.94293063
O       4.02355180      0.17375736     14.78588441
H       0.73356667      2.87969118     16.54559740
H      -0.74258518      7.38691568     14.77725295
O       8.48744852      0.62483813     17.23787174
O       0.84705798      2.02723889     19.52714567
O      -0.39660981      7.97466137     14.08586657
H       0.47697484      2.10274809     18.57300120
H       8.30335630      2.56643484     17.33502844
O       8.06910875      3.58113701     17.26370807
H       6.65943572      5.37879656     14.32620050
H       7.65267298      0.13593528     17.41953869
H       3.25531005      0.21230179     16.16014488
H       2.15090412      1.02577904     17.02596809
H       1.33684506      1.20470756     19.54003206
H       7.06559888      3.63903256     17.20971493
H       7.85947671      3.55377446     15.26996238
O       3.00904474      0.52918766     17.12440513
H       0.18451613      7.42985449     13.53579281
H       5.20052524      3.44165123     16.24699949
H       4.16999643      0.91508006     17.93662793
O       8.01153042      4.25615748     14.59182530
O       4.99948473      1.27521367     18.53541014
O       1.15411964      7.13162455     11.92297924
H       8.45035987      3.90974416     13.81620819
O       5.20572460      3.67367421     17.18812179
H       1.53500417      8.04581061     11.86608313
H       5.02009537      2.21548472     18.24231319
H       1.83376165      6.49481033     12.06968148
H       5.65540139     -0.24050474     18.21543178
H      -2.07016978      5.28948146     15.36866417
H       3.01843298     -1.24656003     17.58148292
O       5.81870423     -1.15993065     17.87990484
H       4.55621934      4.35506151     17.30989631
O      -1.27473343      5.72827479     15.77634492
O       3.15126245      7.71385542     18.31140025
H       4.11808908     -1.71733802     18.40756778
H       6.57520820     -1.57257526     18.45396438
O      10.11555096      2.75436326     21.14086782
H      -1.53214509      5.84409903     16.74374707
H       2.03960903      3.20424191     19.96934625
H       0.36528244      4.98558421     16.01875635
O       9.51915382      4.74063068     19.39182572
H      -0.37617813      2.27676191     20.56907000
H       2.87144560      4.41051745     19.37117679
O       2.69288060      3.87923399     20.20847161
H       8.98118308      5.51214150     19.74687581
H       6.23295540      1.11788962     21.15113648
H       1.43611180      4.31720609     15.21198670
H       8.90692426      4.15513709     18.79635272
H       9.81177555      3.43433441     20.49923022
O       1.15037340      4.40708226     16.15839488
O      10.35331994     -1.29157129     18.60452930
O       5.46575333      0.53371753     20.96981950
H       2.36744935      8.67301691     19.75375093
H      11.76205237      5.94160846     20.88278328
H      11.22862121      8.55175560     18.99850613
O       8.03222974     10.90556111     22.30984974
H      10.14400768     -0.48852774     18.04117122
H       8.70546492     11.34348224     21.74357895
O       1.91377313      9.34603595     20.26708746
O       1.38273057      5.79276643     21.41830937
H       5.20384340      0.82568387     20.03884127
H       8.58278338     10.06958496     22.63879289
H       8.70500711      7.89625372     19.34907296
H       2.63559037      3.69913951     22.24222118
H       1.86528816      5.13867043     20.84559725
O       7.79598192      7.60107799     19.61113995
H       1.79718939      8.94162577     21.19410062
H       7.11945740      6.78571918     22.77765571
H       7.45213119      8.01493530     20.46910796
O       2.99699648      3.66976410     23.14526125
O      11.83039146      9.99227790     24.33773615
O       6.51236773      7.52327946     22.51186626
O       7.75719128      2.77833155     24.40052175
H       8.01985531      5.70865407     24.39505040
H       2.18563782      3.68195549     23.64129204
H       5.70258779      7.07139088     22.82682425
H      12.51322463      9.40760553     23.96989896
H       8.02380729      2.03737046     23.62577549
H       8.01366038      3.71673390     24.04568132
H       4.57311827      0.78540616     22.04965315
H      11.82520644      1.29821413     24.05166399
H       3.96802155      5.26741472     23.36297040
O       2.55199350      8.74641084     23.07173902
H       2.97708672      7.85581275     23.02098809
O       4.12149775      6.23548041     23.52133490
O       4.18692249      0.92204409     23.09496324
O       8.26422384      5.33774757     23.48058430
O       0.46901683      2.96489746     23.61374126
O      11.30818075      5.85068013     23.75286384
H       8.91165460     -0.74250544     24.33817480
H       6.36903434      8.94127922     23.83161354
H      11.00806170      3.01971397     22.85155900
H      11.37785605      6.80923458     23.89724665
H       3.35102575      9.45444920     23.20752192
H       9.19950838      5.50279042     23.41222823
H       5.39525822      0.63823683     23.88490813
H      10.31283384     -0.40311906     23.80611384
H       3.97609199      1.86883773     23.18389753
H       3.98523606      6.36788410     24.49189372
O       9.42874573      8.88902832     23.46901554
O       6.20618360      9.80886621     24.34915811
H      11.38799212      3.60734611     24.30969689
H      11.85250655      5.67677094     22.92574072
Pt      3.25838492      9.54717337     26.59594597
Pt      5.94850114      9.51044699     26.39426342
Pt      8.79700163      9.61096096     26.79853557
Pt     11.73340725      9.76252083     26.69610747
Pt      8.95004626      4.96501665     26.66790724
Pt      4.65664739      7.15936175     26.54211819
Pt     10.22922119      7.40750200     26.73728029
Pt      7.45293480      7.14595065     26.65839823
Pt     11.76709005      4.76354714     26.76501130
Pt      1.87482604      7.12679816     26.66228427
Pt     10.29047236      2.56019123     26.93020173
Pt      7.59385989      2.36812292     26.47208757
Pt      3.38583575      4.77504455     26.52155214
Pt      6.12027748      4.77245653     26.65627974
Pt      1.92175832      2.37609112     26.87390755
Pt      4.89430258      2.41666871     26.69501902
O       3.01814932      5.15976126     17.92551662
H       3.22006295      6.12073259     17.90223918
H       2.19486323      4.91841243     17.37092499
O       5.80978422      5.91324311     14.27209319
H       2.16399070     -1.22959234      9.15269720
O      10.12215930      2.55778388      8.91174992
H      10.51382516      4.02587586      9.29023355
H       9.27627805      2.16520478      9.22973933
O       6.18205662      1.20729241     10.27781273
H       6.44542357      2.14621300     10.62927914
H       6.06477740      0.64133903     11.09145606
H       5.20987732      5.69945323     13.52887245
H       8.75343313      9.08403147      9.35214833
