   247
 Tv_1:  11.152900   0.000000   0.000000 Tv_2:   0.000000   9.658700   0.000000 Tv_3:   0.000000   0.000000  26.829700
Pt      5.95174316      8.13056086      2.01208757
Pt      7.48905688      0.83141906      2.23847945
Pt     11.59387617      8.19197136      2.20691053
Pt      8.73515507      8.13728863      2.05089951
Pt      8.91542722      3.25943266      2.23392208
Pt      3.17367773      8.18586696      2.04072142
Pt     10.24709059      5.71047215      2.33641551
Pt      7.44125678      5.72320835      2.28285832
Pt      6.05795647      3.22779661      2.19650104
Pt      4.68145083      5.72139950      2.13954308
Pt     10.12922699      0.86713646      2.21965984
Pt      1.80337516      5.63434011      2.28198302
Pt      1.70103978      0.85439032      2.26126221
Pt      3.35099054      3.26599747      2.19729782
Pt      4.65270934      0.88475007      2.15999037
Pt     11.70823904      3.29666389      2.34859181
Pt      5.67274923      6.63181939      4.41975398
Pt      8.54897226      6.74117776      4.63907800
Pt      7.15811120      9.03738356      4.50718460
Pt      7.20827395      4.22477504      4.48721776
Pt      8.62552265      1.79904858      4.46931503
Pt      5.80883266      1.76336047      4.53334309
Pt      9.80831929      4.37707897      4.58843402
Pt      9.89851504      9.12394708      4.59715622
Pt      1.54313035      9.13480260      4.59114980
Pt      0.20542069      6.76510162      4.59813336
Pt      3.05857467      1.77006642      4.61386757
Pt      2.98197469      6.77435402      4.37694003
Pt      4.38033320      9.06548926      4.31990143
Pt      4.37710789      4.15348225      4.49813891
Pt      0.28230499      1.76994928      4.54029958
Pt      1.64706552      4.25619542      4.62628235
Pt      7.17302959      2.77461639      6.80032788
Pt      9.57262223      7.50322598      7.00907776
Pt      8.21348150      5.23823915      6.92134554
Pt      8.26700109      0.23395114      6.92177589
Pt      5.64261747      0.45450803      6.87669653
Pt      2.65970027      5.36036724      6.84471889
Pt      2.96355866      0.59354289      6.93513278
Pt      6.68733734      7.71794234      6.84169799
Pt      4.34485762      2.80709126      6.80774823
Pt      1.44900257      2.90204140      6.97216516
Pt     -0.18787498      5.17619825      6.97896704
Pt      9.93918503      2.75045222      6.77730726
Pt      5.45910168      5.29156415      6.80077528
Pt     -0.21591065      0.19371630      6.95850250
Pt      1.08439772      7.62638139      6.90229692
Pt      3.86745956      7.75379858      6.64408130
O       5.55760713      5.92954233      8.72313400
O       1.77594795      7.65120431      8.98824248
O       0.05329937      4.89472941      9.01326590
O      -0.03822865      0.53614689      9.08507742
H       1.04409973      7.67269749      9.62036001
O       8.28060585      0.27783958      8.94612883
H      -0.89715970      0.89089809      9.35585699
H       0.04481764      5.54397611      9.70710003
H       4.79269147      3.15232542      9.66449675
H       1.11146595      3.45463107      9.14610662
H       7.37375574      0.18276795      9.30332188
C       5.83537130      7.27917620      8.67776702
H       2.64061917      6.33738666      9.04903790
O       7.67956521      3.97959763      8.40646346
H      -1.48269151     -0.37630188     12.19190946
H       4.82846109      7.85625447      8.73117949
O       4.22427721      2.61848951      8.99334316
O       1.56229402      2.58636146      9.02945986
H       0.56326894      1.33874367      9.17974972
O       9.20564373      7.69471420      9.05010258
H       3.15433906      2.80081954      9.20287627
O       5.95074771      0.20194953     10.62966084
O       3.17987979      5.50746792      8.89372301
H       6.61681603      7.56201441      9.45681223
H       6.41327218      0.09176943     15.86574054
H       6.36841760      0.45378776     11.51124884
H       9.83885394      7.47479763      9.76457361
H      -0.57934829      0.96088232     12.01183098
H       5.58187066     -0.68771989     10.72288529
O       9.74951573      0.46485434     11.77717687
O       6.06066527      0.13263224     14.92403377
H       4.11519201      5.67508381      9.15736757
H       7.43278343      3.09758851     12.78897532
H       6.18351213      8.98327000     14.41526026
H       7.00922402      0.85213972     13.58220743
H       0.24883547      7.58132654     11.66998595
H       6.56088025      4.25870612     13.46658507
O      -0.45129701      7.15306093     11.05883777
O       7.30130393      1.33686514     12.80161136
O       7.19914253      4.09133410     12.67991556
Cl      4.06234639      6.54651271     11.73172170
H       2.46214345      2.39291510     11.94626040
O       9.49038139      5.32865638     12.82128078
H       8.61093739      4.89743943     12.73753176
Cl      0.39737305      3.27232237     12.29438152
O       5.47134533      4.09204640     14.88108715
H      -0.99280516      6.51540301     11.58226049
O       3.14955821      1.75987910     11.98438737
H      10.21319416      4.58453083     12.91188678
H       4.61013479      4.50445652     14.83312412
H       5.21107798      3.11496476     14.78362161
H       8.20696292      1.12169270     12.45398524
H      -0.45673987      2.64125242     14.41843417
O       2.81959286      4.88655906     14.08553760
H       3.04592234      5.47499397     13.32352687
H       3.77689769      0.52528425      9.44883952
H       3.94302802      2.10868927     11.55848122
H       4.72768592      1.02920836     14.80099466
H       0.25455106      2.80431700     16.74364609
H       2.29525370      4.14598009     13.76210733
H       9.26068697      1.94519688     16.52425100
H       3.58105434      1.75302138     13.92649812
O      -0.47738389      2.04152669     15.25803133
H       0.09671497      1.31058364     15.03757888
O       0.64714880      3.29511384     17.51275688
O       2.90687003      0.28704815      9.13012597
O       4.07252800      1.77960341     14.80353646
H       0.75086808      4.19076254     17.08409296
H       1.02381007      8.95774227     15.51858574
O       8.93738522      1.79320642     17.45574076
O       0.70591212      2.30536091     20.08231812
O       1.31640702      9.72045403     14.98367385
H       0.55378946      2.33348939     19.06908812
H       8.60497140      3.52257224     18.03135842
O       8.33148554      4.41137080     18.35500237
H       7.15991534      7.14794885     13.77332345
H       7.97870390      1.39339669     17.43400711
H       3.06057738      1.18811140     16.30293497
H       2.39814428      2.10830790     17.34611511
H       0.87441755      1.34624921     20.37894578
H       7.31893235      4.31825937     18.35585409
H       8.95799592      5.37903502     16.53064358
O       2.89568238      1.28452127     17.27504191
H       1.56807390      9.31121499     14.14849147
H       5.74437799      4.41933935     16.69660867
H       4.19826201      1.54571992     17.98828438
O       9.06687265      6.01745782     15.79703814
O       4.94350399      1.92020937     18.62279310
O       1.66120487      8.62623472     12.27537280
H       9.53900553      5.55912597     15.05941892
O       5.69962380      4.35383320     17.67962883
H       1.89975839      9.54816041     11.94738341
H       5.27194425      2.84917412     18.29761222
H       2.41188378      8.05641571     12.18734396
H       5.97300168      0.93777643     17.94070470
H      -0.84682467      7.45129494     15.99062049
H       3.55763577     -0.74582106     18.34554661
O       6.63696811      0.34042410     17.51384099
H       4.90115267      4.91476631     18.02839952
O      -0.06674778      7.82660140     16.34967654
O       3.59241186      8.38970346     19.16560489
H       4.06201574     -0.72235157     19.83010505
H       7.09355261     -0.17996389     18.28987562
O       9.66470344      2.58273216     21.63833392
H      -0.42887881      8.44911354     17.03946807
H       1.42937662      3.93810600     20.41383397
H       1.02432222      6.77973023     16.66838295
O       9.03061132      6.01649481     20.61197698
H      -0.76771598      2.48980475     20.96051244
H       2.68851483      4.79811175     20.03611941
O       1.81315802      4.80657867     20.54161535
H       8.46090954      6.78348825     20.48024895
H       5.49445197      0.84669247     21.62721904
H       2.11303190      5.91320573     15.85821120
H       8.85280908      5.48475255     19.77529579
H       9.27912767      3.45704649     21.66289576
O       1.60933073      5.95782317     16.73184904
O      10.51232719     -0.16997036     18.44200990
O       4.50685140      0.99910712     21.47681893
H       2.26796521      9.06869491     20.10660731
H      10.58426805      6.63269296     20.94828418
H      11.09483602      9.54376602     19.21263028
O       7.24053914     10.48741891     21.92604181
H       9.96160779      0.63690850     18.32830618
H       7.78292868     11.30758339     21.68679826
O       1.38649963      9.26235607     20.56524001
O       0.34728011      6.90983642     21.40585570
H       4.48614012      1.48937423     20.64539707
H       7.36358581     10.14261193     22.81826972
H       8.78331415      8.91498968     19.21000635
H       2.36074417      4.39378740     22.22665873
H       0.98605255      6.21887792     21.06293523
O       7.93040400      8.61654275     19.61440607
H       0.98636731      8.37116837     20.89736638
H       7.14968092      6.68280959     24.18431433
H       7.78593376      9.28572782     20.37975049
O       2.40776209      4.24686393     23.23337953
O      11.29178003      9.77561632     24.38716554
O       6.61552462      7.06735301     23.47190192
O       7.62871575      2.59067802     24.47234376
H       7.95169481      5.19167787     22.76909637
H       1.59333365      3.72163051     23.45916092
H       5.77607460      6.52755401     23.41706291
H      12.14383158      9.19615781     24.09577944
H       6.67750778      2.54777704     24.10845477
H       7.91431995      3.49759226     24.16917500
H       4.20580304      2.11292972     23.02144453
H      11.43742456      1.07174463     23.99271649
H       3.47815069      5.54815758     23.40592534
O       2.49520215      8.85095337     23.47995319
H       3.05415310      8.02601895     23.56169821
O       4.03797858      6.34342430     23.44467106
O       4.60105987      2.57803156     23.81328110
O       8.39696394      4.64756318     23.37660281
O       0.15942549      2.61444975     23.69394053
O      10.69745833      5.79015011     23.56576888
H       8.48988544      1.06259427     24.46665527
H       6.07293391      8.49268191     24.05016923
H      10.56351165      2.64973460     23.07056686
H      10.74184171      6.33268896     24.36825108
H       2.46305861      9.17538579     22.55636413
H       9.33823700      4.99172684     23.34107177
H       4.84344513     -0.17024843     24.27233707
H       9.41563356     -0.21310649     24.18062715
H       3.95017603      3.26640136     24.01601336
H       4.08939595      6.48610228     24.46702215
O       8.52597358      9.79382493     24.27113453
O       5.80006103      9.43926988     24.24927657
H      10.92578474      2.98933389     24.55116980
H      11.05428951      6.16363226     22.73809952
Pt      3.22592118      9.63864521     26.53707645
Pt      5.92335603      9.37300663     26.51831171
Pt      8.78548868      9.47377800     26.51832374
Pt     11.69732392      9.41927616     26.62454394
Pt      8.91802573      4.78172750     26.84719859
Pt      4.80489823      7.02953957     26.46641678
Pt     10.32981328      7.01205945     26.83910076
Pt      7.56939179      6.96825662     26.63651313
Pt     11.73125342      4.61060560     26.72032626
Pt      1.88100078      7.04743785     26.59850418
Pt     10.32734408      2.23076174     26.76704504
Pt      7.53241692      2.32233523     26.67028143
Pt      3.47208207      4.65650620     26.64479505
Pt      6.12381381      4.66895297     26.72437769
Pt      1.90633201      2.28130659     26.75768155
Pt      4.72542964      2.22849479     26.55282253
O       3.59013922      5.60321966     18.56860264
H       3.70877887      6.55677594     18.81230764
H       2.80669771      5.66854719     18.00006059
O       6.42661630      7.74758057     13.56760169
H       2.65461138     -0.77060905      9.21748444
O       9.77676352      2.89839281      8.90162921
H      10.33555565      3.78405233      9.17252492
H       8.73974563      3.32069759      8.98610781
O       5.14293867      3.73935312     10.94484674
H       4.56814875      4.54454126     11.21164648
H       6.08065275      3.85954851     11.27543710
H       5.90347652      7.20942755     12.91082918
H       8.93679361      8.73455059      9.21547305
