   247
 Tv_1:  11.152900   0.000000   0.000000 Tv_2:   0.000000   9.658700   0.000000 Tv_3:   0.000000   0.000000  26.829700
Pt      5.93916030      8.19848207      2.19022950
Pt      7.37083152      0.90042290      2.14985318
Pt     11.64505340      8.27000271      2.15342818
Pt      8.68093427      8.00424179      2.25878968
Pt      8.73744986      3.38008524      2.35166116
Pt      3.24692215      8.17029006      1.96506345
Pt     10.24917672      5.69069783      2.27419947
Pt      7.30482251      5.78526816      2.24959882
Pt      6.13195915      3.29362529      2.33337049
Pt      4.60149417      5.54395628      2.15140577
Pt     10.23266125      0.96503811      2.28526810
Pt      1.93256682      5.56268697      2.18438892
Pt      1.81638381      1.01568276      2.12486226
Pt      3.39157083      3.22572920      2.26507156
Pt      4.51510931      0.84586556      2.28886116
Pt     11.50208455      3.26554927      2.19786934
Pt      5.64018349      6.69043835      4.35477827
Pt      8.44055358      6.77779772      4.71714724
Pt      7.19827003      9.17808156      4.55384765
Pt      7.05369810      4.33010378      4.60725817
Pt      8.51631337      1.84479388      4.59528252
Pt      5.82788082      1.97029612      4.61543863
Pt      9.95503448      4.41565206      4.67021492
Pt      9.99331339      9.11014692      4.62116892
Pt      1.52554592      9.09866664      4.55122251
Pt      0.18856445      6.70041580      4.38223891
Pt      2.99211247      1.75582677      4.58988293
Pt      2.82157043      6.72221984      4.39195771
Pt      4.35195692      9.12448826      4.41188746
Pt      4.19946488      4.20690286      4.69312636
Pt      0.09835688      1.95120000      4.52716728
Pt      1.57045594      4.24685649      4.54648569
Pt      6.79783927      2.80676322      7.03777320
Pt      9.30118548      7.67566563      7.04877024
Pt      7.83839616      5.40830245      7.01247670
Pt      8.09292682      0.39843373      6.87893077
Pt      5.27359466      0.56259978      6.83675159
Pt      2.44451225      5.30877457      6.79096053
Pt      2.63647023      0.60822802      6.89579038
Pt      6.54155692      7.74643901      6.82979151
Pt      3.99530003      3.00685251      7.12824286
Pt      1.13660573      2.88338323      6.98630491
Pt     -0.42619576      5.12265562      7.03815631
Pt      9.55223390      2.72647408      6.96794649
Pt      5.10346321      5.47847532      6.80102132
Pt     -0.24295049      0.34731033      6.93730320
Pt      0.80040666      7.50724872      6.75044328
Pt      3.62154817      7.79058502      6.70702943
O       5.33745351      6.08613088      8.79974454
O       1.16522669      7.85326151      9.04277914
O      -0.33491811      5.07991312      9.04838249
O      -0.20658310      0.68408585      9.03778567
H       0.27275890      7.97405459      9.49287885
O       8.23669089      0.32666689      9.05829442
H      -1.07700934      0.93441443      9.41876843
H      -0.09641319      5.92748640      9.51310838
H       4.50530917      3.40481552      9.82378649
H       0.97916542      3.61957040      9.33123854
H       7.40342695      0.37435321      9.60861883
C       5.66393260      7.40507948      8.75993541
H       2.22216903      6.42807221      9.35027966
O       7.27947384      4.08168871      8.49093463
H      -1.05450561     -0.60114315     11.69659479
H       4.91681728      8.20398552      8.80497556
O       3.94077178      2.73190234      9.30716312
O       1.40852232      2.75497427      9.03694823
H       0.32882942      1.54520668      9.13353585
O       9.45534024      7.56181660      9.08426592
H       2.90662735      2.85723782      9.22485509
O       6.05609864      0.48421983     10.47204340
O       2.69998498      5.60884220      8.97958841
H       6.60748182      7.60252033      9.33838289
H       7.69327528      0.31226737     15.97693892
H       6.58876687      0.84854403     11.24479690
H       9.01595935      6.72486877      9.24413579
H      -0.62363754      0.69039262     12.55898067
H       5.71678931     -0.32511760     10.91604316
O       9.85015466      0.35312374     11.93579986
O       7.06163874      0.08160959     15.24649602
H       3.68553830      5.66844777      9.19233879
H       7.00465925      2.95070885     12.93375259
H       7.00008877      8.77069709     15.31269487
H       7.67576900      1.06865016     13.58560545
H       0.40397725      7.51160365     11.97014718
H       6.36560715      4.05635550     13.93122916
O      -0.42689365      7.36985399     11.44889650
O       7.62473173      1.37836567     12.60639600
O       6.80211333      3.95372160     13.03808315
Cl      5.17073548      7.46620747     11.93827898
H       2.81725757      1.54826319     12.15396418
O       9.81993901      4.83870795     12.26819954
H       9.12242868      4.19427553     12.47271581
Cl      1.52203239      3.81817525     12.16513502
O       5.09436020      3.57075884     15.47726273
H      -0.92729904      6.49596824     11.56502792
O       3.33940583      0.70074708     12.04809424
H      10.62371325      4.35655265     12.01365161
H       4.58477965      4.29794539     15.06091801
H       4.85363698      2.69305698     15.11880411
H       8.44928019      0.90172276     12.31444924
H       0.56390498      2.60181335     13.38161675
O       3.67232837      5.45026517     14.05948057
H       4.30814323      6.07031883     13.52696612
H       2.95544102      0.85374697      9.49095798
H       4.03124772      0.92022085     11.42900630
H       5.39966923      0.57763617     14.82706046
H       0.82197903      3.04598209     16.77164035
H       3.13380475      4.95962118     13.35341078
H      10.23245177      2.41961100     15.34554399
H       4.36377308      0.71834182     13.60153671
O       0.06812863      1.86252606     13.76336631
H       0.63796931      1.24410907     14.28046061
O       1.79681554      3.23030155     17.03647682
O       2.71971515      0.08503290      8.90921296
O       4.47424390      0.93576225     14.56367928
H       2.01948365      4.11032704     16.60375921
H       0.76177837      8.67010501     15.44654460
O      10.14975490      2.57185182     16.31043965
O       0.33646868      0.29806569     18.89926872
O       1.32819168      9.28563404     14.86865582
H       0.89926161      0.21440268     18.10973445
H       9.21201238      3.85938327     16.95639867
O       8.80212799      4.74541498     17.25879023
H       7.63056109      6.65727022     14.28793611
H       9.84894014      1.77991365     16.69664198
H       3.26382688      0.17194803     16.66469307
H       2.73745469      1.49844242     17.11400329
H       0.85509307     -0.22964897     19.58509153
H       7.87426299      4.55072673     17.46443275
H       9.52019574      5.47231838     15.66621538
O       3.08144061      0.63602914     17.46768327
H       1.53799683      8.70478978     14.13387900
H       5.73431837      3.97837377     16.85743230
H       4.95375985      1.32613840     18.15768542
O       9.96784103      6.28412398     15.30365893
O       5.81681743      1.56988996     18.41481723
O       1.99310519      7.87918086     12.47111104
H      10.44280277      6.04632313     14.51092590
O       6.26268019      4.17268931     17.76726009
H       2.64739753      8.59962871     12.18297447
H       5.92454624      2.53416044     18.24366209
H       2.54085244      7.12869106     12.71961053
H       7.73725612      0.96307562     18.21441162
H      -0.26759736      7.00356828     16.51726460
H       3.77530992     -0.56770449     19.06305363
O       8.45834339      0.52990851     17.67111029
H       5.61875006      4.76368560     18.22257381
O       0.46123337      7.47615386     16.96779866
O       4.02080340      8.31652330     19.60294940
H       4.73649185     -0.92823861     20.25550436
H       8.75424563     -0.26016577     18.15517999
O       9.97960423      1.92874617     21.01580183
H       0.08627441      7.65894627     17.82327966
H       1.88766152      3.42225304     18.63395730
H       1.88139994      6.33517271     16.79459656
O       9.43172806      4.36530691     19.90658618
H      -0.81210335      1.52980041     20.18827294
H       3.10332063      4.40446509     19.19045072
O       2.32198662      3.85728974     19.52320543
H       8.73610226      4.92088333     20.37662805
H       6.68829964      0.16892925     21.08180985
H       2.86011891      5.78210259     15.70326408
H       9.24120892      4.46792674     18.89458249
H       9.70984710      2.76140830     20.70461950
O       2.61351148      5.66550122     16.63355039
O       9.23476582     -2.41579063     18.53737125
O       5.81013704      0.59486451     20.80777003
H       2.56000658      7.92579526     20.21758784
H      10.97242177      5.17131812     20.29798678
H       9.09528343      6.40352344     18.04222902
O       8.33139110      9.18430449     21.44898004
H       9.25944013     -2.57937951     19.46677537
H       8.79511908      9.93832180     21.09250155
O       1.68054175      8.13160872     20.68260604
O       0.68872802      5.61504925     20.50415763
H       5.99571785      1.08725341     19.92318733
H       8.46527179      9.26432387     22.42049693
H       7.95001604      7.20254542     21.29678084
H       2.77206891      3.56152072     21.30314601
H       1.34729479      4.94374251     20.12877675
O       7.75710956      6.22974351     21.36330806
H       1.07783795      7.28656793     20.50934264
H       6.44096258      6.77488871     22.73038991
H       8.29909031      5.97341077     22.19134511
O       3.04052666      3.43391493     22.21560400
O      11.78822012      9.62841875     24.43167452
O       5.86780790      7.09962111     23.45885434
O       7.68264907      2.75795801     24.30932856
H       8.99361978      5.73502030     24.29063993
H       2.23431315      3.09439179     22.63755843
H       4.98345398      6.62493107     23.51381677
H      12.53249203      9.26466774     23.87887251
H       6.74328166      2.81640995     23.93751415
H       8.12003750      3.60847097     24.18230744
H       5.39501027      1.51913161     22.16786896
H      11.88652623      1.00025565     24.30395205
H       3.42599195      5.14282606     23.00951621
O       2.73638573      8.94937452     22.97599637
H       3.21929778      8.10342601     23.17872899
O       3.43088344      5.92113349     23.61124451
O       5.20959010      2.02432663     23.00698205
O       9.06083746      5.02079946     23.61888346
O       0.72326356      2.40861537     23.19508463
O      11.59430395      5.33078633     23.12769444
H       8.41182968      0.66834174     24.71629388
H       5.94526824      8.70738596     24.02593395
H      11.28596543      2.24917308     22.37949214
H      12.45108176      5.58428438     23.67379777
H       2.20035629      8.74356670     22.10732694
H      10.08218385      5.13128671     23.50652892
H       5.48333302      0.64265231     24.03671258
H       9.92337347      0.19630186     24.20592328
H       4.39861871      2.56175978     22.73958052
H       3.62234042      5.64094547     24.54338294
O       8.95564760      9.62228750     24.21315115
O       6.14691775      9.66197195     24.38724183
H      11.54234827      3.23858821     23.52071337
H      11.75655054      5.58951330     22.17143206
Pt      3.45105937      9.56626105     26.55020083
Pt      6.24747121      9.52983526     26.58779991
Pt      8.98482230      9.50446685     26.72374720
Pt     11.76004312      9.42696144     26.65041669
Pt      8.99133844      4.72521071     26.68106735
Pt      4.90644529      7.04119880     26.70358609
Pt     10.47747056      6.99270590     26.73124718
Pt      7.52986556      7.02788862     26.69826867
Pt     11.75096293      4.68438684     26.65715171
Pt      1.97363057      7.01669888     26.75306027
Pt     10.38029807      2.33894641     26.67343175
Pt      7.63984252      2.32739195     26.59259776
Pt      3.49194699      4.71865956     26.67350848
Pt      6.31187632      4.61789710     26.76621884
Pt      1.92794706      2.19896744     26.60670921
Pt      4.86556598      2.28553528     26.85111498
O       4.20023195      5.56000777     18.65730627
H       4.26710076      6.42094153     19.17150697
H       3.59321280      5.82342720     17.88958215
O       6.71946837      6.95479794     14.49325869
H       1.82289941     -0.93912479      9.04780983
O       9.44326899      2.99580940      9.12784203
H       9.96947120      3.88575130      9.18137244
H       8.50190808      3.46274345      9.00906902
O       4.78191073      4.21316543     11.21286248
H       4.97784943      5.20263218     11.23475846
H       5.48578009      3.90696951     11.84914382
H       6.36288793      7.18213017     13.60188130
H       8.69429493      9.09537666      9.27646721
