   247
 Tv_1:  11.152900   0.000000   0.000000 Tv_2:   0.000000   9.658700   0.000000 Tv_3:   0.000000   0.000000  26.829700
Pt      5.96277826      8.23619658      2.20868391
Pt      7.34854047      0.99579337      2.15397594
Pt     11.58393095      8.17187811      2.21866007
Pt      8.77974585      8.27019149      2.26323339
Pt      8.79559943      3.39730344      2.22539824
Pt      3.10966868      8.19283988      2.16722281
Pt     10.21212786      5.83567000      2.45742391
Pt      7.44913474      5.85969006      2.29667584
Pt      6.07012832      3.42736829      2.21530029
Pt      4.70027690      5.71568520      2.27938430
Pt     10.06606197      0.93427606      2.18543273
Pt      1.85418727      5.73833140      2.31996534
Pt      1.96160729      0.98948110      2.21483627
Pt      3.10195520      3.35655697      2.28946848
Pt      4.62393715      0.97584394      2.20773587
Pt     11.55508482      3.37323873      2.17520820
Pt      5.78634921      6.68192624      4.49657290
Pt      8.59839860      6.82279432      4.79111291
Pt      7.29043395      9.13494119      4.51156369
Pt      7.30115565      4.32550319      4.60629628
Pt      8.63513557      1.89332162      4.52952363
Pt      5.85015087      1.98018693      4.59200243
Pt     10.08454333      4.43805786      4.63485146
Pt     10.07972621      9.14826476      4.62930382
Pt      1.70579485      9.05229299      4.60035349
Pt      0.37435138      6.74730937      4.61571171
Pt      3.13395353      1.76029499      4.67114982
Pt      3.09674356      6.65124416      4.47766714
Pt      4.32477445      9.10578936      4.53487279
Pt      4.40492413      4.24479152      4.52840475
Pt      0.30738976      1.83061992      4.45609738
Pt      1.58673848      4.18395271      4.61714144
Pt      6.88686552      2.85203897      7.01474623
Pt      9.58135594      7.72860255      7.08612750
Pt      8.07008097      5.33871343      7.00590435
Pt      8.20847466      0.35407452      6.93540660
Pt      5.54312297      0.53219484      6.78903505
Pt      2.56470658      5.29625559      7.00159743
Pt      2.86104823      0.47779821      6.97256128
Pt      6.78141906      7.73853714      6.95846650
Pt      4.22959125      2.96774580      7.05270020
Pt      1.41868687      2.83672213      6.94749715
Pt     -0.23790978      5.26030918      7.10442565
Pt      9.81985380      2.73182610      6.81806709
Pt      5.22132310      5.39283609      6.96053077
Pt      0.07424448      0.29422955      6.93545577
Pt      1.14638361      7.60168065      6.96132487
Pt      3.96575220      7.69099296      6.84976935
O       5.45834038      6.11178677      9.01744969
O       1.38118727      7.67929191      8.99808535
O      -0.02844597      4.83128136      9.13612710
O       0.20847521      0.75980423      9.12970258
H       0.57118171      8.16929503      9.26599465
O       8.30026233      0.49118332      8.95131471
H      -0.62914927      1.30898418      9.14813674
H      -0.40552916      5.43788924      9.80871087
H       4.86551073      3.30363371      9.77282312
H       1.23894171      3.54671023      9.38739589
H       7.37687963      0.36748769      9.15668546
C       6.01317781      7.30456998      8.84919595
H       2.33140146      6.26233734      9.18776824
O       7.54142804      4.00183646      8.39369013
H      -1.25533197      0.86872450     12.99284437
H       5.40270000      8.23022063      9.07112356
O       4.24957496      2.72056266      9.19396358
O       1.75900357      2.78301746      8.98350964
H       0.94536080      1.46510527      9.17269538
O       9.85348000      8.14221180      9.20229909
H       3.12430035      2.74215589      9.20054227
O       5.06002666      0.00568507     10.37766150
O       2.81442439      5.42231182      9.20180775
H       7.03479531      7.42204669      9.33293575
H       7.17623103     -0.90874198     14.73766378
H       5.73991172      0.31281768     11.01934450
H       9.56966958      7.35011357      9.72782179
H      -0.50848031      1.62579433     11.82993014
H       4.58014650     -0.69451445     10.88405324
O      10.29007358      0.68655678     12.11387687
O       6.59850996     -0.89487707     13.92915484
H       3.79266705      5.78812402      9.28902895
H       7.26323972      2.20735058     12.92992120
H       6.61450487      7.81653720     13.50125877
H       6.96748255      0.13405439     12.79123201
H      -0.55893466      6.93588727     11.48376649
H       6.45105512      3.07242234     13.94457476
O      -1.19367091      6.34226115     10.93090029
O       6.99341303      0.73095616     12.02946428
O       7.13372456      3.19999795     13.23902192
Cl      3.38947268      7.28126932     12.34774100
H       2.08977308      1.69124968     12.24277609
O       9.04807748      5.12949715     13.47328994
H       8.44576553      4.34078075     13.61096285
Cl      0.39373147      3.53115459     12.05012781
O       5.10565636      2.87659600     14.75050139
H      -1.71612837      5.87062040     11.68234578
O       2.47626139      1.13682530     12.93325180
H       9.87861583      4.69011548     13.44940980
H       4.48619594      3.33257866     14.15646123
H       4.74879586      1.96254876     14.89231902
H       7.78370860      0.52029982     11.52231021
H       0.68382932      1.83715101     14.08784953
O       2.89022881      4.35878421     13.42570653
H       2.99640258      5.32909284     13.21267761
H       3.74464492      0.17486464      9.32002488
H       2.70725987      0.28166165     12.48919748
H       4.75954375     -0.74022619     14.86962183
H       0.58653598      2.33254034     17.53955089
H       2.11951775      4.00818451     12.91058029
H      10.30830643      2.03070601     16.26229691
H       3.18409261     -0.87353656     14.94990071
O       0.15601667      1.45722641     14.80860991
H       0.63420644      0.62174162     14.90013765
O       1.53950264      2.49049132     17.59518772
O       2.83175387      0.00738740      9.02339175
O       3.97692902     -0.26039597     15.22687920
H       1.65280734      3.28807819     16.94785147
H       1.36655912      8.09718822     16.07048526
O       9.74669712      1.99229754     17.06318347
O      -0.92424624      0.08724644     19.36469129
O       1.35636091      8.68016376     15.25656144
H      -0.77508605      0.52599136     18.47806390
H       9.15328151      3.52594144     17.50838971
O       8.68502720      4.32956092     17.76753319
H       6.54441178      5.83123235     11.96718462
H       9.08885032      1.25891169     16.85041993
H       3.32190981      0.33176181     16.78074434
H       2.48130547      1.23173123     17.67968454
H      -0.01642268     -0.33315659     19.69503659
H       7.68423475      4.25404829     17.49810617
H       8.95445963      5.64643861     16.60182428
O       3.28405478      0.63683743     17.73925572
H       1.11096811      8.02720469     14.52759750
H       5.95787869      3.56417238     16.29694871
H       4.91506052      1.09596811     18.13871196
O       9.14032124      6.46377642     16.08244929
O       5.81129986      1.38094576     18.40563854
O       0.38048495      7.96094454     12.53409766
H       9.13275100      6.21803497     15.13425950
O       6.07445150      3.89201136     17.18823399
H       0.17614562      8.80346470     12.16694672
H       5.89336457      2.32651853     18.11812894
H       1.35340391      7.85682943     12.24432560
H       7.40784738     -0.06059049     17.24046577
H      -0.16821116      6.51597263     16.52395575
H       3.68384684     -0.95769564     18.35992298
O       8.13973085     -0.26651255     16.62175315
H       5.27725476      4.47553650     17.44319889
O       0.77452374      6.53982709     16.87482422
O       4.05970511      7.86529011     18.76106451
H       4.83868721     -1.61659762     19.27092423
H       8.43803429     -1.22115842     16.70773787
O      10.85968677      2.41784136     21.10402577
H       0.69507779      6.24371036     17.85675003
H       2.05399877      3.17186538     19.24346468
H       1.71504638      5.23935390     16.08604841
O       8.87978991      4.17819061     20.55045468
H      -0.64214480      1.64856165     20.59956238
H       2.91881175      4.48010930     19.36275939
O       2.28941317      3.89820576     19.87809359
H       8.19885949      4.49276165     21.20382880
H       6.99233771      1.42620030     21.17146558
H       2.54169666      4.30934468     14.98931195
H       8.49763533      4.45096974     19.69171336
H      10.12545232      3.05110672     20.89876744
O       2.37537819      4.49089481     15.99365092
O       8.74173403     -2.44644298     19.51497938
O       6.10059060      1.10596398     20.93634937
H       2.21760847      8.49894469     19.98977433
H      10.54403773      5.70305533     19.66167780
H       8.92709247      7.23563435     20.50246399
O       9.23177771      7.36401822     22.23610590
H       9.07329204     -1.52464684     19.40285403
H       9.91742057      6.74872733     22.53288394
O       1.28275438      8.43994984     20.31782681
O       0.36926093      5.89989498     19.56550873
H       6.04809128      1.30199940     19.91192387
H       8.94850761      7.91085676     23.02178939
H       6.39800494      8.86283811     20.69858862
H       2.65969964      3.41897359     21.60112700
H       0.82585327      5.16049569     20.02913166
O       6.26855319      7.92136930     20.45437190
H       1.12087821      7.53069080     20.00629019
H       6.05175544      7.11256450     22.16093751
H       7.09474848      7.58546377     19.91579225
O       2.91938941      3.26821444     22.55246916
O      11.61324293      9.47194184     24.50485999
O       6.05393406      6.93517130     23.15813991
O       7.48480913      2.36705144     24.34371529
H       7.46370108      5.52492300     23.45172391
H       2.02701252      2.89028544     22.94624568
H       5.15920626      6.48787053     23.24890142
H      12.20050302      8.82249375     24.01270035
H       6.55432084      2.19118504     23.89493111
H       7.75975412      3.30755372     24.04197375
H       5.34652038      1.57620465     22.17512922
H      11.83028307      0.72541699     24.06075119
H       3.48022286      4.74984007     23.20454896
O       1.92902577      7.88320484     22.89250175
H       2.62332896      7.19400360     23.00077143
O       3.78292107      5.70396366     23.43675225
O       5.24869256      1.77912507     23.22214295
O       8.01575857      4.68140476     23.40269038
O       0.66177436      2.21308220     23.47952167
O      10.89099803      5.44287956     23.39304640
H       8.72907273      0.90302537     24.55234756
H       5.87865127      8.34342409     23.94669766
H      11.42938055      2.41163422     22.56967125
H      10.90170167      5.70012162     24.41382860
H       1.71183271      7.99054741     21.97438475
H       8.95680966      4.94304526     23.47673778
H       5.33376095      0.22907707     23.78427435
H      10.09566876      0.00649699     24.47356222
H       4.59455064      2.56007145     23.23247638
H       3.91222466      5.73571700     24.42377907
O       9.05505468      9.62924503     24.59051698
O       5.59538605      9.18635847     24.44955703
H      11.51321141      2.81336185     24.26220831
H      11.71604074      5.89318830     23.09400431
Pt      3.31995442      9.54893634     26.68425847
Pt      6.03942067      9.50649350     26.53448738
Pt      8.74545498      9.51788018     26.77797142
Pt     11.67945387      9.53258634     26.78347715
Pt      8.62263304      4.84126757     26.65008901
Pt      4.53054140      7.08622708     26.74838547
Pt     10.17648256      7.00682480     26.84001972
Pt      7.32736012      7.11997711     26.71482059
Pt     11.60169546      4.74843935     26.72228991
Pt      1.82634186      7.11789490     26.73887317
Pt     10.11833742      2.46033135     26.70784387
Pt      7.28269151      2.32481123     26.61164467
Pt      3.21429238      4.79731220     26.72233194
Pt      5.90727360      4.80546024     26.61008165
Pt      1.84506043      2.41470370     26.66332789
Pt      4.62979115      2.26238554     26.67292607
O       3.99479671      5.27044298     17.92425431
H       4.01586721      6.22938652     18.05868732
H       3.41242644      5.18307770     17.06687066
O       6.26070557      6.49318982     12.64988481
H       2.16079955     -1.03516672      9.08186844
O       9.83902179      2.79004708      8.91429027
H      10.55945194      3.84614661      9.26786123
H       8.88992160      2.89512867      9.10110925
O       5.92576378      3.88817277     10.54558550
H       6.76894622      4.09676997     10.07051032
H       6.26758451      3.52337212     11.40449412
H       5.25090148      6.57486297     12.58453898
H       9.17823262      8.90429134      9.20847432
