   247
 Tv_1:  11.152900   0.000000   0.000000 Tv_2:   0.000000   9.658700   0.000000 Tv_3:   0.000000   0.000000  26.829700
Pt      5.81605712      8.28559933      2.10158415
Pt      7.14363909      0.99958000      2.16202365
Pt     11.35328326      8.15084831      2.15553053
Pt      8.58830567      8.22585824      2.16458208
Pt      8.53877087      3.33516627      2.24151656
Pt      3.08586550      8.07774693      2.05185865
Pt     10.09616853      5.83405330      2.26389723
Pt      7.32295826      5.82096698      2.30376959
Pt      5.81240402      3.39356420      2.37167078
Pt      4.44828753      5.64688255      2.26368718
Pt      9.99273358      0.88695444      2.37833363
Pt      1.59174090      5.72755632      2.33634579
Pt      1.61098362      0.87575474      2.28492132
Pt      2.98992315      3.28833634      2.33652854
Pt      4.48054645      0.98657369      2.18592757
Pt     11.33704829      3.34620510      2.21861354
Pt      5.73852957      6.60931100      4.45350526
Pt      8.44534999      6.64951706      4.57429378
Pt      7.26404453      9.07035424      4.47565509
Pt      7.32784528      4.17171378      4.64610484
Pt      8.53849068      1.75116546      4.60794400
Pt      5.70994255      1.82316286      4.70674632
Pt     10.07204382      4.25820919      4.52399885
Pt     10.00966383      9.01614320      4.54464505
Pt      1.49516417      8.99339707      4.54621654
Pt      0.18905533      6.66298617      4.60914189
Pt      3.02748741      1.78630103      4.61504520
Pt      3.02842036      6.78418216      4.44798346
Pt      4.41640110      9.09231448      4.37901857
Pt      4.40763956      4.19990662      4.63234152
Pt      0.16207448      1.87121946      4.49477548
Pt      1.58495741      4.29057337      4.57820543
Pt      7.25270453      2.67718492      7.01047537
Pt      9.78789010      7.40637050      6.76999591
Pt      8.38870995      5.08906174      7.05271095
Pt      8.69866466      0.15054101      6.96647940
Pt      5.97476361      0.32445072      6.89499626
Pt      2.88843359      5.29391847      6.85057052
Pt      3.19103238      0.55428510      6.86453370
Pt      7.02434750      7.50909910      7.07191023
Pt      4.45390870      2.92716720      6.99521634
Pt      1.67641861      2.80369932      6.94103752
Pt     -0.06221944      5.17082838      7.05241316
Pt     10.09580104      2.62682554      6.89406149
Pt      5.67101640      5.29790162      7.11640675
Pt      0.29864923      0.41573685      6.76387914
Pt      1.35183931      7.57912140      6.94047917
Pt      4.20530259      7.77419266      6.67563665
O       5.64948560      5.92422246      8.97892686
O       1.69282031      7.63112349      8.99525801
O       0.06595132      4.95077207      9.05023069
O       0.36486507      0.45649715      8.99129215
H       0.77423173      7.65345016      9.33164573
O       9.13377257     -0.05020736      8.94661659
H      -0.64041095      0.34017489      9.17088176
H      -0.27512155      5.81833493      9.39469290
H       5.09070961      3.03111963      9.72189025
H       1.62756042      3.72317473      9.14483477
H       8.69115467      0.66614325      9.50572185
C       6.36623240      7.10121579      9.00034113
H       2.20369449      6.36466371      8.94093211
O       7.75539114      3.84060400      8.45117240
H      -2.05070731     -0.23249715     11.75224043
H       5.65687781      7.98518922      9.17731806
O       4.41668621      2.54252009      9.00822472
O       1.73168809      2.74642230      8.99779009
H       0.41390177      1.44478085      9.11780869
O      10.21826026      7.37006832      9.78629325
H       3.40788820      2.56908222      9.27790020
O       5.17982702     -0.40494930     11.08065941
O       2.90781524      5.48498922      8.90760420
H       7.22974621      7.11951189      9.65666814
H       5.85742153     -0.42714909     16.43540517
H       5.72599017      0.10073251     11.66646993
H      10.25702890      7.46155703     10.79696207
H      -1.76579697      1.30178620     11.91920271
H       4.72135216     -1.13258720     11.56852354
O       8.69648797      0.63754331     11.72507966
O       5.95039286     -0.54653366     15.50264465
H       3.85806417      5.86689282      9.22776565
H       6.33538103      2.74318642     13.35477216
H       5.85207379      8.11601389     15.39343263
H       6.57399172      0.31067279     14.17863600
H      -0.18104945      7.88675695     12.64465231
H       5.61678068      3.93709582     14.13658597
O      -1.08813461      7.63867877     12.27854234
O       6.53792966      0.86125889     13.31945192
O       6.32510544      3.75242807     13.51386063
Cl      3.90529092      6.57744465     12.28289897
H       1.92405547      1.60667229     12.02779294
O       8.80667310      4.90273233     13.35410914
H       7.90601052      4.51205937     13.33680900
Cl     -0.01554141      2.86461415     12.32929002
O       3.98988075      3.77839409     15.06347224
H      -1.17808255      6.67980657     12.59150600
O       2.65799220      0.97813334     12.21086852
H       9.46858036      4.26815138     12.99033043
H       3.14132858      4.16372482     14.67562551
H       4.02127546      2.79035659     14.93886719
H       7.37320856      0.77846389     12.91649536
H      -0.68029357      2.01294846     14.31845796
O       1.75333884      5.13126567     13.98808641
H       2.51243231      5.48596750     13.33975391
H       4.17888047     -0.11458875      9.52991951
H       3.08170913      0.77764304     11.31540271
H       4.61572567      0.33478698     14.61983752
H       0.03215301      2.16927581     16.68663639
H       1.27473096      4.43322778     13.45854057
H       8.80241869      2.26042565     16.00147317
H       3.60469182      1.09232156     13.61509071
O      -1.06906662      1.59782422     15.16857326
H      -0.71215364      0.64931047     15.29471414
O       0.62480167      2.69877456     17.26202475
O       3.21366605      0.14154663      9.26283366
O       3.93497011      1.08300030     14.61699244
H       0.71669587      3.61260293     16.87839790
H      -0.16845563      8.29491157     15.93303767
O       8.13822126      2.08898777     16.77704244
O       0.65042427      1.69985644     19.68826398
O       0.31067758      9.15148172     15.58037569
H       0.71289646      1.96717180     18.74055612
H       7.61804431      3.40751918     18.00689228
O       7.49800369      4.33399312     18.32314894
H       6.64557624      6.24840269     15.16829855
H       7.28715587      1.96572034     16.31372198
H       3.20635121      0.80247679     16.37582774
H       2.07599591      1.62382839     17.21407733
H       1.50806598      1.29926561     19.85341874
H       6.57580896      4.62637673     17.95379605
H       8.00739063      4.84696877     16.39034482
O       2.94254367      1.13932610     17.30062597
H       0.87390446      8.75424679     14.88595813
H       4.53857491      3.99442800     16.53221617
H       4.17100658      1.78501683     18.02948686
O       8.10450675      5.66183259     15.81193515
O       4.85270448      1.86142697     18.81236442
O       1.29451164      8.36247992     13.14600462
H       8.50643397      5.39387648     14.97377998
O       4.80760723      4.28082338     17.53812000
H       1.65582180      9.11548441     12.65278475
H       5.23633258      2.76253356     18.84413757
H       1.95464023      7.63569297     13.07479080
H       5.97512843      0.41950837     18.64056823
H      -2.08094449      6.76484769     16.50281810
H       2.66501886     -0.52467546     18.79280275
O       6.18279039     -0.52666292     18.43876262
H       4.18338521      4.94024399     17.85555308
O      -1.12396346      7.11859015     16.80344609
O       2.42605306      8.93210115     19.70384960
H       3.06860117     -0.24020697     20.32329844
H       7.20031533     -0.52429577     18.37886694
O      10.15352614      2.50941622     21.59183709
H      -1.22773370      7.76432682     17.49667995
H       1.47873659      3.35936067     19.76143231
H       0.16245693      5.87476707     16.44126296
O       8.45153563      4.51289853     20.95832356
H      -0.43057374      2.36386420     20.78990137
H       2.21570578      4.62148552     19.47839860
O       1.75167979      4.22149358     20.22802034
H       7.82627041      4.71902592     21.68764854
H       5.07159745     -0.07852337     21.12407330
H       1.17595085      5.21868209     15.36318750
H       8.07025768      4.47573975     20.05963546
H       9.34914656      3.09284627     21.37180103
O       0.91485152      5.19742229     16.35407202
O       8.79645414     -0.09664349     18.04309942
O       4.39764293      0.64313732     21.10842720
H       0.37065910      8.76576814     20.01391936
H       9.95772017      5.42605308     20.89777725
H       9.37744593      9.83708647     18.75496678
O       8.33046843      9.45599474     21.67696178
H       8.68819397      0.73778962     17.51107672
H       9.14323004      9.21351057     21.10523387
O      -0.53381208      8.45087497     20.14829028
O      -0.27973018      5.85344974     21.13712786
H       4.60983962      1.22376375     20.29224317
H       8.64382159      9.48575068     22.56447550
H       5.92980879      8.24909027     19.95423285
H       2.43768761      3.93944919     21.90621188
H       0.32753432      5.16946316     20.70742981
O       6.22971149      8.20035948     20.86104689
H      -0.41896850      7.57232651     20.63127764
H       5.81287246      7.30287580     22.15746667
H       6.99537670      8.90068859     21.01880804
O       2.86902175      3.78047009     22.75992455
O      11.54415255     10.01121327     24.51680940
O       5.83680261      7.13555661     23.15388547
O       7.47112599      2.60467163     24.47995250
H       7.20346713      5.80265331     23.66204063
H       2.04306155      3.22363826     23.09993640
H       4.98675918      6.73297274     23.47623444
H      12.14913802      9.46766504     23.86206103
H       6.54709793      2.44723498     24.02754882
H       7.65686587      3.55875254     24.31831609
H       4.92049043      1.70357507     22.43120285
H      11.70644948      1.32534875     24.26407566
H       2.76825264      5.28317171     23.30264315
O       1.72130545      8.84402461     22.81319782
H       2.18172286      8.02038739     23.14846603
O       3.07928940      6.28130043     23.60707531
O       5.03496034      2.12967500     23.32695486
O       7.90268724      5.10489400     23.81463232
O       0.48088679      2.70617800     23.52504303
O      10.46245643      5.23093322     23.70327546
H       8.39424859      0.98443603     24.38491656
H       5.82591981      8.52299615     24.01887593
H      11.01555124      2.74343602     22.69920035
H      10.68089782      5.71350356     24.52506021
H       1.30518975      8.61556046     21.96901084
H       8.85115827      5.45536365     23.88556976
H       5.45283593      0.48540464     23.93511031
H       9.90363622      0.23404938     24.34030800
H       4.43622390      2.85659021     23.46458155
H       2.76545124      6.31114794     24.52198991
O       8.90050549      9.71905332     24.41566999
O       6.00396129      9.45536604     24.36173980
H      11.35877162      3.48230975     24.02838947
H      10.75574769      5.58285625     22.80641395
Pt      3.18908904      9.59034637     26.71392208
Pt      6.05835161      9.63705902     26.57425767
Pt      8.88976163      9.44790388     26.63831590
Pt     11.62321957      9.45758823     26.55898014
Pt      8.99392404      4.69408851     26.69163372
Pt      4.71040524      7.14529212     26.74386692
Pt     10.23024844      7.09773663     26.54572358
Pt      7.37412472      7.13543580     26.69164518
Pt     11.66098348      4.73187680     26.77697227
Pt      1.88916494      7.12151942     26.52390154
Pt     10.27549702      2.19396297     26.89661416
Pt      7.46425986      2.30156724     26.74900014
Pt      3.20119202      4.74497029     26.70544195
Pt      6.10465851      4.67751297     26.76618378
Pt      1.92715947      2.25632347     26.60483344
Pt      4.70940208      2.38305104     26.64252723
O       2.72291922      6.03306903     18.32311273
H       2.43293964      6.83264829     18.74207615
H       2.03451849      5.80142849     17.70093574
O       5.64069625      6.53809036     15.04396426
H       2.74064646     -0.72757939      9.34002051
O       9.93850893      2.73299068      9.08900902
H      10.45221577      3.66036422      9.30053983
H       9.02161567      3.11672551      9.07375471
O       5.92443923      3.75151401     10.65386421
H       5.90065506      4.63824205     10.18138948
H       5.66120922      3.90827822     11.60991305
H       5.45151003      6.56776392     14.11507490
H       9.65577469      8.15352161      9.47612337
