   247
 Tv_1:  11.152900   0.000000   0.000000 Tv_2:   0.000000   9.658700   0.000000 Tv_3:   0.000000   0.000000  26.829700
Pt      5.92360482      8.18157097      2.27492866
Pt      7.35591468      0.98923251      2.13376341
Pt     11.66827834      8.12736289      2.12605924
Pt      8.68095156      8.13045780      2.39722197
Pt      8.81542458      3.42375968      2.39306134
Pt      3.20055858      8.09190358      2.19417884
Pt     10.16438395      5.76977379      2.52711427
Pt      7.40492876      5.72369202      2.31460054
Pt      5.98840307      3.34185477      2.44875791
Pt      4.57961671      5.77453996      2.27729279
Pt     10.13385649      0.89921990      2.39917995
Pt      1.80172681      5.66173766      2.40911614
Pt      1.79160653      0.93800276      2.33388266
Pt      3.23825676      3.27349774      2.27185188
Pt      4.61581297      0.96170293      2.17685066
Pt     11.68785634      3.24983780      2.42786808
Pt      5.97760241      6.82830419      4.57100376
Pt      8.67041435      6.67473643      4.76172633
Pt      7.33879894      9.13454855      4.61867864
Pt      7.30258425      4.29004025      4.60023569
Pt      8.63060611      1.89050007      4.50609787
Pt      5.87736126      1.88976399      4.65213926
Pt     10.08129990      4.23340885      4.75998180
Pt     10.08441495      9.06124166      4.69267327
Pt      1.73239951      9.11188268      4.60254013
Pt      0.38112248      6.69191331      4.77656452
Pt      3.01603902      1.80637952      4.57750025
Pt      3.20540953      6.65434211      4.53100656
Pt      4.45001137      9.17795075      4.53352056
Pt      4.42170068      4.32133772      4.56837920
Pt      0.30336202      1.83038078      4.69060858
Pt      1.69544575      4.25330165      4.68091538
Pt      7.16580036      2.84478872      6.75993143
Pt      9.60931645      7.67905216      7.09472904
Pt      8.36006751      5.31058145      7.05782473
Pt      8.31180190      0.41007402      6.94909599
Pt      5.54279866      0.46680786      6.94021607
Pt      2.78738884      5.27367526      6.90699131
Pt      2.76303877      0.51742222      7.02426718
Pt      6.66142485      7.59605515      7.10007218
Pt      4.31517292      2.85384317      6.83027784
Pt      1.59659430      2.85597766      7.00440928
Pt     -0.11743134      5.15188432      7.06911465
Pt     10.20092071      2.65557010      6.97318329
Pt      5.65477861      5.23850013      6.81840691
Pt      0.02138455      0.25911737      6.99110840
Pt      1.14270335      7.54502404      7.11271150
Pt      3.80279388      7.84908249      6.92376404
O       5.57424491      5.63467704      8.93896933
O       1.56075951      7.62232763      9.14101209
O      -0.13520474      5.02339536      9.20770094
O       0.30073542      0.57415478      9.14623146
H       0.83780649      7.68625485      9.84591901
O       8.14770642      0.28725232      9.05746970
H      -0.23279108      1.40856730      9.30320040
H      -0.84733883      5.47174919      9.65014540
H       4.69790092      3.57472665      9.57825186
H       1.65998065      3.52184256      9.57980247
H       8.28619786      1.00726569      9.73772016
C       6.11356869      6.87975794      9.11358021
H       2.20842962      6.33722952      9.30811372
O       7.75992974      3.70899611      8.52275871
H      -0.66794916      2.59665158     11.21359546
H       5.47455729      7.68187449      9.52899888
O       4.43433928      2.79744824      9.03500636
O       2.02599980      2.72729150      9.07693001
H       1.29702024      0.64875862      9.31381023
O       9.28797864      7.80643742      9.14496265
H       3.07370815      2.72070603      9.06629316
O       5.53745231      0.49993857      9.07450546
O       2.78745915      5.40812141      9.13659851
H       6.93515104      6.68802139      9.69725315
H       6.03433511      0.75252422     15.60221858
H       6.47916709      0.36396526      9.31029667
H      10.01380130      7.84755168      9.76769066
H      -0.77290625      3.53263555     12.47592133
H       5.19771025      1.46365777      9.12737421
O      10.03134237      2.65515112     12.03092688
O       5.79336423      0.71793213     14.61004340
H       3.73621551      5.71217422      9.15266415
H       6.52881245      2.52153899     12.99495784
H       5.97022575      9.50563189     14.18940304
H       7.43439276      0.47878961     12.06612407
H       0.42304931      8.43692522     11.77662878
H       5.92307812      3.69544646     14.01729170
O      -0.10572116      7.85262426     11.15081001
O       7.34271310      1.33581012     11.58425641
O       6.50418275      3.50772605     13.25210664
Cl      4.39470236      7.21858874     11.94272611
H       1.79466042      3.25735632     12.42933801
O       8.16290475      5.58863351     11.22296074
H       7.78177053      4.80483513     10.86818648
Cl      0.24720573      5.34301463     13.24396521
O       4.56176580      4.12118642     15.08790306
H      -0.20276238      7.00134280     11.59277728
O       2.42569530      2.63184345     12.18645818
H       7.78060308      5.55812457     12.13537316
H       3.95409875      4.86381782     14.75065685
H       4.02827730      3.27206635     15.10933680
H       8.24907463      1.77811595     11.76865156
H      -0.10218276      3.59865673     14.73767000
O       2.82043467      6.09519395     14.26674687
H       3.29861827      6.74589675     13.64556622
H       3.89087560      0.08418199      9.56672890
H       3.20178239      3.17479283     11.74569104
H       4.10457445      1.12144845     14.38701292
H       0.67641858      3.09090115     16.84529997
H       1.92269859      5.87043582     13.80201721
H       9.15661739      3.20343418     15.69401803
H       2.99445588      1.95846871     13.65398078
O      -0.45901839      2.89519224     15.36512472
H      -0.23992913      2.02468962     14.90753561
O       1.08708336      3.28960000     17.69501136
O       2.89465100      0.12924441      9.40915789
O       3.20499956      1.46075097     14.46274432
H       1.71567428      4.05988812     17.55475633
H      -0.60775584     10.69321428     13.23169651
O       8.11529734      3.38865255     15.78196020
O       1.29631993      1.93634400     20.54118167
O      -0.13327322     10.21524616     13.98458802
H       1.47861923      2.13178765     19.62365490
H       8.15694695      6.04692758     17.71563615
O       8.88797235      5.38761443     17.65265604
H       7.61265646      7.73229944     13.14734808
H       7.75960350      3.19019846     14.89592436
H       3.11151854      1.52774188     16.13176319
H       2.38918081      2.12879051     17.34362953
H       1.15661187      0.93479281     20.63685909
H       8.36949545      4.64861648     17.25628082
H       8.62986478      5.82524329     15.03700622
O       3.26472751      1.79171666     17.06768693
H       0.78919349      9.99627285     13.61248858
H       5.24046533      4.91496289     16.56506507
H       4.63605699      2.60457209     18.34968769
O       8.86531460      6.47760866     14.35999443
O       5.12283285      3.15422859     19.04886210
O       1.72527002      9.27547839     12.18697256
H       9.72364182      6.14209893     13.83939942
O       5.74356872      5.24144358     17.38600248
H       2.00502411     10.04041292     11.66181943
H       5.66393869      3.71968172     18.45750434
H       2.54259178      8.62873195     12.02203783
H       7.17104804      1.69775365     16.96659241
H      -0.31618669      8.83200438     15.63299019
H       3.62339780      0.23978300     18.57918608
O       6.68438432      0.94711244     17.23306368
H       5.30145934      5.96383891     17.77034950
O      -0.72236223      8.08123259     16.16780369
O       3.72121755      9.33510580     19.33516383
H       4.50524834      0.06882964     19.80408352
H       7.33115780      0.16919457     17.32604022
O      10.05640694      2.58520743     21.63490848
H      -1.16400813      7.51964824     15.54850581
H       3.08853763      4.36926733     20.14110350
H       0.81362569      6.86761122     16.85641394
O       9.18158191      5.02278286     20.37728549
H      -0.35439354      2.30009168     21.00524191
H       3.31796245      5.92658450     19.86230098
O       2.85166857      5.26562791     20.48890983
H       8.37016020      5.46982978     20.66613407
H       6.55518262      1.07994571     20.46563661
H       2.05528046      6.37419322     16.00300984
H       9.16996134      4.92377880     19.39722437
H       9.63486752      3.33981892     21.16806208
O       1.71799229      6.42816504     16.93640958
O       8.53789177     -0.84808633     17.74622753
O       5.52268546      1.21678572     20.53372316
H       2.39092050      8.79656061     20.17414830
H      10.84940775      5.70742782     20.52409450
H       8.32614190      8.12431590     18.35426917
O       8.30337431     10.10216305     21.11049880
H       9.26656054     -1.22750496     17.12120391
H       8.84424813     10.91685817     21.11262718
O       1.58320702      8.81422323     20.69316285
O       0.42416118      6.27938977     20.91460219
H       5.32053241      2.12975182     20.02737596
H       8.33402276      9.61604250     21.99729444
H       6.48295251      7.78348906     19.78943767
H       3.09972165      4.35804314     22.09843378
H       1.28728029      5.86110858     20.71041614
O       7.36417154      7.67482169     20.15282082
H       0.91015243      8.04243771     20.74644424
H       6.76182247      6.99026804     21.97704055
H       7.76260560      8.60792894     20.27568196
O       3.20001364      4.14184516     23.04901685
O      11.41694309      9.85688295     24.28429766
O       6.93575961      6.25538907     22.63214249
O       7.58683197      2.46280513     24.45339184
H       8.03992724      5.39672744     23.69876348
H       2.31501448      3.74451040     23.24309043
H       5.96571571      6.27207105     22.96890583
H      12.11944241      9.31308560     23.81817753
H       6.76345184      2.29062305     23.89553005
H       8.16394270      3.20322909     24.05676948
H       5.35013019      1.63425379     22.06458282
H      11.55560379      1.18232715     24.08686924
H       3.71424016      5.85063942     23.47126983
O       2.23154596      8.50263307     23.41115961
H       3.11143027      8.28194901     23.70236474
O       4.32231503      6.60773987     23.50609548
O       5.46509571      1.88806629     23.07732067
O       8.74266211      4.84052712     24.07296072
O       0.76567303      2.80938863     23.77742586
O      10.74318363      6.32044829     23.56027124
H       8.72278957     -1.53263047     23.76520245
H       6.94917497      9.09182951     24.04223741
H      11.16885317      2.96289662     23.11531178
H      11.09459117      6.83064764     24.26195229
H       2.08247015      8.50361257     22.37683045
H       9.65478885      5.22050528     23.89024389
H       5.65624410      0.49440618     23.99967156
H       9.49096488     -0.20778561     23.98842616
H       4.78629785      2.51576434     23.39129019
H       4.43493290      6.62326872     24.49095022
O       8.68505426      9.07198042     23.60245718
O       6.04637306      9.35748791     24.44994179
H      11.62054543      3.30134484     24.58436216
H      11.15679547      6.29707850     22.63554784
Pt      3.15076043      9.36524272     26.65665289
Pt      5.82393390      9.36541094     26.64038704
Pt      8.73620778      9.43247318     26.84371732
Pt     11.53483225      9.38074701     26.49638444
Pt      8.84326752      4.60056927     26.78402372
Pt      4.65951725      6.93558670     26.81098587
Pt     10.22035012      7.02149705     26.80030364
Pt      7.32409357      6.99710294     26.73843861
Pt     11.55644639      4.62120933     26.91256213
Pt      1.89293072      6.79500816     26.73898088
Pt     10.22347138      2.26793078     26.91034245
Pt      7.38992939      2.25838745     26.59849173
Pt      3.29248747      4.57753068     26.71004604
Pt      6.02675183      4.55867627     26.69097354
Pt      1.89630378      2.09022470     26.90227987
Pt      4.53935545      2.18494164     26.60591056
O       3.78151845      6.79992664     18.59162822
H       3.85897148      7.78359681     18.81419033
H       2.96740933      6.70839685     18.01666768
O       7.12502240      8.51335083     12.91228654
H       2.56717182     -0.86833215      9.38706545
O      10.12932836      2.70218443      9.06222204
H      10.42586319      3.61464726      9.28844897
H       8.65831113      3.40650355      8.82089886
O       4.55819936      4.10734154     11.36845325
H       4.54938881      5.12265643     11.46116656
H       5.36193938      3.86674659     11.96442681
H       6.44440801      8.04547993     12.30970335
H       8.78997789      8.79056694      9.29994558
