     242
Tv_1:  11.152900   0.000000   0.000000 Tv_2:   0.000000   9.658700   0.000000 Tv_3:   0.000000   0.000000  26.829700
 Pt         5.4272318700        7.8576137100        2.1283848500
 Pt         6.8932292700        0.5648707300        2.2030241200
 Pt        11.0042826200        7.8354274400        2.2803567700
 Pt         8.2214902300        7.8691229600        2.0938010200
 Pt         8.2636323300        2.9718586300        2.2614426200
 Pt         2.6441944300        7.8274115200        2.2327507400
 Pt         9.6305062700        5.3967706300        2.1654560500
 Pt         6.8783884200        5.3974409300        2.2343594600
 Pt         5.4499926200        3.0355820600        2.2361018000
 Pt         4.0638592600        5.4527023300        2.2449605000
 Pt         9.6527868100        0.5775459400        2.2699409900
 Pt         1.2185933900        5.4558810200        2.2282350700
 Pt         1.2615409600        0.5731126400        2.2321178900
 Pt         2.6906199600        3.0205880000        2.2390707100
 Pt         4.1001706900        0.5588914000        2.1923161800
 Pt        11.0776705600        2.9846023200        2.2202573500
 Pt         5.7649016600        6.4797796900        4.5482513600
 Pt         8.5784270500        6.4546739400        4.4446100400
 Pt         7.2466338300        8.8305418000        4.4831721900
 Pt         7.2029874600        4.0341717300        4.5729445000
 Pt         8.5921566700        1.6001993600        4.6088126100
 Pt         5.8146589100        1.6072132000        4.4952652000
 Pt         9.9601108700        4.0399523200        4.4688221600
 Pt         9.9911681300        8.8529438000        4.6443703600
 Pt         1.6238676400        8.8793663800        4.5955643200
 Pt         0.2343660400        6.4672375800        4.6186365300
 Pt         3.0636315800        1.6094052700        4.4982431700
 Pt         2.9902317200        6.5019296900        4.5830333700
 Pt         4.4583012800        8.8514895600        4.5228595900
 Pt         4.4238199900        4.0382369300        4.5419237400
 Pt         0.2881059700        1.6067003800        4.5430777700
 Pt         1.5848194600        4.0805895800        4.5225801900
 Pt         7.6465888000        2.6567169800        6.9527021200
 Pt        10.2616841100        7.4875136700        6.9703232900
 Pt         8.9904155500        5.0726528100        6.7999254100
 Pt         9.0778938700        0.2719046200        6.9639993100
 Pt         6.1493307700        0.2597953200        6.8457042000
 Pt         3.3887956500        5.0561933100        6.8686330600
 Pt         3.4372989900        0.3175162200        6.8782462800
 Pt         7.5840515300        7.5028425700        6.8566836400
 Pt         4.8545943900        2.6508588100        6.8800668500
 Pt         2.0580122700        2.7019419700        6.8339937400
 Pt         0.6689940800        5.0371758500        6.9380679900
 Pt        10.3631083500        2.7174778000        6.8226349000
 Pt         6.1450199700        5.0745974200        6.8929863100
 Pt         0.7461692200        0.3323433300        6.9213712100
 Pt         2.0336270500        7.4922703900        6.9537624300
 Pt         4.8855368700        7.5017052400        6.9256964900
  O         6.0478803100        4.7926407400        8.9725344700
  O         1.6847644400        7.6602139000        9.0309139900
  O         0.4540476100        4.8907217600        8.9937060900
  H         3.1805755400        3.1833611600        9.7909942000
  H         7.7911024100        5.6209575400        9.7072861400
  O         0.6348685400        0.3826567900        9.0582345900
  H         1.4922218800        8.5971222300        9.3258478200
  H         5.1290494300        4.4767228800        9.2866276800
  O         9.3050905200        0.4388724800        8.9729490400
  H        10.7301068500        0.3552657200        9.1948365500
  H         0.9958968300        1.2812236600        9.4471957700
  H         1.2576356700        5.2909149600        9.4381348800
  H         6.6057651800        2.1915418000        9.9742648400
  H         0.9456305100        3.4010025500        9.6392110400
  H         8.5613524500       -0.1069760200        9.4706256700
  C         6.7216829800        5.6275075500        9.9515599000
  H         2.3381518200        7.1762107100        9.6270178000
  O         7.7838057000        2.6849087000        8.9510905200
  H         4.4692075300        8.3745449500        9.2830489500
  H         6.5565615900        5.1605370700       10.9331020500
  O         4.5980612900        7.4541510900        8.8575678300
  O         4.0646791400        3.5958770600        9.9856949100
  O         1.4634211900        2.6100240700        9.9866002100
  H         1.5336693400        2.6949765300       11.0165144300
  H        10.2392880500        7.5451690800        9.8515921100
  O         9.9606222400        6.9206722000        9.0173211700
  H         4.6854741500        2.8524956100       10.2955559200
  O         5.9110368200        1.8253156900       10.6145602700
  O         2.4992281400        5.8187083900       10.5669325900
  H         3.2725736800        5.2212263200       10.6702993600
  H         6.3044137500        6.6412792800        9.9278277200
  H         6.6817132100        7.4266482200       12.5029431200
  H         6.1658674500        2.1449197600       11.5602601400
  H        10.5634270200        6.0995205600        9.1198431700
  H         7.5647388700        8.3470597800       10.9090867000
  H         6.8389515100        0.0447725900       10.4740969900
  O         7.3809274100        8.9600488500       10.1240111900
  O         7.6510815800        7.4425203000       12.2625992500
  H         2.0463708900        5.8834082000       11.4583896200
  H        10.1665521400        2.5388521600       11.2208741900
  H         8.0013301600        6.5310498000       12.3784096500
  H         8.9504631600        9.2479455900       13.4630263600
  H        10.1438462400        8.6679564000       11.6995544600
  H         9.1843294200        1.6694476600       12.0544770400
  O        -0.4468239500        8.0894659100       11.0802227800
  O         9.5381626200        0.0434142800       12.8035614900
  O         9.2501513900        2.5245674400       11.5474300300
 Cl         4.6424333500        7.8119551400       12.7006955800
  H         1.3107569500        3.7995998500       12.7638282800
  O         8.9147448300        4.8648892900       12.9661903800
  H         8.8710816700        4.0311024300       12.4125895500
 Cl         0.6372438600        5.8223611400       12.9796002900
  O         6.4809508800        2.6163965400       13.0268222200
  H        -0.0834326700        7.3737931300       11.6685725700
  O         1.7029689500        2.9074188800       12.5544088700
  H         9.8559693900        5.1963971600       12.8604353200
  H         6.0120755200        3.4240367800       13.3468188700
  H         6.2402849600        1.8574643100       13.6325691700
  H        10.3369759300        9.9887170700       13.3426565800
  H         5.3390790400        9.4061614400       14.0289973300
  O         5.2481094100        5.0594496800       14.0280904200
  H         4.4510758700        4.6631522700       14.4833310200
  H         4.6350379600        0.5928682000       10.3291808800
  H         1.1975482900        2.2354857400       13.1242820900
  H         8.0638889900        5.5160194900       14.4919275900
  H         3.0147014000        3.1044091600       14.1876109600
  H         4.9188900100        5.8738086400       13.5570866900
  H         9.4799314200        3.7012515900       14.3404578000
  H         6.5801858400        5.6492927800       14.9136687600
  O         5.8884441300        0.4007359400       14.5399548700
  H         6.7306658200        9.5491311900       14.7557237100
  O         3.3148343000        3.4959245700       15.0380489100
  O         3.9412025800        9.5518903600       10.2381520600
  O         7.5051394900        5.9295366800       15.1951848600
  H         2.4571898300        3.6514737800       15.5469114000
  H         7.8969442300        7.7254591400       15.1098025400
  O         9.8357456400        3.0981679300       15.0380801000
  O         0.3561564300        1.2439020900       14.1192752800
  O         8.1389186200        8.6874779900       15.0822286300
  H        -0.3213757300        1.8873235000       14.4900315800
  H         0.1944027700        3.5180122300       15.9329235400
  O         1.0374585400        3.6438824100       16.4426897800
  H         4.0346800300        9.0272522800       11.0869461800
  H         9.0474229500        2.8143220400       15.5892334600
  H         5.3129469100        1.2762971300       15.9568560000
  H         4.4857219200        2.5843598400       16.0703850700
  H         0.8727990100        0.9251431600       14.9300488800
  H         0.8621074500        4.4810553400       16.9324639200
  H        -0.0420346400        6.4156258800       16.0716842600
  O         5.1724132600        2.0581523600       16.5654786900
  H         8.4606146800        8.9376246000       15.9965138300
  H         8.0822614200        5.4787912600       16.7480008300
  H         6.9320229200        2.5107856300       16.6986327500
  O        -0.0478215500        6.2360114100       17.0316747000
  O         7.9182675400        2.5315687000       16.8377748600
  O         1.7013659600        0.7851167800       16.3743492400
  H        10.1926774200        5.8711203600       17.2296526600
  O         8.6450804700        5.1056207200       17.4888062200
  H         1.4727586000        1.6151178600       16.8425004500
  H         8.1413955800        3.4130097000       17.2455514500
  H         1.5298604900        9.7025422100       17.0067277700
  H         8.6174798500        0.9684932500       17.3921000000
  H         0.6340385500        7.6709803200       17.8916079800
  H         4.7248627000        1.9622391300       18.2715960000
  O         8.9616376300        0.0425642800       17.4872612700
  H         8.2219558500        5.2944468700       18.3652475200
  O         1.2893353200        8.3109088700       18.2800332700
  O         4.5938591500        2.0706062800       19.2600432100
  H         3.9964026400        2.8628611300       19.3839709600
  H         8.7139961600        9.4365136600       18.3961845000
  O         0.3762693100        3.2683794500       19.6686920100
  H         0.8209163400        8.8785148100       18.9459211500
  H         1.9021863600        3.7680870800       19.7701140000
  H         2.4354275700        7.2962321700       19.1033743500
  O         7.7488985200        5.0850682100       20.0843744100
  H         0.3116017100        2.3014481800       19.8823542800
  H         2.9313912100        5.0227945600       19.7811204300
  O         2.8584648500        4.0450002900       19.9962830100
  H         7.1174485200        5.7563499800       20.4536661100
  H         6.0686479900        2.3066391600       20.0110701600
  H         3.9650904000        6.9985990200       19.2417513200
  H         7.3706936800        4.1643982200       20.2023328400
  H        10.9949592700        3.7579724400       20.3345486800
  O         3.1025388600        6.7304669100       19.5992495000
  O         0.5912485600        0.5171551500       20.2397599100
  O         6.9916765200        2.4331238300       20.4062626800
  H         3.6812900300        0.9753885000       20.4156010300
  H         9.1784147200        5.1024364900       20.9890246200
  H         1.5335414000        0.5412986200       20.6115167600
  O         8.0568462300        9.4486426500       20.4069515800
  H         0.0371356200        0.2273357100       20.9934540900
  H         8.7643788800        9.5224648400       21.0780929200
  O         3.0957031100        0.6657068000       21.1541643400
  O        10.0156255000        4.8940877000       21.5092896400
  H         6.9233718600        2.2774800500       21.3800422600
  H         7.6953611900        0.7160090100       20.3275281100
  H         6.9655478100        8.0626406700       20.9207909600
  H         2.8050422300        3.7823253000       21.5631036600
  H        10.3574478100        5.7302435200       21.9174603100
  O         6.4861275000        7.2681114100       21.2877261400
  H         3.4775544400        9.4845450300       21.5010391500
  H         5.0041618000        7.7383612500       22.0329954800
  H         6.9851847200        7.0517696200       22.1320360500
  O         2.7349197500        3.6653633300       22.5827302900
  O        10.3381538700        9.4607479400       22.8235695300
  O         4.2380382600        8.1060426200       22.5694112900
  O         7.2973310000        1.8931904400       23.1609256400
  H         9.6204143300        4.0687990700       22.7757396500
  H         1.9611097700        3.0650471100       22.7574581000
  H         3.6325585000        7.3447215800       22.7934809600
  H        10.7624639800        8.5622224000       22.9685383700
  H         6.4200656700        2.2677695800       23.4516812300
  H         8.0202564600        2.5566858600       23.3736746000
  H         3.9980650100        2.9033038700       23.2425045300
  H        10.9865882800        0.5129077700       23.1110551600
  H         2.5892377000        5.1989287500       23.1611424600
  O        11.0945168000        6.8899801100       23.1870577400
  H         0.9098623300        6.6396691800       23.3184935800
  O         2.5189988600        6.1629678100       23.4751699500
  O         4.7631997300        2.5309253200       23.8080307100
  O         9.4624393900        3.4239423800       23.5625943800
  O         0.6259108700        2.0031619200       23.4711923400
  O         7.8852688700        6.7935853500       23.5424548700
  H         7.7110035400        0.5746913500       23.9785253300
  H         4.7798935000        8.9012246300       23.7565218600
  H        10.9519246500        2.5668574600       23.5751661400
  H         7.8988999700        7.7179814900       23.9024803400
  H        10.6569290000        6.6632098500       24.0360072400
  H         9.4046051000        3.9629186700       24.3856845500
  H         4.8846089500        0.8248387000       24.2041448100
  H         9.1434848500        9.4881808600       23.9184533100
  H         4.7894826400        3.1120300300       24.6092832500
  H         2.7108562200        6.1353583900       24.4436080400
  O         8.2223273100        9.4281077300       24.3618462300
  O         5.2480305400       -0.0880783400       24.3985936400
  H         0.9420795200        1.8843439800       24.4068219700
  H         7.5068918300        6.2628860100       24.2773914000
 Pt         2.4739877700        9.2393802700       26.7098175600
 Pt         5.2234407500        9.1685357000       26.5053037300
 Pt         8.1266703500        9.2089894700       26.5301317000
 Pt        10.9100262100        9.2103491400       26.7242609200
 Pt         8.1066755100        4.3945880300       26.6410215900
 Pt         3.9028191100        6.7789066900       26.6755569200
 Pt         9.5083819600        6.7848525400       26.6625400900
 Pt         6.6767072900        6.7631467800       26.7185222100
 Pt        10.8791218500        4.3742424600       26.6604201600
 Pt         1.1377281300        6.8170383000       26.6705607000
 Pt         9.4770317200        1.9826432200       26.7183427600
 Pt         6.6831450400        2.0194161600       26.7947522400
 Pt         2.4975599000        4.4042951500       26.7111619700
 Pt         5.2953413900        4.3933294600       26.6511433700
 Pt         1.1024381900        2.0022378200       26.6802478300
 Pt         3.8888287100        2.0045905900       26.7456588600
  H         8.4994393700        2.0223843000        9.1643732900
