     242
Tv_1:  11.152900   0.000000   0.000000 Tv_2:   0.000000   9.658700   0.000000 Tv_3:   0.000000   0.000000  26.829700
 Pt         5.5081399849        8.0382170555        2.0667943825
 Pt         6.9404384494        0.6377355712        2.3188334139
 Pt        11.3132823234        8.0188914794        2.2306724354
 Pt         8.3802163576        7.8362060218        2.1920241688
 Pt         8.2657715075        2.9580085117        2.3055208932
 Pt         2.7938579374        7.9889203161        2.3865566783
 Pt         9.7049630242        5.4083220055        2.2014959788
 Pt         6.9711138358        5.4994471496        2.2385983823
 Pt         5.3988190037        3.1884987074        2.2540798635
 Pt         4.1599926848        5.6108956918        2.2742410719
 Pt         9.6690335136        0.5215672980        2.0980684755
 Pt         1.2704189466        5.5246733203        2.2779036585
 Pt         1.4056233168        0.7369336800        2.3415615473
 Pt         2.7664324694        3.2150467213        2.1442803485
 Pt         4.1696871031        0.7775975387        2.2226734756
 Pt        10.9963247291        3.0272681269        2.1400583905
 Pt         5.6411593009        6.4882294455        4.6008529544
 Pt         8.6103541161        6.4103675117        4.6066710928
 Pt         7.1660759088        8.7172362508        4.4375656529
 Pt         7.0867165627        4.1028829002        4.5690861928
 Pt         8.6685869619        1.5175470339        4.5638534007
 Pt         5.7825901417        1.7009767699        4.5797079507
 Pt         9.9059636709        4.0517060829        4.3843600298
 Pt         9.8622516356        8.7565571869        4.6056984314
 Pt         1.5769755022        8.8371392792        4.7723740603
 Pt         0.1906337333        6.5369678289        4.5862939031
 Pt         2.8981193731        1.6943258534        4.5194015186
 Pt         2.8819839341        6.4443265150        4.6637413677
 Pt         4.4116733254        8.8602500553        4.5722487665
 Pt         4.3265936047        3.9831609793        4.5669363876
 Pt         0.1976824240        1.5422221969        4.5415062587
 Pt         1.4953057245        4.1073386898        4.5358573493
 Pt         7.3266876934        2.4400933922        6.8946753410
 Pt        10.1562763439        7.3212146588        6.9541546458
 Pt         8.7960765178        4.8794749310        6.8266149078
 Pt         8.8119185803        0.0874217262        6.9526154193
 Pt         6.0074206892        0.1240943343        6.6996745339
 Pt         3.0400726719        4.8824889715        6.8431649570
 Pt         3.0725715391        0.1762399493        6.8653439258
 Pt         7.2898481236        7.3018673684        6.8480148683
 Pt         4.5153704027        2.4571908527        6.9600997423
 Pt         1.7421762245        2.5102330279        6.7955045319
 Pt         0.4105756026        4.8359074282        7.0132143130
 Pt        10.1066663521        2.5671496617        6.7239507281
 Pt         5.9005943146        4.8926309858        6.9340932733
 Pt         0.3389336412        0.2134305652        7.1013129365
 Pt         1.8109614349        7.3372493568        7.0930941837
 Pt         4.5549215269        7.3579073391        6.9597296112
  O         5.9080656420        4.6882835073        8.8836322190
  O         1.8812613519        7.7202286857        9.1047104896
  O         0.5381659067        5.0223036398        9.1453872845
  H         3.3211083089        2.8921728677        9.3952303643
  H         7.8420090760        4.8471483633        9.6877314400
  O         0.4424452529        0.2453689590        9.1198783863
  H         1.6167242890        8.6753304093        9.4532782725
  H         4.8123483950        3.6484236426        9.2371029875
  O         8.8558614621        0.1104400036        9.1060862091
  H         9.8262423052        0.2251931175        9.2527789262
  H         0.8208988821        1.1037304339        9.4270426103
  H         1.3448732426        5.5853585059        9.2471919560
  H         6.9149180425        2.3608008746        9.4968257008
  H         1.2010815155        3.4898326899        9.3301866130
  H         8.0004397024       -0.5499298242        9.6331773651
  C         6.8632271368        5.3102901049        9.7276134158
  H         2.8609341752        7.6737466505        9.2775968823
  O         7.7896728700        2.4272086261        9.0469777583
  H         5.2303901118        7.9866652333        9.2725181175
  H         6.4008279833        5.1668796626       10.7140687255
  O         4.5087397623        7.3973237676        8.9963862139
  O         4.2426014239        2.8460223650        9.0609396688
  O         1.4576201614        2.6835516840        9.8788530484
  H         1.3589427167        3.0760423289       10.8427040044
  H        10.3362044159        7.6679068017        9.7510707903
  O         9.8828023865        7.1615132585        8.9681524549
  H         4.8653698797        1.0925534665       10.7089401407
  O         5.8341167354        1.2278023230       10.8978466690
  O         3.5318790635        4.9784886775       10.4231431503
  H         3.9453044719        5.7482560206        9.9623622242
  H         6.8274805841        6.3765048406        9.6147396381
  H         6.0283441973        7.1164358643       12.5114039476
  H         5.9618437572        1.7932841251       11.7308288537
  H        10.5245814962        6.3919371918        9.1708994490
  H         7.2549071150        7.9847103828       10.9396416948
  H         6.6571532902        0.0286509493       10.6008130539
  O         6.9756280482        8.7024646867       10.2212117499
  O         6.9637209951        7.1444342777       12.2589251437
  H         3.2644689261        5.3287997017       11.2753506401
  H         9.5468770007        2.6279830368       10.7349494202
  H         7.4363836637        6.3565106519       12.6367012257
  H         8.4413770954        9.1977402278       13.3103902310
  H         9.9460321371        8.6759125279       11.5840459443
  H         8.9351648505        1.6886593949       11.9322853727
  O        -0.5417202868        8.0758986990       11.1143147371
  O         9.0989427586       -0.0221461281       12.7271164004
  O         9.0332688757        2.6351425903       11.6005700243
 Cl         3.8564414131        7.6326618868       12.7448512554
  H         0.6619763626        4.0364062581       12.6215691765
  O         8.3012990883        4.6990297756       13.0159224297
  H         8.4306000043        4.0154741391       12.3215410328
 Cl        -0.1044582114        5.7441941251       13.0729335787
  O         6.1094797524        2.5569247775       13.0836858809
  H        -0.4025153823        7.3008946524       11.8005087667
  O         1.1801525809        3.1516613371       12.3815660858
  H         9.1887509111        5.1405367714       13.1230178479
  H         5.3941974388        3.2173443847       13.3797563263
  H         6.1489006252        1.8375997252       13.7646962009
  H         9.9890640716        9.7129367097       13.2276760488
  H         5.0910735636        9.6620097573       13.8018120790
  O         4.3684973976        4.7205224548       14.1917239834
  H         3.4667237020        4.3212028182       14.5737230639
  H         2.7106062498        1.0155685914       10.8661095321
  H         0.5466410348        2.4107852569       12.6462171624
  H         7.1351991245        5.0971004552       14.4266992098
  H         1.8662829528        3.2366176298       14.0498269683
  H         3.9864316607        5.5236036749       13.6859937267
  H         9.2340251436        3.1343381724       14.3148346648
  H         5.6404951906        5.2247441332       14.9869461377
  O         5.7173049067        0.3818148847       14.5197753937
  H         6.3848193522        9.2440698714       14.6372320394
  O         2.2231754073        3.3807627694       14.9561064103
  O         3.3585982766        9.9222791526       10.7191428520
  O         6.5870419453        5.5279790594       15.1350107854
  H         1.4173663629        3.4315660497       15.5683496224
  H         6.9843471992        7.2271523995       15.0514310531
  O         9.4357138135        2.5147568398       15.0357519920
  O         0.1713304355        0.9318849047       13.6892144664
  O         7.4511016083        8.0908779819       15.0568833182
  H        -0.3924078659        1.5572525314       14.2801065112
  H        -0.5496253664        3.5598572813       15.9799202021
  O         0.1919029426        3.9204263927       16.5452763217
  H         3.3234777550        9.2813909739       11.5355101849
  H         8.5302834582        2.3276467273       15.3990917146
  H         4.9080504932        1.3090969002       15.6217953729
  H         3.6691368602        2.2146533981       15.8614458179
  H         0.7826126223        0.4011361689       14.2194442364
  H         0.0870489846        4.8891341239       16.4752026582
  H         0.2066473297        7.0810127066       15.6516148467
  O         4.5662431074        2.0349244594       16.2486657535
  H         7.6088235691        8.3300778846       16.0313421000
  H         7.7538595734        5.0550454189       16.3414795120
  H         6.3763941029        2.4958580917       16.2940345831
  O        -0.0462460902        6.7706248412       16.5197377738
  O         7.2886027422        2.4022539377       16.5815056976
  O         1.8129760141       -0.8129276608       14.9671197955
  H        10.1837618072        7.0532154362       16.6595731434
  O         8.4233099630        4.7846483432       17.0590905621
  H         2.4833061704       -1.2635890608       14.4392381529
  H         7.6500128901        3.2573165407       16.9852095208
  H         2.1574656982        8.9026505313       15.8891211028
  H         7.8794954473        0.7297030599       17.2751193255
  H         1.0600308002        7.8474458142       17.4983815698
  H         5.0918043748        1.7531851707       18.2166221980
  O         8.0252896848       -0.2442647238       17.4491476598
  H         8.1879412837        5.1317515838       17.9084800170
  O         1.8737293858        8.3612840305       17.7050012625
  O         5.0531202414        2.1346395974       19.1557914413
  H         4.4022329445        2.8882847244       19.1001215639
  H         7.8843850395        9.2569729679       18.4331257204
  O         0.7606507220        3.3564608397       19.0734331235
  H         1.6307857128        9.0475078878       18.3327446636
  H         2.4140205133        3.5950491495       19.4211054782
  H         2.3049796000        7.2884687958       18.9593942816
  O         7.9713743686        5.0877733266       19.8542275172
  H         0.6405513895        3.6810943692       18.1471768509
  H         3.2297875675        4.9732769625       19.4577988068
  O         3.3286776089        3.9647460810       19.5642197255
  H         7.5410134193        5.7815557596       20.5065552631
  H         6.2943461891        2.3784196228       20.2229172539
  H         3.7450165816        7.0709222323       19.5013477174
  H         7.4505746087        4.3311953512       20.0642859129
  H        11.3767551808        3.8335683970       19.7270128484
  O         2.8836156303        6.6746783919       19.5358792321
  O         1.1701183708        0.5300844638       19.4732095101
  O         7.1706271047        2.4589680381       20.6895593257
  H         3.8573531877        1.3582800397       20.4386162871
  H         9.5347537578        4.8238471546       20.6608926983
  H         2.0138434086        0.5782643065       20.1194851167
  O         8.2418135166        9.4170026139       20.4222465839
  H         1.0398606479        1.4759417412       19.1612412273
  H         9.2393176749        9.3950722769       20.3819428001
  O         3.2439882364        0.9430056703       21.1090029246
  O        10.4619883980        4.6995799307       21.0621951041
  H         7.2067844196        2.4286041469       21.7195192053
  H         8.0305152557        0.7597477717       20.3906366653
  H         7.3957952324        8.0362537288       21.1040232151
  H         3.4550241137        3.9618965541       21.3667659789
  H        10.8585396884        5.5957860745       21.1646022857
  O         6.8751363415        7.1588695902       21.3289596769
  H         3.6389400624       10.1116562383       21.7908432830
  H         5.4952675685        7.9044072380       22.0628669759
  H         7.2237329303        6.8385752629       22.2026535672
  O         3.4528738032        3.7332521175       22.3226945227
  O        11.2754506301        9.6825262472       24.3020071702
  O         4.7742196436        8.2695616638       22.6466847112
  O         7.7932629282        2.2218741984       23.3999074471
  H        10.2020045269        4.1582512801       22.6452863233
  H         2.9067268529        2.9349035827       22.4037893136
  H         4.2385565807        7.4100056044       22.8585558016
  H        11.5757348305        8.7731917697       23.9169454929
  H         6.9850753424        2.6548423335       23.7723860258
  H         8.6821805620        2.7508205195       23.4694604106
  H         4.8291705130        3.2591520219       23.2601552221
  H        11.7303320088        0.8753640202       23.8262764230
  H         2.9008769338        5.2275601152       23.0973296748
  O        11.7509194098        7.1342777357       23.5253448582
  H         1.5775881323        6.8095012396       23.6612504020
  O         3.0670038226        6.2099702390       23.5348503511
  O         5.4437929475        2.8486929637       23.9144147711
  O        10.3523603782        3.5389171159       23.4721263214
  O         1.4196426883        2.0812244571       23.6943330594
  O         8.2875436399        6.3738192788       23.6725086325
  H         8.0348718146        0.6410872482       23.9820060786
  H         5.2253797819        9.0679273153       23.8788607987
  H        11.8709178154        2.7710712816       23.5608950587
  H         8.3415677399        7.3582930302       23.7411462305
  H        11.2251916909        6.6360373383       24.1699246675
  H        10.2579353733        4.0614292515       24.3341210063
  H         5.2166532513        1.0680765928       24.3573960271
  H         9.5236408760        9.7375080903       24.2845483195
  H         5.2264840468        3.3410510718       24.7448755949
  H         3.2997689225        6.0288783121       24.5329161381
  O         8.5376359022        9.4684251704       24.2047147472
  O         5.6122080015        0.1222889976       24.4573525336
  H         1.8530074355        2.4264195755       24.5768683598
  H         7.6769899160        6.1455585227       24.4243014685
 Pt         2.7658055772        9.4144222817       26.7244381645
 Pt         5.5641242433        9.3941831527       26.4940922097
 Pt         8.3796991197        9.2576156417       26.6055466780
 Pt        11.1861276895        9.1699515403       26.4908578088
 Pt         8.3408365625        4.3742476610       26.6870589671
 Pt         4.2288084391        6.9101505219       26.7089509769
 Pt         9.6613718815        6.8052612442       26.7505777825
 Pt         6.9950843906        6.8200272830       26.6360395234
 Pt        11.1704565334        4.5372293204       26.6909203769
 Pt         1.5605959503        6.9478216452       26.7783732431
 Pt         9.6070587618        2.0406879794       26.6743645535
 Pt         6.9517708895        2.0268613074       26.8557217240
 Pt         2.7766861082        4.6014877774       26.7330219789
 Pt         5.6037500714        4.5197260940       26.7779680210
 Pt         1.3387601796        2.1489686723       26.8424245384
 Pt         4.0860597570        2.1650711754       26.7956146638
  H         8.1586986942        1.4487811197        9.1887383118
