     242
Tv_1:  11.152900   0.000000   0.000000 Tv_2:   0.000000   9.658700   0.000000 Tv_3:   0.000000   0.000000  26.829700
 Pt         5.4786455011        7.9285310780        2.1189188196
 Pt         6.8481012096        0.6515138626        2.1043181936
 Pt        10.9886226302        7.8771775838        2.1916021484
 Pt         8.1988402598        7.8749246820        2.2255363560
 Pt         8.1444530288        3.0815919236        2.2345464851
 Pt         2.6844679418        7.8387325176        2.2430167171
 Pt         9.6126992615        5.4011969410        2.2553178430
 Pt         6.7303504858        5.4467565521        2.3018023947
 Pt         5.3508755451        3.1091138010        2.1041557596
 Pt         3.9860836989        5.5935017206        2.2183712072
 Pt         9.7273664311        0.6359081803        2.3194157107
 Pt         1.1794599330        5.4596453452        2.4207758284
 Pt         1.3374959713        0.5301417771        2.2177922307
 Pt         2.6229225467        3.0938778291        2.3722958247
 Pt         4.0709876133        0.6310598452        2.2339243167
 Pt        10.9865996250        3.0212775095        2.3829846554
 Pt         5.6523995086        6.5321503227        4.5644057882
 Pt         8.4406375416        6.3784798789        4.4995335496
 Pt         7.0718004560        8.9028455660        4.4599387579
 Pt         7.1375144798        4.0722285163        4.5626891266
 Pt         8.5244427602        1.5871034186        4.4773997739
 Pt         5.6593892880        1.7464493576        4.4806030177
 Pt         9.8101676762        3.9553821607        4.6412767740
 Pt         9.7682385289        8.7600986254        4.5756349482
 Pt         1.4951847220        8.8818834541        4.6707034039
 Pt         0.0081425410        6.5173606484        4.6567819980
 Pt         2.9387235452        1.6613479780        4.5158514359
 Pt         2.8555568254        6.4974042343        4.6732634207
 Pt         4.3359087485        8.8509149545        4.4827260102
 Pt         4.3561672924        4.1986387138        4.5225342958
 Pt         0.2313976531        1.4974234053        4.6224135833
 Pt         1.4966780553        4.1486643261        4.6642894009
 Pt         7.5139489838        2.4957743206        6.9598857678
 Pt        10.4667907023        7.3911672251        7.0856157748
 Pt         8.7203185303        4.8875089784        6.8802381312
 Pt         8.7966652630        0.0112017260        6.9413194879
 Pt         6.0879662828        0.1573539868        6.8827799418
 Pt         3.3558119650        5.0483204679        7.0296509941
 Pt         3.3877745943        0.2644693715        6.8710352097
 Pt         7.6299072159        7.3503699873        6.8499522311
 Pt         4.5328179864        2.6694916160        6.8417745641
 Pt         1.8338782552        2.6893504204        6.8572365332
 Pt         0.5427836311        5.0623565038        7.1064166948
 Pt        10.1969163819        2.5259741162        6.9476668828
 Pt         6.0808105670        4.9622897263        6.9750035071
 Pt         0.6666881209        0.2237250509        7.0847054600
 Pt         2.0283302225        7.4450220982        7.0893182311
 Pt         4.7975412620        7.4783591287        6.9964972432
  O         5.9419148652        4.9373149155        8.9315744678
  O         2.0635096136        7.8872810449        9.1058293038
  O         0.5669579460        4.9034666404        9.1023237852
  H         3.1904724699        2.3708914721        9.1245283175
  H         7.8560307405        4.6652729126        9.8210680210
  O         0.5218829529        0.2285900263        9.1390178218
  H         1.4806569376        8.7412423252        9.2732499874
  H         3.9905504085        3.5999225360        9.4204485246
  O         9.0776008382        0.1215436206        9.0593873450
  H        10.0562482593        0.0991230172        9.2950683797
  H         0.7234008324        1.1266982534        9.5512067541
  H         1.2914752918        5.4141854849        9.4693003719
  H         6.4769980759        2.0081465947        9.6008960643
  H         1.0245531812        3.4083331442        9.5311184214
  H         8.5882183112       -0.6044781279        9.5740869441
  C         7.0587666214        5.4457025133        9.6982362938
  H         3.1052786264        7.9259643435        9.2949293443
  O         7.3280989420        2.3434689167        9.0491843137
  H         5.3721528780        7.7367013829        9.4267609527
  H         6.7342095268        5.7477563320       10.7299515581
  O         4.4893215253        7.4737112973        9.0874680214
  O         4.0504500931        2.7092874647        8.9637069683
  O         1.3681713794        2.4914525601        9.9972223378
  H         1.5436876845        2.6486919228       10.9711613910
  H        10.7130695301        7.5536228293        9.8564716453
  O        10.1703149930        7.0119720493        9.1974720428
  H         4.8843882724        1.3167386560       10.9486432572
  O         5.8591579427        1.2348121209       10.9193967638
  O         3.5744519169        5.2170943286       10.4030903774
  H         3.9140938902        6.0998712536       10.0407119245
  H         7.6034732445        6.3314789145        9.2377076151
  H         7.0133473413        7.6290199973       12.9308824641
  H         6.1871815102        1.7039107432       11.7651318031
  H        10.5788558883        6.0291590145        9.2552660671
  H         7.1887917590        8.1667321665       11.0052087785
  H         6.4983153500       -0.2292089128       10.4219002938
  O         7.0325881830        8.6100561699       10.1364041495
  O         7.9104031273        7.8046746573       12.5930783396
  H         3.1612187713        5.4783869784       11.2662421714
  H        10.1086174989        3.0395415403       10.5383192981
  H         8.4297083688        6.9880466393       12.5617643774
  H         8.5141964455        9.7124586829       12.1903837173
  H        11.9751731554        9.0042791942       11.3166181472
  H         9.1982395317        2.3830357612       11.5954544900
  O        -0.0101142591        8.4362368952       11.4351888323
  O         9.2383812879        0.6738115348       12.1026253838
  O         9.2010847995        3.1433733487       10.9178077061
 Cl         4.7863347356        7.4657203412       12.7018501600
  H         2.3109611718        3.3725375694       12.7887716512
  O         9.3699309461        5.1917930660       12.5330561819
  H         9.3280890565        4.4689300875       11.8686114546
 Cl         1.5237387522        5.9342297890       12.7139317272
  O         6.9416610257        2.3341131985       13.1687486165
  H         0.4300588524        7.6379443208       11.8563063700
  O         2.1468607345        2.4809792383       12.4091795303
  H        10.2247516433        5.1951496880       13.0138780348
  H         6.5030641636        3.1427531461       13.5029429892
  H         6.8044321075        1.5661498205       13.7813589992
  H        10.0440020007        9.7835544949       12.2568431780
  H         5.6206636727        9.2755115360       14.3843154232
  O         5.0813068925        4.5703654500       14.5657910642
  H         4.5409785959        3.8766492982       14.9761313677
  H         2.9436171300        0.9320536993       11.7034479622
  H         1.6624069809        1.9573572648       13.1102018836
  H         8.1723863325        5.3062631882       14.1586944987
  H         3.3038444205        1.5425457494       14.8696543380
  H         4.5240552002        5.2081207248       14.0889928859
  H         9.6039854987        1.3726843083       14.1410682265
  H         6.7873183498        5.0979817553       14.9642165039
  O         6.2529783644        0.2540250395       14.7788128162
  H         7.0502397751        9.3037697901       15.0426476780
  O         3.3513769939        2.4337766568       15.3561412753
  O         3.1864187171        9.8092529310       11.0847774732
  O         7.7290308845        5.3107908326       15.0401936148
  H         2.4610604512        2.5458221366       15.8158894673
  H         8.1357732641        7.5419537741       15.5447723076
  O        10.0137251195        1.4469602870       15.0466601074
  O         1.0934040170        0.5183792814       13.6236385153
  O         8.5727833971        8.3987943113       15.7228065508
  H         0.4154827276        0.5536983052       14.3058230066
  H         0.1061873732        2.6286729268       16.1172052616
  O         0.8790367838        3.1424898611       16.4590412043
  H         3.5359782091        9.0754396730       11.7813887984
  H         9.2428549440        1.5672830566       15.6565731189
  H         5.5700644670        1.0517113583       16.3997824732
  H         4.6179464580        2.1733492267       16.4753405587
  H         1.8629939265       -0.0412122380       13.9474222951
  H         0.6857280918        4.1222084893       16.1641403405
  H         0.8073749738        6.2350079144       15.3945552533
  O         5.4460727124        1.9027256970       16.9175201630
  H         8.4356485414        8.5024657205       16.6901360010
  H         8.5735911158        4.8290156848       16.6066922822
  H         7.3733123601        2.5046489536       16.8683664795
  O         0.7908288310        5.9841555428       16.3164753600
  O         8.3120589779        2.2450411239       16.9038090470
  O         3.4271137244       -0.4486464059       14.9180532229
  H        11.0270771664        6.0545970270       16.6208289644
  O         9.2974447032        4.6700400015       17.2623658188
  H         3.7826376852       -1.2215893113       14.3724736735
  H         8.8412806457        3.0353167654       17.1580571025
  H         3.2151369343        8.8272409282       15.8261822860
  H         8.4952698839        0.7061375823       18.2197898434
  H         1.7585239391        7.5159276100       17.2424064695
  H         4.8716529507        1.8392151275       18.6174492493
  O         8.2315966977       -0.2299202882       18.3247260483
  H         8.9549187793        4.9728142346       18.1483086299
  O         2.5023318674        8.1641922536       17.3888277631
  O         4.6256863342        2.1630869467       19.5557373922
  H         4.2820297318        3.0459032963       19.3350462692
  H         8.4751444640        9.2858081777       19.3043839130
  O         0.5668358265        3.1310760150       19.3537209530
  H         2.2402144125        8.6664560453       18.2265663389
  H         2.3389544953        4.2702589186       19.5538758865
  H         3.8114563896        7.2974167931       18.5745110363
  O         8.4963168716        5.2637165195       19.8449189317
  H         0.4577366463        3.2390747789       18.4578363047
  H         3.4572294924        5.4093121557       19.8594244551
  O         3.2471964973        4.4461026113       20.0187285845
  H         8.0530753109        6.1084319177       20.1121725383
  H         6.2150083434        2.8717491208       20.0396275639
  H         5.2673151438        7.5408097704       19.1736398201
  H         7.9346876979        4.5524913305       20.2082424798
  H        11.2559817661        3.8675825155       19.8098244093
  O         4.4966342314        7.0076503451       19.2864603063
  O         0.7959990146       -0.0790262983       19.9341872874
  O         7.2164459128        2.9448746090       20.2642882687
  H         3.5991761820        1.3413808377       20.6397588758
  H         9.7732603761        5.3221150498       21.1147296957
  H         1.5294309076        0.2112300320       20.5261879686
  O         9.2918502995        9.1536170117       21.1496188279
  H         0.5176752599        0.7353454418       19.4902210247
  H        10.1882106567        9.2447378086       20.7093253639
  O         3.0639308528        0.8014974984       21.2469902095
  O        10.4151157610        4.8996595709       21.7220115273
  H         7.1995585229        2.5014584565       21.1226764637
  H         9.1606381186        0.3320564223       21.6543687375
  H         7.7499005613        8.1282944380       20.9386079376
  H         2.9259525252        3.8615433767       21.4451955085
  H        10.8157353381        5.5891203090       22.3120870025
  O         7.2075692702        7.2950364240       20.8012212846
  H         3.5042202183        9.6371224506       21.3854115258
  H         4.9909956989        8.0747007467       21.8986974890
  H         7.0859742983        6.9612488994       21.7293080326
  O         2.9193709253        3.6414842344       22.4304226719
  O        11.0476821430        9.1654467322       24.3312368774
  O         4.2509489857        8.3602329169       22.4314325781
  O         7.8704523464        1.6196216341       22.7342368529
  H         9.9401216322        3.8405030292       22.7625445626
  H         2.1836296304        3.0362620904       22.6147015254
  H         3.8197642036        7.5080592063       22.5935603545
  H        11.3655999440        8.1311976836       24.2274112644
  H         6.9596991555        1.9909897438       22.8608020746
  H         8.5043684788        2.2897214431       23.1161945828
  H         4.1810507223        2.8336564646       22.8367869385
  H        11.7565399429        0.1796980330       24.0962282307
  H         3.0254103172        5.1568361223       23.1964732281
  O        11.7185143207        6.7576314326       23.7909085698
  H         1.5470043418        6.8095284651       23.7434853578
  O         3.2045871494        6.0557701913       23.5450614901
  O         5.0735639607        2.5773630460       23.3550391287
  O         9.8566372713        3.1446751425       23.6374709885
  O         1.2338281415        1.7949861421       23.6837084183
  O         6.5756063809        5.8510546976       23.0808647795
  H         7.8371150730        0.2689775411       24.0254657221
  H         4.8993015189        8.9918138183       23.6973316962
  H        11.4744488449        2.2111139798       23.5813556872
  H         6.2560831966        6.0455882556       23.9802361021
  H        11.7882024762        6.3348575311       24.7616509361
  H         9.9528336177        3.6729365129       24.4512602152
  H         5.2580764927        0.7692877149       24.1313410283
  H         9.3429066009        9.3813091425       24.1742307814
  H         5.0096408413        3.0177731633       24.1944503159
  H         3.6607974407        5.9520708106       24.3860722919
  O         8.4008406470        9.2477250114       24.5321485183
  O         5.4581843369       -0.1360727453       24.3476988032
  H         1.4241001007        2.1869394437       24.6466854425
  H         6.7202256864        4.8712810455       23.1282580709
 Pt         2.7010503384        9.3388945402       26.7682108004
 Pt         5.3773466222        9.1637275044       26.4980874294
 Pt         8.1235284867        9.3065595238       26.6607444321
 Pt        11.0538596921        9.3275617292       26.6306849245
 Pt         8.1410606085        4.4787215406       26.6337270594
 Pt         3.8888973780        6.9139288936       26.6521074702
 Pt         9.5918404460        6.9385568321       26.6734185420
 Pt         6.8222048809        6.8215249686       26.7587267479
 Pt        11.0099741806        4.4936647610       26.8837705357
 Pt         1.1810912784        6.9591586199       26.7845036845
 Pt         9.6534377410        2.0867180978       26.8072382981
 Pt         6.8717888663        2.0339000508       26.7993564107
 Pt         2.5679466616        4.3681889288       26.8142653805
 Pt         5.3031686971        4.4597462421       26.5672878620
 Pt         1.2036774308        2.0283204009       26.7531905874
 Pt         3.9016614747        2.0353581161       26.6911995928
  H         8.1123158591        2.7083571362        9.5352998102
