     242
Tv_1:  11.152900   0.000000   0.000000 Tv_2:   0.000000   9.658700   0.000000 Tv_3:   0.000000   0.000000  26.829700
 Pt         5.4364648919        7.8423889180        2.1862538071
 Pt         6.7974686858        0.6767825011        2.2012915546
 Pt        10.9125549231        7.8123944716        2.3702631527
 Pt         8.1340243681        7.8712467010        2.0421534846
 Pt         8.1530240780        2.9045235979        2.3378638367
 Pt         2.6841886286        7.7618257170        2.3455834942
 Pt         9.6001327913        5.3826822102        2.2786169738
 Pt         6.8476402631        5.2920789104        2.2677445141
 Pt         5.4475809745        2.9820545717        2.2002309862
 Pt         4.0467685060        5.4016999446        2.2159363137
 Pt         9.6163748008        0.5761350803        2.4514787535
 Pt         1.2399485300        5.4803970349        2.2961079890
 Pt         1.2346128933        0.5010808164        2.2934104512
 Pt         2.6355888353        3.0272944602        2.3622600379
 Pt         3.9831121798        0.5592810134        2.2245086735
 Pt        10.9984483839        2.9583884072        2.3164589139
 Pt         5.8107380067        6.4986785385        4.5161394121
 Pt         8.6140954008        6.4676430522        4.5233972622
 Pt         7.1156061477        8.8816745688        4.4021206699
 Pt         7.2660866793        4.0534020057        4.6738572179
 Pt         8.4277606713        1.5797884370        4.7896342548
 Pt         5.7285886100        1.7206863012        4.6044770759
 Pt        10.0310210178        3.9995788516        4.5889047401
 Pt         9.9227749852        8.8826490637        4.6772989609
 Pt         1.6254739553        8.8587353817        4.6913409917
 Pt         0.2364623812        6.4466967725        4.6977876035
 Pt         2.9684384070        1.7697495609        4.6215273949
 Pt         3.0505069479        6.4576322190        4.6619355203
 Pt         4.4430801215        8.9317479189        4.5308124686
 Pt         4.3471641067        4.0820645708        4.5453827687
 Pt         0.1755174619        1.5474878566        4.6621856153
 Pt         1.5816663567        4.1815390447        4.6651842578
 Pt         7.4192425451        2.7491790026        7.0870464714
 Pt        10.3725885727        7.6596580245        7.0791993067
 Pt         9.1447662003        5.1713474323        6.8445352775
 Pt         8.8506767956        0.3507780574        7.0370893429
 Pt         6.1578838804        0.3330483713        6.9038826773
 Pt         3.3481334067        5.1260599035        7.1501517879
 Pt         3.3265576705        0.4195395991        6.8753455332
 Pt         7.6069642681        7.6301920400        6.8847615303
 Pt         4.7151365912        2.7437027208        7.2341234793
 Pt         1.9594823560        2.7866603327        6.9077756710
 Pt         0.6974602251        5.1429999521        7.0571621113
 Pt        10.2778883040        2.7893666110        7.0215271397
 Pt         6.4533360817        5.2174620634        6.9960266660
 Pt         0.7313413702        0.3878918131        7.0050236233
 Pt         2.1245177707        7.5833666815        6.9987586589
 Pt         4.9453856234        7.6067261729        6.9780065633
  O         6.4096796469        5.1295411460        8.9840970901
  O         2.2462312190        7.6834550612        9.2239616199
  O         0.5440582725        5.2159478599        9.1625408574
  H         3.3424789535        2.7877742332        9.6236383731
  H         8.4781367905        4.9086428970        9.1474713756
  O         0.5760452933        0.3095839576        9.1852503306
  H         1.8633011344        8.5283335084        9.5400443058
  H         4.5557328911        3.8525593239        9.4205216188
  O         9.1436973022        0.1714618663        9.1899970033
  H        10.7413696217        0.4450499587        9.3356255476
  H         1.0649965899        1.1467577603        9.5491827631
  H         1.4094326511        5.6647983504        9.3871997755
  H         6.9221981899        2.2054406307       10.1325934848
  H         1.2091170095        3.2452895828        9.6691265262
  H         8.4752658441       -0.4345440680        9.6059782158
  C         7.6230953453        5.4104885845        9.6167121253
  H         3.2852584004        7.9127814477        9.3219682416
  O         7.6544870399        2.2853062645        9.3659444169
  H         5.7026485246        8.1285431785        9.3776379676
  H         7.5192706514        5.3008029466       10.6909157675
  O         4.7568891753        7.7969900778        9.0113741397
  O         4.3588747180        2.8301277557        9.4894469442
  O         1.7203267884        2.5336811058       10.1198292557
  H         1.5914106944        2.6438800633       11.1616184602
  H        10.6225177651        7.8832070416        9.8719157814
  O        10.3605826070        7.2248109646        9.1748553175
  H         5.1794045164        1.9757299972       10.4773613069
  O         5.8971159439        1.4464390674       11.0263889171
  O         3.7719151026        5.3367687436        9.8166829526
  H         4.3938381558        6.0766463994        9.7760371782
  H         7.9133842061        6.4799152423        9.4457780742
  H         6.0939428940        7.0355803351       12.7957802303
  H         5.7988952547        1.7791749191       11.9568081541
  H        10.9487169431        6.3025969868        9.3029919159
  H         6.7679429310        7.9637654481       10.7888945564
  H         6.4838961505       -0.0975023859       10.5868961232
  O         6.8988906640        8.7188894782       10.1244275744
  O         6.6599866820        6.8647950185       11.9916712385
  H         3.0964658035        5.5292711804       10.5374756716
  H        10.6507411674        3.3562822492       11.3452999407
  H         7.6000148863        6.8895074935       12.3931499955
  H         8.1058747528       10.6031828247       12.7223342329
  H        11.3180847723        8.7540114620       12.0087942343
  H         9.2919555811        2.8141261007       11.3066181958
  O        -0.7503921573        8.6294828416       11.5834542319
  O         8.9335602479        1.1848142904       12.2543496432
  O         9.7607978006        3.6422325188       11.0423863302
 Cl         4.4873000140        8.2789664460       13.8613326749
  H         1.5722495562        4.0014792743       12.5188041634
  O         9.9426916474        6.1307474693       12.2923840107
  H         9.9239571018        5.2961130869       11.6872620013
 Cl         1.8172121689        5.8962607026       12.1211458904
  O         5.1649316758        2.4165187401       13.4009120372
  H        -1.0982205507        7.6688835144       11.6599910250
  O         1.3537163107        2.9723961439       12.5640771460
  H        10.8694799821        6.1869514955       12.3623715692
  H         4.8500038643        3.3509203658       13.4773266142
  H         5.7527044205        2.1567667783       14.1372690579
  H         9.3261364945        9.9606006084       11.9444890281
  H         6.0522425448        9.5695501370       13.9502002605
  O         4.4678304786        4.8677185792       14.2828213590
  H         3.8198424767        4.4756208018       14.8820104565
  H         1.7504763475        0.0574462058       13.0485734630
  H         1.7071832375        2.6438751014       13.4592297518
  H         7.5657576030        5.0442236728       14.0175627218
  H         2.3093223715        2.9342652536       16.0179445930
  H         3.8422456639        5.5045982868       13.7309495062
  H         9.7426467238        1.0415365538       13.8493269050
  H         6.1278297166        5.4838531571       14.5410895055
  O         6.9696554911        0.3572892270       14.0012324592
  H         7.6035570404        9.3899125901       14.4820251984
  O         3.1770531453        3.3868289892       16.1735708635
  O         1.8214210155        9.1911824875       12.1639015276
  O         7.1330915408        5.5468331945       14.7312552645
  H         2.9263576180        4.1629417271       16.6967321594
  H         8.0191668475        7.4236939845       15.1648350882
  O        10.0221349553        1.3968020453       14.7938562077
  O         1.6639003804        1.1919501957       14.5483348514
  O         8.7979058580        8.0229136667       15.2551744612
  H         0.8006738894        1.1648492851       14.9692801361
  H        -0.2681025714        3.5520331064       15.2730691875
  O        -0.0738287731        3.9421329768       16.1859374524
  H         2.4311061214        8.4778283906       12.5114260220
  H         9.6689918319        0.8701352450       15.5556744545
  H         4.3144280846        0.7352487297       17.3655847488
  H         4.3379726241        2.3338146890       17.2664820806
  H         2.2926986425        0.9066326477       15.2401605454
  H        -1.0375618907        4.1483154696       16.4074499255
  H         1.0003653530        6.9251272531       14.3577422043
  O         4.8077195823        1.5682422511       17.6743275990
  H         8.9962015830        8.2025446227       16.2059274384
  H         7.9567413689        4.7807783865       16.2737761503
  H         6.5950847801        1.5013615631       17.1168075618
  O         0.5745118510        7.5522594570       15.0102718766
  O         7.6103957610        1.5374191970       17.2141925312
  O         3.4933886656       -0.1345350151       16.2117301644
  H        10.7202264588        7.5746835483       14.8910625584
  O         8.4373150302        4.2139939330       16.9325990492
  H         4.1276886400       -0.6781157783       15.5937248426
  H         7.9315139021        2.4488937717       16.8463037816
  H         3.0087689024        8.7508064978       16.6587408088
  H         8.8367980459        0.1445100230       17.8330459683
  H         1.0986733539        7.5356635450       16.4040554459
  H         4.8735675895        1.3280827804       19.3757213034
  O         9.6478531004       -0.2207521039       17.3400170859
  H         8.5141595477        4.6234511225       17.8160387130
  O         1.5258002690        7.7061580784       17.4032013523
  O         4.6617972709        1.4428815778       20.3446148282
  H         4.2132781207        2.2620211221       20.0946392940
  H        10.2819560589        9.0577154748       18.0048743808
  O         0.5647599641        2.6554651417       18.5542358410
  H         1.0011507189        8.3572353731       17.8677623799
  H         2.0090957749        3.2381220844       19.0855461901
  H         2.4482744699        6.4920590249       18.0158271198
  O         8.6087366439        4.4588749867       19.6511301819
  H         0.3503187134        3.1101464152       17.6473967970
  H         3.2079908332        4.2904832805       18.9926760288
  O         2.8878642403        3.5205254945       19.4901145184
  H         8.2126736237        5.3891774799       19.8270943086
  H         6.4403850326        1.9321766982       20.3772370460
  H         4.0141784222        5.9837388640       17.7481973073
  H         7.9426304548        3.7196873480       19.7545531910
  H        11.1197497386        3.0466620855       19.2129148456
  O         3.1685083256        5.7555363724       18.2093667529
  O         0.4798606984       -0.0601485525       19.2698526750
  O         7.2690013580        2.2207888763       19.8975279122
  H         3.3936424670        0.2157931479       20.6631738625
  H         9.9105230635        4.6566634115       20.6687593344
  H         1.1457201821       -0.0588563430       19.9879968008
  O         9.1549376673        9.4071527334       20.5715734005
  H         0.6738173211        0.8257556954       18.8146949662
  H        10.0585146912        9.5867364620       20.1463055322
  O         2.8100426210       -0.5501953068       20.7500262277
  O        10.5866047720        4.8002234191       21.3285280004
  H         7.2029346361        1.8689982819       18.9308810749
  H         8.6340165210        0.5911968648       20.6240873797
  H         8.0449933130        7.8417664886       20.2835309050
  H         2.4497596864        3.2629831788       21.2739198585
  H        10.7128737732        5.7963762330       21.4944314442
  O         7.7616797643        6.9067760373       20.3287099021
  H         2.9552539715        8.7774212833       21.6102444683
  H         4.1105927118        6.6108934222       23.1670905078
  H         7.5321123500        6.6275623402       21.2799978334
  O         2.4536820074        3.2692152031       22.2740721696
  O        10.7078496083        9.2230685311       24.4036578817
  O         3.4183679727        7.3094749179       23.3745968091
  O         7.3304450876        1.6610102542       23.0981659055
  H         9.8602335051        4.0179063993       22.6623524335
  H         1.8931843339        2.4636097428       22.6596335607
  H         2.6279684803        6.7863536214       23.5818672637
  H        10.8210801306        8.3537227201       23.8712964022
  H         6.3884362650        1.9194196641       23.0773918968
  H         8.0220724299        2.3693607764       23.3632728796
  H         3.9562592315        2.7746384320       23.0876024443
  H        11.2583015077        0.3115185978       24.0282444113
  H         2.0307425852        4.5570622194       23.1671244576
  O        10.5951184416        6.9390647860       22.9989959033
  H         0.1958809947        6.3840935058       23.3042114747
  O         1.6048069217        5.2543392495       23.7614262940
  O         4.5934514159        2.3898508117       23.7807051052
  O         9.5341004859        3.3915959293       23.4455724729
  O         0.7696572019        1.7965503244       23.6874549938
  O         8.0145934484        6.7138603141       23.4820364778
  H         7.6898572512        0.5367147491       23.8539048254
  H         4.3863064786        8.7158849613       24.1867788046
  H        11.2442395653        2.4192751710       23.3796389339
  H         7.8078307309        7.6813428043       23.6495648708
  H         9.8259220692        6.7001364738       23.5381698436
  H         9.4539470997        3.9624025350       24.2276995381
  H         4.6992891069        0.6285543767       24.0037748497
  H         9.0470857556        9.4326931562       24.1658615747
  H         4.7286199722        3.0550798721       24.4964893729
  H         1.7225861270        4.9146066538       24.7924270474
  O         8.0881641917        9.3257182652       24.3019108413
  O         5.0215662580       -0.2171376194       24.4129596487
  H         0.8376365183        2.0612529562       24.6401916602
  H         7.7156127516        6.3188970084       24.3585377469
 Pt         2.4226023896        9.1896114537       26.7914556090
 Pt         5.1447507392        9.2034552133       26.7214255067
 Pt         8.0361339616        8.9751490708       26.4434794418
 Pt        10.7741796576        9.3144100550       26.6465858444
 Pt         8.0676049532        4.3447155321       26.5609408283
 Pt         3.8423826324        6.8163864952       26.6269357155
 Pt         9.5981569278        6.7929126585       26.8855654242
 Pt         6.7035340926        6.7327291073       26.7533907038
 Pt        10.8095325165        4.4332947184       26.8345153619
 Pt         1.1331231199        6.8066432024       26.8347041446
 Pt         9.4761509509        2.0213090710       26.8334931992
 Pt         6.6501370108        1.9722197156       26.6589945751
 Pt         2.5150538744        4.4731566681       26.7850607846
 Pt         5.2005232617        4.4864640394       26.6068590273
 Pt         1.0355777860        1.9918712844       26.8288850823
 Pt         3.7161861250        2.1375475458       26.7474342773
  H         8.2519475706        1.4943317133        9.4671486200
