     242
Tv_1:  11.152900   0.000000   0.000000 Tv_2:   0.000000   9.658700   0.000000 Tv_3:   0.000000   0.000000  26.829700
 Pt         5.4069885197        7.8562179376        2.3495259671
 Pt         6.8133234938        0.5690807150        2.3077900407
 Pt        11.0199665093        7.8298675163        2.2180508091
 Pt         8.2752498871        7.7920368086        2.2152188924
 Pt         8.1924138639        3.0266189440        2.3076789727
 Pt         2.6056308906        7.9196413368        2.4049126428
 Pt         9.6736293771        5.4332224108        2.3326205662
 Pt         6.7924824572        5.5111717506        2.4331128130
 Pt         5.4134006146        2.9841255151        2.3560331583
 Pt         4.0626700981        5.3748534738        2.2320509510
 Pt         9.6342673313        0.4568339317        2.2581299233
 Pt         1.2411715424        5.5414875474        2.3321083176
 Pt         1.1769324474        0.6217768953        2.3068311716
 Pt         2.6317025461        3.1087055805        2.2569055185
 Pt         4.1097382121        0.5840236331        2.3424357166
 Pt        11.0066211352        3.0626345112        2.3368403801
 Pt         5.7250245449        6.4661805771        4.7182498364
 Pt         8.5881265804        6.3720422751        4.6040172989
 Pt         7.2262285141        8.8488786301        4.6611272496
 Pt         7.1947291102        3.9281542062        4.6819878170
 Pt         8.7634958942        1.6402468024        4.6506131055
 Pt         5.7804297702        1.6881438461        4.5924701149
 Pt         9.9424320705        4.1155357030        4.6044196601
 Pt         9.9963298612        8.9054417779        4.7024910531
 Pt         1.6021173189        8.9354347499        4.6567963203
 Pt         0.1951521885        6.4507480701        4.7397687709
 Pt         2.9516963699        1.6439318245        4.5751306952
 Pt         3.0189964534        6.6107298585        4.6580334783
 Pt         4.4237581740        8.9001187301        4.6660376925
 Pt         4.4049359569        4.0510494779        4.6003578072
 Pt         0.3328911570        1.6455957488        4.7171030795
 Pt         1.6466307423        4.1693790324        4.5502493348
 Pt         7.6450509799        2.8339892249        7.0684840192
 Pt        10.4583286196        7.5110034457        7.1207695895
 Pt         9.0100833617        5.2428750347        7.0204279094
 Pt         8.9565381681        0.3536956618        7.0928921140
 Pt         6.3385977674        0.4046653304        7.0431373535
 Pt         3.5020216231        5.1562334594        6.9099761690
 Pt         3.4170565232        0.3970820328        7.0360343238
 Pt         7.7101327721        7.6899001575        7.0129187892
 Pt         4.6756021900        2.7963672369        7.0094025121
 Pt         2.0089883278        2.7815082141        6.9881126958
 Pt         0.7402990363        5.1396328682        7.0970720593
 Pt        10.4624398256        2.8515879249        6.9691611168
 Pt         6.1896675608        5.2244025027        7.0631608950
 Pt         0.6697377943        0.3214017912        7.0123128252
 Pt         2.0578522944        7.5119204731        6.9787093239
 Pt         4.9254253602        7.6042439148        7.0882853075
  O         6.2861060690        5.1588284672        9.0085043675
  O         2.0752659194        7.8041991146        9.1345337461
  O         0.7332622701        4.8345478383        9.2851480845
  H         3.1617410701        2.2754890301        9.6752430462
  H         8.3912194954        5.3992016567        9.2593804565
  O         0.3643363284        0.1627752103        9.1028191967
  H         1.5363050851        8.5995573454        9.3967940446
  H         3.9393193282        3.6744174258        9.5358636241
  O         9.1170317195        0.1818986272        9.0653178322
  H        10.4509808285        0.2269591370        9.2147763224
  H         0.8401495562        1.0332768440        9.4760198733
  H         1.5806736837        5.1005667145        9.7307564644
  H         7.1009193179        2.5435606183        9.7756795767
  H         0.9329634352        3.0833300349        9.7283356657
  H         8.3375052600       -0.2057216935        9.5942828692
  C         7.4208961456        5.7472068672        9.6335795715
  H         3.0645063815        8.0770007685        9.2952835524
  O         7.9159960942        2.6892180387        9.1823274304
  H         5.3912593216        8.4597240927        9.3098221953
  H         7.3900500135        5.4938674367       10.7360110924
  O         4.7707413134        7.6637912166        9.0695973838
  O         4.0254283132        2.6570417924        9.3866521937
  O         1.3833905282        2.2706778622       10.0651373926
  H         1.5397367572        2.3417503323       11.0466200329
  H        10.5461531439        7.5882314661       10.1521013395
  O        10.5801519332        7.0111433406        9.3306643823
  H         5.1689264579        2.3125656967       10.2961489127
  O         6.0527278351        2.2180289556       10.7591605276
  O         3.6844266199        5.0978240587        9.9808681990
  H         4.6249041954        5.4869576428        9.7579363618
  H         7.4695197356        6.8568667447        9.5460771740
  H         6.4585980169        6.7272741754       12.5842862102
  H         6.1225671233        2.6012584958       11.7102535008
  H        11.2742171225        6.2544430487        9.4455230025
  H         6.0930217860        9.0883223096       10.8579696946
  H         6.5475388121        0.8142701217       10.2632832254
  O         6.6897933652        9.4824229020       10.1893960691
  O         7.1128900181        6.3002959076       13.1673075821
  H         3.5615010288        5.2884685465       10.9873026840
  H         9.0771517550        2.9837671699       11.8648594703
  H         7.9077505060        6.5870225636       12.7248721039
  H         8.2537510380       10.3033512853       12.8948048958
  H        11.2705944217        8.5057656989       11.8881441456
  H         8.3096868615        4.1934785741       12.2634392726
  O        -0.8269613965        8.1158584665       11.6636668533
  O         9.1663582909        0.8494040818       12.5313002796
  O         9.0981803536        3.9765893138       11.7906882627
 Cl         4.8906987976        7.9567684390       12.2070653163
  H         1.4685065608        3.5277628368       12.9160740313
  O        10.4624742968        5.7944437118       12.9855684274
  H        10.0858837087        4.9029124266       12.5724099299
 Cl         2.4180853526        5.8104782155       12.7513971282
  O         6.3382581150        3.0232976075       13.0672807379
  H        -0.8234187194        7.2562980040       12.1841023730
  O         1.3785835060        2.6020738254       12.6273081582
  H        11.4430844855        5.7361385802       12.9659798866
  H         5.7218491143        3.6912794062       13.4898190443
  H         6.2096133048        2.0919748990       13.3233187704
  H         9.4646997393        9.5717776593       12.2383349694
  H         5.9276554254        9.4246616140       13.0727542817
  O         4.6536218760        4.6949236106       14.3626725148
  H         4.1436909698        4.0423665633       14.8721251743
  H         1.9178020494       -0.4214941232       12.8866365882
  H         1.8635893054        2.1214450325       13.3990308973
  H         7.0315452145        6.0974611185       14.6944851968
  H         3.0212692098        2.1885060048       15.7529338385
  H         3.9498788558        5.2332167052       13.9202108713
  H        10.0167291990        1.2621088753       14.2066402551
  H         5.7293718215        5.5573628749       15.2744170245
  O         6.6001397464        0.4052196838       13.5261215411
  H         6.4466581243        9.9018589609       14.4761085282
  O         3.8291099353        2.7369591421       15.9585641319
  O         1.8031951769        8.9198347072       11.9860306976
  O         6.5645972700        5.9925111221       15.5832575004
  H         3.5216307922        3.3512966345       16.6533483318
  H         6.4485553172        7.8497751405       15.7387152923
  O        10.3173946214        1.4912240242       15.1357558042
  O         1.9768452609        1.1800424231       14.9040317093
  O         6.6351820517        8.8037577449       16.0213820595
  H         1.0091701771        1.1419308977       15.2461684634
  H        -1.1602459557        2.7568988154       16.0277594039
  O        -1.0287995182        3.3243729332       16.8643079113
  H         2.3832008084        8.1540224269       11.8983085170
  H         9.7151956006        0.9021025886       15.6686432379
  H         5.3436994018        0.0152601988       16.7168924303
  H         4.5069135067        1.3647663534       16.7345177920
  H         2.3397282853        0.2486079348       14.8955866286
  H        -1.9168107269        3.8052307101       16.9678422050
  H        -0.2351870145        4.5916050514       16.0750023603
  O         4.9114480430        0.6625507306       17.2877752624
  H         7.5382999987        9.0388632505       16.3802422205
  H         7.2646146606        5.2853105233       16.6327963366
  H         6.2382561266        1.7338063526       17.7658774447
  O         0.0978053133        5.3934128376       15.6010581364
  O         7.1541372470        2.1266085640       17.9685152100
  O         2.9997089011       -1.2189788241       14.8815991608
  H        10.6872073242        5.5230100592       14.8304088041
  O         7.5536010525        4.6405680880       17.4035461271
  H         3.5527738681       -1.5576817199       14.1426929635
  H         7.0996687347        3.0920056363       17.6373902584
  H         2.6999415459        7.7454844928       15.5204101617
  H         8.2432739014        0.9409224460       17.4127566559
  H         1.2873362395        6.1546633088       16.1494951799
  H         3.7918702050        0.3092395777       18.5438089823
  O         8.7635061829        0.2225043748       17.0088236177
  H         7.6569743560        5.0381911156       18.2855104625
  O         1.9702293969        6.6263810411       16.7036262874
  O         3.0320822437        0.2036966546       19.1304417594
  H         2.7890854981        1.1055407634       19.4354443560
  H         9.3390362675        9.5748951218       17.8059701124
  O         0.0188646192        2.9051107911       19.2587987346
  H         1.6035244491        6.8043305446       17.5998821572
  H         1.6083382111        3.2432197821       19.4117254707
  H         3.0325165553        5.5935892420       17.3756777967
  O         8.1649196590        5.0244018649       20.0666027819
  H        -0.3643835956        3.0515006174       18.3841323857
  H         3.0980548079        3.8879387617       19.0669362921
  O         2.5332301447        3.3344354512       19.7543950942
  H         7.7170831868        5.7718070728       20.5396055335
  H         7.2584193973        2.0954641481       21.4757244859
  H         4.4438659425        5.5372559815       18.1207530276
  H         7.7997565807        4.1755209621       20.4112999872
  H        10.9423455482        3.6519065789       19.8307699935
  O         3.7012770671        4.9268362714       17.8199907014
  O        -0.7491576573       -0.1079921659       19.1038988368
  O         7.7316406628        2.6237557566       20.7186785384
  H         2.1872660984       -0.9971541021       19.2994611391
  H         9.5216319504        4.9089956489       20.6755906537
  H        -0.0177627340       -0.6863164645       19.4520876888
  O         8.0021188617        9.1651508410       20.9173243562
  H        -0.4693286364        0.9203558211       19.1758963820
  H         8.8965309255        9.0232574518       20.5530247625
  O         1.4415963219       -1.6886752061       19.6221759695
  O        10.4153225599        4.8298348800       21.1356192638
  H         7.4340858224        2.1981893672       19.8723505157
  H         7.6748535512        0.3607017273       20.5979163287
  H         7.1406010190        7.6183197342       21.0698720955
  H         2.6477009476        3.4768503794       21.4522259320
  H        10.9076289988        5.7223575614       21.0600045823
  O         6.9038912861        6.7711106250       21.5610924399
  H         1.5952761762        7.8197538592       20.5549308414
  H         5.4478316467        7.1332831333       22.2405009050
  H         7.4168633434        6.7973097687       22.4012991046
  O         2.7239931182        3.4647701692       22.4252722712
  O        10.8130898808        9.5499282347       24.4673117656
  O         4.8225388833        7.5430975441       22.9202748524
  O         7.4718321888        1.9694230629       23.2907669709
  H        10.0975689571        4.3873548589       22.8473000637
  H         1.8595613923        3.0589793154       22.6800198222
  H         3.9953705651        6.9928857183       22.9594485961
  H        11.2104754155        8.8032203315       23.9079375462
  H         6.5383721888        2.0836149443       23.5171704715
  H         7.9389000240        2.7071640269       23.5820620239
  H         4.2368550025        2.7652932600       23.2015647999
  H        11.2243383839        0.7342166455       23.9355407396
  H         2.5178223446        5.0843610215       23.0961884951
  O        11.4737200068        7.5868392820       22.9490533193
  H         1.1411312202        7.0660281914       23.1520849619
  O         2.3852847702        6.0633086480       23.3571653062
  O         4.8278275627        2.2121441589       23.7659117055
  O         9.7063434790        3.9429328182       23.6509907196
  O         0.5809406069        2.2044790308       23.5571304196
  O         8.4732114622        6.8031926868       23.5949356271
  H         7.7894494950        0.6250488456       23.9225025482
  H         5.0190462531        8.5868820045       23.8986126163
  H        10.8042250431        2.7685287114       23.7007610689
  H         8.3333855948        7.7502821372       23.9051781954
  H        10.6841737021        7.0498985273       23.0244993911
  H         9.8847556864        4.4404302942       24.4736004648
  H         4.6400753249        0.4776083686       24.2609044623
  H         9.1593066478        9.5024110566       24.2784018797
  H         4.9743045790        2.8223624115       24.5460087049
  H         2.1269929645        5.9293856746       24.3290076956
  O         8.1699312556        9.4602219579       24.4011876371
  O         5.2190125092       -0.2680184975       24.5557979276
  H         1.0459720847        2.2817135704       24.4573168651
  H         8.3604390566        6.1616190358       24.3165647553
 Pt         2.3526191588        9.3035440829       26.6643834554
 Pt         5.0170441995        9.3264356619       26.7567014489
 Pt         7.9369632118        9.2215237207       26.6150937919
 Pt        10.7983122732        9.2038861924       26.7014215518
 Pt         7.9044450960        4.5322737824       26.8790569404
 Pt         3.7535034491        6.7698239070       26.7404005791
 Pt         9.3540251987        6.8252628218       26.7612761235
 Pt         6.4055336741        6.8197417354       26.7558918916
 Pt        10.8154012789        4.5410268165       26.7208979627
 Pt         1.0356938153        6.8663163958       26.6942918182
 Pt         9.4668101912        2.1053211458       26.8761911293
 Pt         6.6806232303        2.1172615686       26.9213331666
 Pt         2.4666461436        4.4441612900       26.6291408365
 Pt         5.1186042294        4.4051325025       26.7392702682
 Pt         1.0064908468        2.0408377993       26.8328777479
 Pt         3.8122596857        2.0592314327       26.8835069262
  H         8.4638475098        1.8475687064        9.2080519101
