     242
Tv_1:  11.152900   0.000000   0.000000 Tv_2:   0.000000   9.658700   0.000000 Tv_3:   0.000000   0.000000  26.829700
 Pt         5.4309443353        7.9102786465        1.9756523393
 Pt         6.8094819674        0.6557977568        2.5041334803
 Pt        11.0213260141        7.8716729698        2.4016848155
 Pt         8.1904144737        7.9647322155        2.3646154000
 Pt         8.2693762581        3.0762520690        2.4128240779
 Pt         2.6097838409        8.0020274827        2.3456587695
 Pt         9.8124154187        5.5017706532        2.3220296543
 Pt         6.9767152541        5.5370811894        2.3840879215
 Pt         5.5280040329        3.1731527420        2.3423934010
 Pt         4.0453300503        5.4550012507        2.3806565744
 Pt         9.7259525295        0.6096010186        2.2982747119
 Pt         1.3487176146        5.5299232332        2.3597131298
 Pt         1.2226483317        0.6302179817        2.3387236546
 Pt         2.6713316850        3.0567865267        2.3802594804
 Pt         4.1667438248        0.7302983529        2.3082882232
 Pt        11.1670376775        3.0991221524        2.2294456630
 Pt         5.6433813352        6.5515227944        4.6522204353
 Pt         8.4195480376        6.4498727769        4.6296844657
 Pt         7.2105340763        8.9449328683        4.6747972223
 Pt         6.9654299247        3.9376615203        4.6676894288
 Pt         8.5212596626        1.5610977551        4.7462219367
 Pt         5.6201339655        1.6591503442        4.6632694543
 Pt         9.8030723298        4.0750966701        4.6033009601
 Pt         9.9834509388        8.8335937264        4.7520168283
 Pt         1.4962041765        8.8882422634        4.7561280377
 Pt         0.1372604941        6.5377777288        4.7764132805
 Pt         2.8898511052        1.5889475584        4.5882093023
 Pt         2.9304056380        6.5384559038        4.8059912623
 Pt         4.4592096721        8.9257773167        4.5065975749
 Pt         4.1792322205        4.0787598714        4.6032284361
 Pt         0.1116498310        1.6761315223        4.6622939002
 Pt         1.2903924270        3.9681028808        4.7273590250
 Pt         7.4274286889        2.6957745588        6.9796114213
 Pt        10.0435419839        7.5590358054        7.0853964623
 Pt         8.7494776932        5.0236051935        6.9210949755
 Pt         8.7832768646        0.2187095480        7.0559115375
 Pt         6.0149535920        0.2608232708        6.9671114455
 Pt         3.1679912910        5.2528141379        7.0186024672
 Pt         3.2907493686        0.3597246352        6.9479075579
 Pt         7.2942313458        7.4959094357        6.9527616676
 Pt         4.7296994939        2.7038998210        6.9992807058
 Pt         1.9305294953        2.8050617234        6.9736226879
 Pt         0.4541432866        5.0257723355        7.1094359086
 Pt        10.1872722124        2.7774984169        6.9422039065
 Pt         5.8514058289        5.1804555053        6.9007178860
 Pt         0.4501833268        0.4457572664        7.0991515088
 Pt         1.6479000056        7.5759508780        7.1115878506
 Pt         4.5012396029        7.5090602823        7.0575263069
  O         5.9578883627        5.0470921628        8.8206851213
  O         1.9566574393        7.8175148330        9.1760029686
  O         0.3484516437        5.0168928062        9.2071271178
  H         2.8669723011        2.4926151189        9.8901731620
  H         8.0008146653        5.0588562214        9.0253010544
  O         0.3317835981        0.3685310712        9.1733399792
  H         1.6722912480        8.6904677455        9.5394008093
  H         3.6002928729        3.9425829364       10.0102859355
  O         8.9321328949        0.3707435870        9.0768943843
  H        10.4987245531        0.0846881230        9.2911649305
  H         0.4735062040        1.5083694828        9.4126655542
  H         1.2293539763        5.3629743453        9.5103281482
  H         6.9129625457        2.4312747995        9.8369731476
  H         0.6357463734        3.6367225077        9.8398870927
  H         8.1452077184       -0.1563876573        9.5030742002
  C         7.0403140777        5.5783423151        9.4446256865
  H         2.9536457748        7.9009032706        9.1926891536
  O         7.7812717340        2.6507896092        9.2158884542
  H         4.8458880664        8.3125667268        9.4802011913
  H         7.0034534449        5.4388686365       10.5291695218
  O         4.2509189121        7.6421314946        9.1250744518
  O         3.5554517313        3.0673572908        9.4021938771
  O         0.8494408693        2.6068541038        9.9693677931
  H         0.8533804688        2.4823637684       10.9884033546
  H        10.3473652449        7.7737735872        9.9188569108
  O         9.9075615171        7.1736699115        9.2394723335
  H         4.9715576424        2.3304951140       10.2250257069
  O         5.7577650553        1.8982387830       10.6740748925
  O         3.3523325050        5.3570796247       10.6633214903
  H         3.8454844255        6.1881504736       10.4558884414
  H         7.1190259182        6.6600918481        9.1596464285
  H         6.4116120946        6.2952688918       13.0622074540
  H         5.7414686795        2.2378853816       11.5877912660
  H        10.4979003867        6.3761674493        9.2955852556
  H         6.5924906300        8.6759851724       10.8870908828
  H         6.2390836319        0.3641848767       10.3240473147
  O         6.7547250914        9.1803307452       10.0368649915
  O         7.2178787679        5.7459211116       13.3421398286
  H         2.9072511935        5.5381683911       11.5781578886
  H         9.1979018545        2.4819749270       12.2189230537
  H         7.9495081887        6.3473016430       13.1477687476
  H         9.0687980202       10.1263254561       13.2194007640
  H        11.8109768420        8.5218005247       11.2415559480
  H         8.0785852034        3.4253364244       12.4777702351
  O        -0.2915703525        8.3905518537       11.3827538729
  O         9.8673063564        0.9431315990       12.9765745297
  O         8.9920066414        3.3966938933       12.1122032018
 Cl         5.1220748312        7.9555709128       12.3597123814
  H         2.1141398976        3.2639323008       12.4726162705
  O        10.5269476538        5.9697830579       12.5766035645
  H        10.1136087029        5.2123533116       12.2309379960
 Cl         2.2160625715        5.2288308937       13.4363031094
  O         6.3107669545        2.7052970825       13.3313041669
  H        -0.4612995817        7.5039287123       11.8105263134
  O         1.9783799354        2.2836749648       12.3914185172
  H        11.1724416192        5.5227158870       13.1345705975
  H         5.7646503263        3.0997488129       14.0328067034
  H         6.4924756445        1.7322842355       13.5110352326
  H        10.3202945964        9.9331588998       12.4032040412
  H         6.4739739199        9.2708735902       12.9810189141
  O         4.7586674053        4.1817031152       15.1462603429
  H         4.4263624972        3.6758351434       15.9322665849
  H         2.5127879800        0.6019408291       11.7573971986
  H         1.8872019024        2.0766870796       13.3532754236
  H         7.1173738363        5.9145314249       15.1571953044
  H         2.6638939386        1.8490439721       16.1570590253
  H         4.0283978997        4.2499954933       14.4780979999
  H        10.2088956760        1.4317182765       14.9814158652
  H         5.7712962532        5.2975749131       15.7453719470
  O         7.0767368067        0.1591347766       13.6576415555
  H         6.9372692544        9.3339725913       14.6084855510
  O         3.1736657784        2.2309431706       16.9828208384
  O         2.6503495684        9.3707638525       11.3763126099
  O         6.6153066003        5.8692081305       16.0506387054
  H         2.4433983562        2.7281722900       17.4433932888
  H         6.6493953639        7.6773795951       16.0779514124
  O        10.5905117242        1.5438338506       15.8836679441
  O         2.0236147801        1.4563861257       14.9258149615
  O         6.8511345112        8.6748206488       16.0769819262
  H         1.1029892657        1.2578164545       15.3090512816
  H        -0.6603812686        3.2133513852       16.4877705736
  O        -0.7025620632        4.0121046510       17.1126616322
  H         3.3076864841        8.7632494647       11.7835317888
  H        10.0688525128        0.9008836742       16.4979813879
  H         5.1649509849       -0.1977345149       17.5474438983
  H         4.1876892753        0.9852838407       17.6737487709
  H         2.4961329217        0.5213752384       14.8604051837
  H        -1.7026116648        4.2057906990       17.1886375671
  H         0.3942988795        5.6523861021       16.2121076129
  O         4.8874679344        0.5014205032       18.1622793167
  H         7.7255443413        8.8206032554       16.5717362234
  H         7.3427089118        5.1329907753       17.1363800203
  H         6.2561196777        1.4884564598       18.4149638614
  O         0.7945601863        6.4845077781       15.9045580302
  O         7.1327992098        1.8873754425       18.5303325837
  O         3.5172384210       -0.7170823981       15.2037360402
  H        12.3616049001        6.3299625779       15.0432953054
  O         7.7171134760        4.3288661195       17.7064397729
  H         4.0520969177       -1.1174337819       14.4902774222
  H         7.1999556028        2.8313890201       18.2264700495
  H         3.1712400507        8.2383793444       15.8446124394
  H         8.3490928182        0.7685402696       17.8420027307
  H         2.1257903081        6.9646290911       16.8896754010
  H         4.2661360208        0.5638758146       19.6985647095
  O         8.9741013785        0.0665529729       17.3970506634
  H         8.0608150251        4.8070618019       18.5322610928
  O         2.9302673561        7.1735925004       17.3861750110
  O         3.7251848665        0.5845351817       20.6049365827
  H         3.6409034887        1.5307179477       20.8546011113
  H         9.2610309443        9.1987361578       18.1760028346
  O        -0.2081870058        3.5382545648       19.6554785601
  H         2.5496729772        7.8027143241       18.0643206939
  H         1.8144660573        3.5244104676       19.9420496496
  H         3.6380955625        5.8559177267       18.4684942482
  O         8.4456355467        5.1381569304       20.3233491693
  H        -0.2518806871        3.6007647928       18.6354905557
  H         3.2219913636        4.2533208438       19.7790457636
  O         2.6562297332        3.6657445672       20.4293080640
  H         7.5035101910        5.4833950183       20.6121252389
  H         8.4830752953        1.6064259654       21.5467934817
  H         4.7638462961        5.8299571220       19.5613283567
  H         8.5299469745        4.1863308087       20.5327704747
  H        10.5093508042        2.6823291293       19.8551921264
  O         4.1586247789        5.2657855254       19.0768661597
  O        -1.2599766861       -0.5423350634       19.8222129010
  O         8.8445632366        1.8332312269       20.6585301840
  H         2.0458424891       -0.3209277223       20.0791708938
  H        10.3873256723        6.1557023007       20.9083856161
  H        -0.2559678015       -0.6308706260       19.9055483869
  O         7.8171262617        8.4455929235       22.0671256317
  H        -1.4028647465        0.4364571213       20.0632976217
  H         8.6317890423        8.4326625978       21.4978797245
  O         1.5298678584       -1.1214510989       19.6855982219
  O        11.1549679855        5.7416547949       21.3684459906
  H         8.0859222472        1.6861774839       19.9740350188
  H         8.1240678617       -1.1915822564       22.9375917227
  H         6.7636895652        7.1465647960       21.4980336577
  H         2.8032180555        3.6905399885       21.9567158176
  H        11.2706239057        5.0099307626       20.7141500138
  O         6.1156960465        6.4116341949       21.1718339848
  H         1.3949079876        7.8888734304       20.4752804509
  H         4.0210785702        8.6015817104       21.9261227360
  H         5.8982616214        5.8791944957       22.0114937192
  O         2.9921024713        3.5240893219       22.9204469542
  O        11.1139050532        9.3906692350       24.2673952792
  O         3.8823529321        8.1784750103       22.7857413915
  O         7.9184312022        1.8764901285       23.2861022474
  H        10.4085250835        4.6626790868       23.0758420936
  H         2.1161711836        3.1967969978       23.2461045256
  H         4.1934746866        7.2350856578       22.7078229205
  H        11.6268659153        8.7450716209       23.6897790564
  H         7.0221794501        2.2342480686       23.0769060164
  H         8.5121376031        2.7094791104       23.3854338285
  H         4.3829984147        2.8754829502       23.4323483888
  H        11.6122758905        0.5822273751       23.9846547383
  H         3.8405133096        4.9382817539       23.2442488763
  O        12.3551450551        7.6870861353       22.9097876541
  H         2.1629325363        7.8155221794       22.7652741099
  O         4.5600758060        5.6432272180       23.4167114515
  O         5.3096377076        2.5318971522       23.5010026159
  O         9.8261580361        4.1371330110       23.5704184999
  O         0.5812794150        2.3067078230       23.7110686721
  O         7.3044387131        4.9517371785       24.0461010947
  H         8.1063127781        0.7335991602       24.2216691834
  H         4.8323727919        9.0581222686       23.8637527054
  H        10.9432949090        2.6733338559       23.2649091439
  H         8.2496540515        5.0897310611       23.8956726810
  H        11.8525441648        6.9548568811       22.4580889936
  H         9.9600213138        4.2825361206       24.5952451112
  H         5.4143132663        0.8939356832       24.2166337800
  H         9.4542429164        9.4461526022       24.4434590692
  H         5.5733427051        3.1359289601       24.2181012160
  H         4.4592371486        5.8264727310       24.4060173455
  O         8.4525660463        9.4754822563       24.6049256665
  O         5.4895058691       -0.1110990958       24.4212242433
  H         0.5416108468        2.7656898064       24.6121837671
  H         6.9685622233        5.6291947365       24.6150795575
 Pt         2.5527012434        9.4039214198       26.8839704523
 Pt         5.4111456581        9.1611822162       26.4692034715
 Pt         8.2283186657        9.4598978383       26.7931502208
 Pt        11.0412036436        9.4060377854       26.7560674112
 Pt         8.2706365319        4.5832512363       26.9090057161
 Pt         4.1412332507        6.8424319712       26.7427358290
 Pt         9.7794609255        6.9721625983       26.8336353972
 Pt         6.9922944372        6.9172764820       26.8366269334
 Pt        11.0346356525        4.4801257730       26.7541617813
 Pt         1.3662996398        6.9271334713       26.7022383165
 Pt         9.5436863356        2.2095585397       26.8172559375
 Pt         6.7954177143        2.1439515868       27.0531534720
 Pt         2.8784087326        4.4940969659       26.8439550084
 Pt         5.5731457779        4.5557202590       26.8516377128
 Pt         1.3581976970        2.1910130644       26.8353528407
 Pt         4.0508104997        2.0585362714       26.7193719697
  H         8.3156108566        1.8450614358        9.2491963222
