     242
Tv_1:  11.152900   0.000000   0.000000 Tv_2:   0.000000   9.658700   0.000000 Tv_3:   0.000000   0.000000  26.829700
 Pt         5.3595317612        7.9585838905        2.2468888360
 Pt         6.8550201965        0.6971403306        2.3110411877
 Pt        11.0740711646        8.0152671110        2.4488200467
 Pt         8.3527776447        8.0724901850        2.3113068965
 Pt         8.1527264222        3.1342388806        2.4145631447
 Pt         2.6190039339        7.9708489624        2.4959521079
 Pt         9.5305569460        5.5718661197        2.4196556481
 Pt         6.8160539110        5.5506581484        2.4745629373
 Pt         5.2800314035        3.0939214293        2.3855237799
 Pt         3.9564158908        5.5899866568        2.3320400176
 Pt         9.6208611721        0.8362506525        2.3333135020
 Pt         1.2208565021        5.6347197017        2.3488165278
 Pt         1.2035265778        0.6752976715        2.3572294378
 Pt         2.6091979017        3.0495934129        2.4276303291
 Pt         4.0870669813        0.7251620566        2.3317674733
 Pt        11.0857811898        3.0790942145        2.3652921523
 Pt         5.6154039576        6.5711810912        4.6497659859
 Pt         8.5511278172        6.4984461156        4.6647694262
 Pt         7.1789712555        8.9349290840        4.6051665904
 Pt         7.1380833229        4.0452548702        4.7204648956
 Pt         8.5707080787        1.6860707913        4.7652943416
 Pt         5.8066603176        1.7721734714        4.6527487462
 Pt         9.8090827878        4.1357971372        4.6023469208
 Pt         9.9727241089        9.1250189347        4.7119606363
 Pt         1.6012073101        8.9963106452        4.7065632348
 Pt         0.0960293386        6.4740787979        4.7637232827
 Pt         3.0516333103        1.7380940504        4.6827915098
 Pt         2.8781506715        6.5294546485        4.7181481267
 Pt         4.3734555493        8.9465900517        4.6864303668
 Pt         4.1940261472        4.2207629998        4.7006807589
 Pt         0.2390392630        1.7475395596        4.7908455272
 Pt         1.4836490496        4.1467180326        4.6010588400
 Pt         7.4863298601        2.7921767054        7.1249872204
 Pt        10.2027532739        7.6001002253        7.0396021292
 Pt         8.8439819797        5.1444254333        7.0085867780
 Pt         8.8325729988        0.2793312343        7.0131696599
 Pt         5.9560859049        0.3306375887        6.9293590834
 Pt         3.1280153076        5.2125313714        7.0898056298
 Pt         3.1536191380        0.3293176069        7.0190910615
 Pt         7.3258434671        7.6122696107        6.9759407580
 Pt         4.7213992894        2.6115283320        7.0126945305
 Pt         1.9845501233        2.7702827618        6.9534492535
 Pt         0.4529041875        5.1850012304        7.1410905313
 Pt        10.1146033276        2.7090185408        6.9603799939
 Pt         6.1894480585        5.1243274010        7.0133177455
 Pt         0.5330530153        0.3959602366        7.1249918119
 Pt         1.7774619989        7.5905516936        7.0377686127
 Pt         4.6182702388        7.5641048471        6.9713148694
  O         6.1547434511        5.4700329461        9.0749449157
  O         2.0398668236        7.9095530692        9.1605050579
  O         0.3335004595        5.1015133453        9.2217165469
  H         3.4262815756        2.4596217888        9.5518806675
  H         8.1640559348        6.0573529608        9.3208134362
  O         0.3429544745        0.4140257799        9.3545178478
  H         1.7600326538        8.8377769620        9.5017703448
  H         4.5381835672        3.5379567362        9.5111151286
  O         8.7716080955        0.3278374220        9.0729666280
  H        10.4568751680        0.3797995137        9.5054413788
  H         0.6801117160        1.3405581396        9.6469257120
  H         1.1926882595        5.6364055200        9.3072669125
  H         6.9635917813        2.7818323334       10.0302413527
  H         1.0186051199        3.6101273950        9.6580983193
  H         7.9307999102       -0.0758051122        9.4354248393
  C         7.1445044704        6.3058611310        9.6262156503
  H         3.1584695659        7.9968963327        9.2039774203
  O         7.6564458803        2.9474257260        9.3271375589
  H         5.0198047310        8.6001552928        9.3337609974
  H         6.9986087823        6.3767611428       10.7190918714
  O         4.4121507067        7.8144480011        9.0516936876
  O         4.4117898431        2.5343624187        9.2898369634
  O         1.4541788049        2.6558808428        9.8279643024
  H         1.8959042480        2.6429807937       10.7768128754
  H        10.3619314508        7.6822939449        9.8911567928
  O         9.9952704077        7.1449135892        9.1193758393
  H         5.1756878828        2.5862561995       11.5424178089
  O         6.1031615524        2.3023081889       11.4444545870
  O         3.6647001523        5.0567966717        9.7323275144
  H         4.4544865711        5.5848187719        9.5896769128
  H         6.9178344978        7.3121969915        9.2195881611
  H         7.2360879237        7.1818493426       13.9933436876
  H         6.4612068441        2.5063113624       12.3816892365
  H        10.3284013854        6.1958162291        9.3674394874
  H         6.1788382184        8.9822804968       11.1953948794
  H         6.2393261141        0.6797405823       10.4459505039
  O         6.3380924182        9.3294004274       10.3077961687
  O         7.7255339564        6.3032159649       14.1048570755
  H         3.1513037753        5.4642508814       10.4549498462
  H         9.3124659872        2.5730730675       12.5710667547
  H         8.5209213168        6.4014722264       13.5317360686
  H         8.7046942858       10.3165762826       13.5497359850
  H        11.5544795484        8.0857963845       11.7602122673
  H         8.3833504100        3.6343671063       13.1037730913
  O        -0.6023728853        8.2391683008       11.5398273760
  O         9.5933242597        0.7960425042       13.1092266579
  O         9.0147613894        3.4773204806       12.3607845814
 Cl         5.5764251158        8.3416955723       13.3131077870
  H         2.5211407939        3.6867092922       12.3866470537
  O        10.2564852068        5.7560412778       12.8906329136
  H         9.8784801724        4.8248943149       12.5418197265
 Cl         2.0612488004        5.4054374168       12.5073147563
  O         7.0241049645        3.0209576690       13.9533552973
  H        -0.8951978260        7.3446120824       11.8188539563
  O         2.9673971312        2.8076692828       12.0692517725
  H        11.2487373623        5.6465744658       12.7855270911
  H         6.2766826757        3.4069451999       14.4294320340
  H         7.2935532251        2.2132128427       14.3956851091
  H         9.7475184264        9.5774418187       12.6444769217
  H         6.8620306739        9.6712016269       14.4065175851
  O         5.0971324831        3.8253258905       15.6792627236
  H         5.1250683045        2.9927328160       16.0791782974
  H         2.2375231001       -0.3572997176       12.5057795954
  H         2.6603525630        2.0941466371       12.7247635465
  H         7.5745582820        5.6310967106       15.7453399183
  H         4.4285718830        0.6302365917       16.5954789198
  H         4.1145192571        4.0381469721       15.6791919976
  H        10.6041112966        0.6233478937       14.5020294057
  H         6.3624415548        5.0689639686       16.5561614171
  O         7.6486992228        0.5284211489       14.7497339723
  H         7.9252184608        9.6973863950       15.6159709289
  O         5.0234664185        1.2615227544       17.1206998098
  O         2.0126553444        8.6933563719       11.7698785524
  O         7.2798086680        5.4196128532       16.6761940312
  H         4.3943919980        1.7267043860       17.7240777896
  H         7.7434547840        7.2961491139       16.7976876668
  O        11.0902610174        0.8456840838       15.3505038954
  O         2.2631567681        0.7577786456       13.7890980414
  O         7.8293393175        8.2470047053       17.0786292821
  H         1.5035187346        0.5333400339       14.3375545400
  H         0.1059309176        2.2472851094       16.0646640600
  O         0.1893965659        3.1274428445       16.5479746550
  H         2.6594347545        7.9392695236       11.9012326482
  H        10.9105991912        0.0929258021       15.9428168591
  H         6.2979485486       -1.1187684226       18.4667088641
  H         5.6276731642        0.1572756131       18.4010161432
  H         3.0697593153        0.4174813185       14.2479020627
  H        -0.7426412807        3.3999027540       16.6103167242
  H         1.6539266166        4.1973622597       16.0669364827
  O         5.8574773884       -0.5434811904       19.1101868527
  H         8.7736386399        8.4978152539       17.3805614450
  H         8.1865109963        4.2899245844       17.7538611916
  H         7.7349468493        0.6575145187       19.1810496563
  O         2.3826875372        4.7600505930       15.6967500994
  O         8.5277067497        1.1600329320       19.2486118462
  O         3.7377638555       -0.6378247806       15.6934712142
  H        13.3547384300        4.8911190873       14.7356314064
  O         8.6368576488        3.7752505279       18.4749965707
  H         4.4346080593       -0.9506856857       15.0438393488
  H         8.3228770681        2.0698711062       18.9772109935
  H         3.4427077064        8.2503673479       16.2782264865
  H         9.9961340714        0.2690524967       18.3265857874
  H         2.6067271856        6.1107237684       16.7513117382
  H         4.2684414779       -0.9417343309       19.8016308393
  O        10.3440635188       -0.4846203232       17.7859363733
  H         8.3165531304        4.1058360298       19.2923648275
  O         2.9289019896        6.8679768027       17.3883514963
  O         3.4868523963       -0.9167261586       20.4552504382
  H         3.4226838673        0.0352718301       20.6781161267
  H        10.9714407450        8.6647370926       18.3124438749
  O         0.5890699532        3.0502262110       19.4102134527
  H         2.1421667222        7.0904993746       17.8587700386
  H         2.4220329730        3.0659015837       18.8476889614
  H         4.1101283930        6.1010363637       18.2417046368
  O         7.8238529711        4.5717560477       20.8981144991
  H         0.3910301681        2.8615451872       18.4379018196
  H         3.7853991460        3.9735963714       18.9416254201
  O         3.4473028133        2.9999479076       18.8807939192
  H         7.1532471227        5.2975636554       20.7406049567
  H         9.5662358871        2.1933324041       21.8702225071
  H         4.8630639150        5.7250433528       19.6875229334
  H         7.8314267270        4.4405852638       21.8679436130
  H        11.1673474300        2.3780208279       19.9266588757
  O         4.5644920896        5.4153705793       18.8142075105
  O        -0.4603154000       -1.0016286383       21.8125597478
  O        10.1034990455        1.6616981196       21.2257968496
  H         1.9753797165       -1.8703135891       19.6956129666
  H        10.0985688297        5.5342854374       19.7677474557
  H        -0.0265738117       -1.0138425720       20.9298167093
  O         7.6610549257        8.0442512744       22.2661279247
  H        -0.4339354696       -0.0373612613       22.0873259457
  H         8.5397247022        8.4073747462       21.9032455987
  O         1.0799313609       -2.0599206128       19.3726485042
  O        11.0251640431        5.5048102139       20.1974359649
  H         9.3528852082        1.4023320779       20.6230692280
  H         7.5067152010       -1.0298775366       23.0358522932
  H         6.2053234925        7.1510080910       21.4516177035
  H         3.5761228392        2.4397586458       20.3363933217
  H        11.3559236610        4.6098540997       19.8429716821
  O         5.6816471741        6.3713916961       21.0560000846
  H         0.8500146658        6.7077240511       19.8107530450
  H         3.6427075384        8.3196583875       22.1980739021
  H         5.1583323515        6.0547910721       21.7986374606
  O         3.4937160313        1.9791840243       21.2369159446
  O        11.0082487650        9.1460699205       24.6310800942
  O         3.6497004284        8.2529717248       23.1965574445
  O         7.8045183310        2.4188848579       23.4928688190
  H        10.8110101025        4.2864604955       22.3830589854
  H         2.5434357445        2.0528609829       21.6266418456
  H         4.1956560482        7.4681457684       23.3847171108
  H        11.5456348320        8.2879678844       24.2700445557
  H         6.8179901099        2.4427254422       23.2697182754
  H         8.0635880258        3.0300015035       24.2171684052
  H         4.5896189843        2.3097674837       22.2870960706
  H        11.6149822593        0.3173034300       24.3965539972
  H         4.2314061668        5.3002323678       24.5907180793
  O        12.3406250480        7.0894007676       23.4161416441
  H         2.0892042081        7.5777493554       23.4636352501
  O         4.6592491820        5.6047431233       23.7141940168
  O         5.2450435754        2.5252527127       23.0627294823
  O        10.4806818844        3.7904898557       23.1552208680
  O         1.3339256236        1.7192514756       23.3746324436
  O         7.3387069799        5.9589728117       23.7704038164
  H         8.2430683718        0.9850804191       24.0629168542
  H         4.7234133096        9.1334396165       24.0423699002
  H        11.7187015874        2.3359234512       23.3482641382
  H         7.5297410339        6.6783534807       23.1268523442
  H        11.8442308266        7.5579911382       22.7051063934
  H        10.8565171947        4.2192988946       23.9475758231
  H         5.2664051285        1.0244793158       24.0091921775
  H         9.4129314990        9.5268101030       24.4157879450
  H         4.9068926317        3.2627654688       23.5988418543
  H         5.5733061918        5.7340929869       23.9572184109
  O         8.4558801884        9.6871005372       24.4631930860
  O         5.4837295080        0.1116755463       24.3597181126
  H         1.8730665563        2.1892776836       24.0619346470
  H         7.8912674656        6.0871670074       24.5977302670
 Pt         2.6497369436        9.2748281460       26.8586903176
 Pt         5.4348895215        9.4097886431       26.7151512320
 Pt         8.1757741108        9.4243391981       26.6842963489
 Pt        11.0142354315        9.4224465836       26.8788351238
 Pt         8.1406700146        4.4937251721       26.8976574307
 Pt         3.9074761274        6.9172522297       26.7811388872
 Pt         9.4961504100        6.8754160547       26.8856903601
 Pt         6.8593102008        6.9544953126       27.0235433436
 Pt        10.8822735564        4.5694938433       26.9035963376
 Pt         1.1794776971        7.0624454994       26.7687046859
 Pt         9.6079186727        2.2184727480       26.9135721140
 Pt         6.8661065484        2.1524101435       26.8869775265
 Pt         2.5811947758        4.4995912839       26.8047431214
 Pt         5.4862754013        4.5981398259       26.9581859722
 Pt         1.3828605893        2.2051718859       26.8272113841
 Pt         3.9382384985        2.2130353472       26.7797405724
  H         8.4743104928        2.4457227610        9.5713649252
