     242
Tv_1:  11.152900   0.000000   0.000000 Tv_2:   0.000000   9.658700   0.000000 Tv_3:   0.000000   0.000000  26.829700
 Pt         5.4655539101        8.0088012148        2.2739824035
 Pt         6.8157747515        0.6778221473        2.3581974555
 Pt        10.9854589077        8.0310642107        2.5017337636
 Pt         8.3230443980        8.0145528587        2.3695715515
 Pt         8.0877045476        3.0894564696        2.3047957353
 Pt         2.6071373040        8.0539744547        2.4760541128
 Pt         9.5548009982        5.4954545185        2.4097941570
 Pt         6.8579842343        5.4591315986        2.5286320900
 Pt         5.2589483543        3.1342042838        2.2959286296
 Pt         4.0337318076        5.5927118018        2.5529774333
 Pt         9.6114515059        0.7317856487        2.3877818169
 Pt         1.1340382714        5.5577487423        2.3968453300
 Pt         1.3493131466        0.7940573705        2.3859842637
 Pt         2.4020966863        3.2291127180        2.3618019061
 Pt         4.0484076024        0.6508840554        2.3031482061
 Pt        10.9132675980        3.1035559655        2.3630930558
 Pt         5.8099256136        6.7004145816        4.7866268473
 Pt         8.5254718559        6.6746733732        4.7802810468
 Pt         7.3021575805        9.0977760048        4.6526341897
 Pt         7.1677111701        4.1961827351        4.8499551268
 Pt         8.4106525919        1.8710614505        4.8592012785
 Pt         5.7385777062        1.9939062691        4.7169850893
 Pt         9.9029470988        4.1326428444        4.6847563707
 Pt        10.0850504751        9.0739598713        4.8523241471
 Pt         1.5979859192        9.0357412142        4.7766361855
 Pt         0.1776095666        6.6635835759        4.8955621219
 Pt         3.1488515019        1.7709298678        4.5216244613
 Pt         3.0099623974        6.5931593635        4.8806796077
 Pt         4.5571024895        9.0687091403        4.7094107652
 Pt         4.1477985822        4.2189431874        4.7787977321
 Pt         0.2731478953        1.8027191233        4.8026713430
 Pt         1.4554731159        4.3473866942        4.7275097186
 Pt         7.6765273319        2.8961016937        7.2394348521
 Pt        10.4375989330        7.6814038440        7.1936971044
 Pt         9.0560799242        5.2614947128        7.1417340830
 Pt         9.1562848759        0.3727620012        7.1646413782
 Pt         6.4293841624        0.5543948686        6.8570524143
 Pt         3.5218996960        5.3004733494        7.1944466958
 Pt         3.3832630475        0.3545131962        6.9605482483
 Pt         7.6385458181        7.7991993950        7.0137830320
 Pt         4.6778165677        2.8259471287        7.1535789371
 Pt         2.0457577057        2.8929788357        6.9613074813
 Pt         0.7197977106        5.2073747142        7.2352753571
 Pt        10.3915124626        2.8784288594        7.1440477300
 Pt         6.3429753370        5.3064087530        7.0678912421
 Pt         0.6627550321        0.5844631474        7.2223558329
 Pt         1.9930529752        7.7080501926        7.1040869108
 Pt         4.8242513111        7.7056039090        7.0599358150
  O         6.1827321170        5.3699449170        9.1798958674
  O         2.2102916442        7.5484827582        9.2746559251
  O         0.5552761112        5.0644125112        9.2772204659
  H         3.8935240903        1.8814351662        9.4637097300
  H         6.6785008807        6.4740783925       10.9562133237
  O         0.6466645919        0.2876651546        9.3656129823
  H         1.6923440176        8.3633668397        9.6524583436
  H         4.1248673364        3.6214943459        9.4767934185
  O         9.1447155264        0.4678094845        9.2353528644
  H        10.7352972876        0.3331757764        9.5534099026
  H         0.9522556816        1.1695277658        9.8767204837
  H         1.2230340565        5.6621729083        9.6840529625
  H         7.0087411730        2.6409310469       10.0254126602
  H         1.0257406345        3.1257147802       10.2944892473
  H         8.4622276031       -0.2285102624        9.4669900932
  C         7.1085628831        6.0956464185       10.0352357702
  H         3.2445777022        7.7563525940        9.3602495782
  O         7.9652072537        2.8650412260        9.5976299196
  H         5.2853982010        8.1471912501        9.4469524020
  H         7.5657329568        6.9345489927        9.4507751570
  O         4.5797607268        7.5827510257        9.0462593853
  O         4.5955900375        2.4925893402        9.1922207784
  O         1.7152133793        2.4370232338       10.1417575047
  H         2.3828177942        2.3862613982       10.9891871506
  H        10.6863583940        7.8906634522       10.1808332760
  O        10.3437431959        7.3185907539        9.2528127901
  H         5.3092741775        2.3363705622       11.7843032648
  O         6.1693017041        1.8884051211       11.4968082095
  O         3.8349593686        4.7710561218        9.3530832827
  H         5.2405991076        5.6429377845        9.3761735684
  H         7.8775371480        5.3958034264       10.4311370419
  H         8.2835743227        7.2147990800       14.0593497780
  H         6.6941847277        2.0529322406       12.3730024544
  H        10.6544117607        6.3699276139        9.3143725757
  H         6.7215109013        8.7306523403       11.3440508840
  H         6.4075106307        0.4354323862       10.7281118562
  O         6.8093505224        9.2094948688       10.4225760454
  O         8.9406022118        6.8060732347       14.6318401550
  H         3.1669946374        5.1878512116        9.9648703037
  H         9.7499078983        2.5765154851       12.0701989218
  H         9.7045223939        6.7781524707       13.9972015138
  H         8.9976181393       10.2029118820       13.6722045657
  H        11.7523658216        8.6433018175       11.6909244034
  H         9.2121893305        3.1867978793       10.7659163988
  O        -0.3635367515        8.2688271044       11.4797492886
  O         9.8060679124        0.6914267762       13.0862545707
  O         9.9384314200        3.3270117392       11.4652375149
 Cl         6.2894496408        7.9249256432       13.3292009057
  H         3.6126226076        3.7396689164       12.1948117916
  O        10.7688637018        5.7979623564       12.5696298623
  H        10.3003665932        5.0136700578       12.2198933303
 Cl         2.7934824571        5.8279125638       12.2446846136
  O         6.9665878334        2.6386069968       13.8620347960
  H        -0.4887232966        7.4129058851       11.9678386863
  O         3.4890155234        2.7710076005       12.0637853251
  H        11.7059938483        5.6251297006       12.4157705511
  H         6.2348405696        3.1915425883       14.2397924935
  H         7.1267288779        1.9321762450       14.5108649517
  H         9.9195430397        9.6878621483       12.3944822165
  H         7.2277957111        9.2819153692       14.4072021809
  O         5.2744539676        4.0818255870       15.8158398069
  H         5.0170382111        3.4658414198       16.5249299629
  H         2.4225852272       -0.1667254155       12.5104454077
  H         3.2778788750        2.2125264168       12.8642075458
  H         7.7825311658        5.9733760293       15.7726838667
  H         4.7797951472        1.0528329706       16.7472970819
  H         4.3753637143        4.4436632478       15.5422006942
  H        10.8493226354        1.1428138996       14.2126868210
  H         6.4996047181        5.0782168015       16.2263721840
  O         7.6223555333        0.3000352782       15.0429063690
  H         7.7201740509        9.4227166240       15.8528869862
  O         4.8974815754        1.7387060508       17.5077523280
  O         2.0580580452        8.9945284335       11.7250911575
  O         7.3097129589        5.5915708567       16.5715083156
  H         4.0459951210        1.6957814291       18.0353880053
  H         7.3024870017        7.0501541771       17.0721394155
  O        11.5271775977        1.4205664922       14.9610161633
  O         2.8453535052        0.9175798429       13.7044542665
  O         7.5416183088        8.0360989270       17.2629633447
  H         1.9575319315        1.0089626634       14.1549932582
  H         0.4782601917        2.9309532959       15.5394535423
  O         0.5646679217        3.8548104164       16.0820625922
  H         2.4250061080        8.0796694288       11.8529527204
  H        11.1770690027        0.9617643043       15.7338630888
  H         6.5568908711       -0.9706615026       18.7385676858
  H         5.9372784140        0.3651911605       18.4745540390
  H         3.4557623669        0.4234531795       14.3737378197
  H        -0.1378697375        4.4549908780       15.6749294594
  H         1.9526909613        4.7477647762       15.2387227248
  O         6.0794941711       -0.2902765491       19.2538679255
  H         8.4756502247        8.0196873213       17.0888125597
  H         8.1796606099        4.3364375349       17.8895186700
  H         7.6545322251        0.6347760890       19.5469407560
  O         2.7931597307        5.2637321675       15.0494143681
  O         8.5842120012        1.1263750808       19.5524159116
  O         4.3742803281       -0.4711021432       15.4971806238
  H        13.9440006254        5.5053392450       14.0656152613
  O         8.6305354994        3.7678659461       18.5593478642
  H         4.9663474507       -0.8994019669       14.8627555987
  H         8.5021345936        1.9730512665       19.0037813964
  H         4.1014627410        8.4221991076       16.1383704480
  H         9.9829363849        0.3888131881       18.0993274653
  H         3.0423982540        6.6450076700       16.1493696858
  H         4.3257596448       -0.6139724272       20.1628713825
  O        10.6322442518        0.0999341029       17.4426436517
  H         8.9384803708        4.4690445288       19.2300134392
  O         3.4757071139        7.0908367613       16.8984808625
  O         3.5374338875       -0.7694198402       20.8161932992
  H         3.3859274270        0.0783779017       21.2730767534
  H        11.3845619395        9.2856670384       17.8701056418
  O         0.5913713785        3.3191863709       18.9069808532
  H         2.7967758490        7.4673670668       17.5151508140
  H         2.1874889240        2.9270439086       19.4601622542
  H         4.1589561239        5.4558604449       18.3881222844
  O         9.2106968816        5.3583783055       21.0818475049
  H         0.5059036592        3.3050338719       17.9050065399
  H         3.7268594425        3.4372537462       19.3507470373
  O         3.1019833265        2.6873886078       19.7367776728
  H         8.2674506092        5.2971918456       20.9773711630
  H        10.9385636868        1.4860816443       22.0543560148
  H         5.2974785636        5.4573865087       19.4787244939
  H         9.3945248467        4.9349827477       21.9349398632
  H        10.8457505709        2.9574527589       19.1908412058
  O         4.5448743796        4.9366357467       19.1283911323
  O        -0.1521046366       -1.3605114541       21.4290699873
  O        10.8776086049        1.3002986000       21.0897248317
  H         2.1059402671       -1.0882802990       19.6784664524
  H        10.6381464147        5.7227641791       20.2132932254
  H         0.1185043349       -1.8883212518       20.6245153050
  O         8.4007559893        8.0251714883       22.3885495226
  H        -0.0946247898       -0.4133630504       21.0728311559
  H         9.3250575415        8.1576352188       22.0687220046
  O         1.5547080886       -1.2679690633       18.9126620495
  O        11.5639634671        6.0276956690       19.9114632324
  H         9.9298811527        1.2444228182       20.9023134162
  H         8.1057320822       -0.8904021005       22.9795774153
  H         6.9262170054        7.0503423454       21.2121239368
  H         3.2344884436        2.2546785458       21.0863710871
  H        11.9294335049        5.2119534192       19.5647550590
  O         6.5216012577        6.2226556250       20.8467182295
  H         1.1310411199        7.5168932119       19.1129807920
  H         3.5059942544        7.8213341019       22.3589999096
  H         6.0256310246        5.8579181613       21.6663048041
  O         3.3718622820        1.8248585527       22.0617889570
  O        10.7621831517        9.4774563912       24.4970759864
  O         3.5034674841        7.4725507671       23.2944208680
  O         8.1860834116        2.4655301027       23.5595238675
  H        11.1804479826        5.6054191380       23.4408033248
  H         2.5694133173        2.2806063639       22.5342776502
  H         4.0380187289        6.5954711635       23.4490411975
  H        11.2651199987        8.6926883872       24.0023253548
  H         7.3216034860        2.7903310518       23.2178919534
  H         8.4793476593        3.0621041953       24.2358589571
  H         4.6042536099        2.3733393330       22.7749437096
  H        11.2640102444        0.5991865212       24.1773533000
  H         5.0593016180        4.4186768587       23.1875955236
  O        12.0317231998        7.5410351595       23.5172735209
  H         1.8375113382        7.4692692259       23.8728119431
  O         5.0760532500        5.4141461907       23.1627472664
  O         5.4451082107        2.7885653379       23.2760508695
  O        10.8803700329        4.6904473491       23.5850168023
  O         1.2577270636        2.4537071689       23.6739292497
  O         7.7116735459        5.8283580724       23.7391240409
  H         7.9892408850        1.0734313003       24.2749960931
  H         4.3164625706        8.6987118983       24.1264512766
  H        11.8007832649        3.2685798331       23.4412711141
  H         7.9951921895        6.6042233749       23.1938907347
  H        11.9563615022        7.6879598495       22.5242064910
  H        10.4316965314        4.6780343431       24.4848023874
  H         3.9768407255        0.6051483379       24.4479015748
  H         9.2743530419        9.7432544466       24.3329220161
  H         5.2815581876        2.7013057155       24.2499611861
  H         5.9725483765        5.6112632721       23.5845223145
  O         8.2383994446        9.7431348825       24.5062176699
  O         4.7217654162       -0.0702042669       24.5300132033
  H         1.7559192144        2.7052187979       24.5033265055
  H         7.4991464500        6.2964174328       24.6006231213
 Pt         2.2147518218        9.2815752394       26.8274024939
 Pt         5.0868066008        9.2596024811       26.6610859150
 Pt         8.0395871378        9.3058182688       26.7241122694
 Pt        10.8015435189        9.2692701189       26.8356477349
 Pt         7.9566752241        4.5371416109       26.7702246186
 Pt         3.7967606026        6.7654279077       26.9267549792
 Pt         9.4238097954        6.8578558198       26.9853108882
 Pt         6.5250293348        6.8906571207       26.9380537686
 Pt        10.8574765566        4.3158124384       26.7968596001
 Pt         1.0730830868        6.8409597024       26.8583122097
 Pt         9.4035477899        2.0339662478       26.9429055549
 Pt         6.5135590998        2.0442069067       26.9001600047
 Pt         2.3153574587        4.3731065802       26.8081058851
 Pt         5.1689885554        4.4620136210       26.8132171039
 Pt         1.0665527913        2.0592720310       26.8175908653
 Pt         3.7603307617        1.9911327041       26.7918029616
  H         8.3433011056        1.9446680803        9.5495015083
