     242
Tv_1:  11.152900   0.000000   0.000000 Tv_2:   0.000000   9.658700   0.000000 Tv_3:   0.000000   0.000000  26.829700
 Pt         5.4357410940        7.9890576566        2.3024879251
 Pt         6.9335355000        0.9072865647        2.3450970708
 Pt        10.9677310864        8.1333840992        2.5442021334
 Pt         8.2296290949        8.0589274153        2.2817899331
 Pt         8.2996109716        3.2829336525        2.4573171878
 Pt         2.5809204384        7.8535485554        2.4108964149
 Pt         9.6798765017        5.6506378808        2.5138179867
 Pt         6.8526836225        5.6244365324        2.4380074887
 Pt         5.4480794933        3.1803345281        2.3741170553
 Pt         4.0017251924        5.5592195655        2.4534870445
 Pt         9.7050872199        0.9376618103        2.5230753922
 Pt         1.2312959710        5.5759305956        2.6354655816
 Pt         1.4031793763        0.7186375428        2.5366243571
 Pt         2.6139654490        3.0802273532        2.5064500226
 Pt         4.1720401035        0.7112341576        2.4487959863
 Pt        11.0804875924        3.2231249383        2.5480333813
 Pt         5.8256823457        6.6720899357        4.7733934595
 Pt         8.5616143689        6.7800321847        4.6628172231
 Pt         7.3268649834        9.2276165765        4.5546954520
 Pt         7.1022591157        4.1262651289        4.7692210845
 Pt         8.6373794694        1.9494408948        4.8671861493
 Pt         5.8519733050        1.7814595490        4.6485390623
 Pt         9.9065007241        4.2302985063        4.7863542339
 Pt        10.0134409080        9.1637121401        4.9423082494
 Pt         1.7075503434        9.0109262437        4.8997471497
 Pt         0.2003257014        6.6437833699        4.7996884805
 Pt         3.1279747500        1.6994231859        4.8367557144
 Pt         2.9958325072        6.6280970188        4.8652384128
 Pt         4.4466933788        8.9967047413        4.7174685259
 Pt         4.3549297977        4.2131385941        4.7121942604
 Pt         0.4515717723        1.7881724981        4.8154248447
 Pt         1.5810107211        4.2310128747        4.8259516711
 Pt         7.5211800158        2.6990205776        7.2234359828
 Pt        10.3503461316        7.4585775007        7.1368617682
 Pt         9.2377407906        5.1157816996        7.2154737479
 Pt         9.0097218186        0.4512270030        7.3146996116
 Pt         6.1458156106        0.4657467912        7.0158617025
 Pt         3.4867385245        5.1984594045        7.1340594383
 Pt         3.3369046033        0.4035564013        7.1329014742
 Pt         7.6134996978        7.7240388647        6.9399887621
 Pt         4.7341086850        2.7233420906        7.1590630848
 Pt         1.9861438123        2.7720798438        7.0856821268
 Pt         0.7201158783        5.0888891702        7.1903513796
 Pt        10.3870258032        2.7228076292        7.0559242367
 Pt         6.5560712500        5.3236894164        7.1224387806
 Pt         0.5428391617        0.3728894198        7.1215532356
 Pt         2.0385370609        7.6726952731        7.1543010622
 Pt         4.8499823145        7.7467355649        7.0606323574
  O         6.3058331297        5.4511054581        9.2919105135
  O         2.1587776978        7.5548398562        9.3177690787
  O         0.4032087052        5.3128044624        9.3639473242
  H         4.0312469048        1.7260551049        9.2100956535
  H         8.2922028911        5.3548683509        9.7827517782
  O         0.3233699814        0.3043369777        9.4062870831
  H         1.6705633476        8.2810011020        9.7487407819
  H         3.9164456456        3.7380545635        9.1075233676
  O         8.7875831407        0.4905535346        9.3485169996
  H        10.4664680696        0.4092998968        9.4702056754
  H         0.7158375010        1.1205318802        9.7408362909
  H         1.2075256077        5.8683385273        9.5265979330
  H         6.4234651364        2.3553157739        9.5425747309
  H         1.3325811590        3.3221655039       10.0665224518
  H         8.3043583345       -0.3198861197        9.6162612351
  C         7.3358883513        5.6388689018       10.2818782500
  H         3.6132675418        7.6430595048        9.5804687415
  O         7.3635596913        2.6538386304        9.3393542099
  H         5.1950913824        8.3383745890        9.7778371469
  H         7.0656894462        5.1783282751       11.1925279859
  O         4.6643837966        7.7034850963        9.2518666738
  O         4.6961707608        2.4580776073        9.2339686685
  O         1.7733966982        2.4617071326       10.0218122950
  H         2.4584606076        2.4776888792       10.8135824174
  H        10.3069037418        7.7532133572        9.9433777991
  O         9.9949732370        7.1487550632        9.1825002962
  H         5.2096943620        2.1329965686       11.9296844719
  O         6.1891080617        1.9296934724       11.8255727107
  O         3.3871657656        4.6169876876        9.2286321276
  H         5.6793469414        6.2377581505        9.4178453130
  H         7.4493356177        6.7369818204       10.4910966515
  H         8.3963215831        6.7083237723       13.7289925395
  H         6.6201958625        2.5371558733       12.4585346957
  H        10.8324003250        6.2256601563        9.3274537477
  H         6.8343243266        8.3959389854       11.4889148896
  H         6.6696041256        0.2812465201       11.1817625709
  O         6.5899519875        8.9922846641       10.7750071640
  O         9.2384182720        6.4929318040       14.1558312890
  H         3.6466991576        4.8919504835       10.1578403747
  H        10.0482426824        1.7721582399       12.2422589479
  H         9.5746848958        5.7221788858       13.6705925986
  H         9.2509799106        9.9909223690       13.5535036217
  H        11.9241505644        8.0163634467       12.0425599503
  H         9.2476946807        2.8114081432       11.4401173533
  O        -0.1815662928        7.8466026858       11.8578778343
  O        10.1367938321        0.3781145203       13.1669527820
  O        10.1543629776        2.5061774860       11.5820291324
 Cl         6.3788745922        7.4342859876       13.3462500259
  H         3.1863618247        3.4205492433       12.5018103026
  O        11.2976595698        4.8829993848       12.7391557466
  H        11.0561980719        4.0350761610       12.3127585161
 Cl         3.2646414549        5.4644063257       12.0522656203
  O         7.4294068194        3.0756327020       13.8099972817
  H        -0.3292261188        6.9706916661       12.3809053068
  O         3.4391437205        2.4782936006       12.1202172497
  H        12.2315540717        5.1037410956       12.3953764709
  H         7.0742484148        3.6277428420       14.5077425261
  H         7.3850651372        2.1677543704       14.1846796111
  H        10.3805934298        9.1263658354       12.6897903347
  H         7.2750482669        9.2250975285       14.0837627118
  O         6.2125452512        4.1050970401       16.1635968689
  H         6.1231304850        3.3446736691       16.8040083937
  H         2.5520282418       -0.5844566438       12.9508513429
  H         3.2938077893        1.7829920743       12.8385353265
  H         8.5329881621        6.1309606063       15.7619408030
  H         5.1042533859        1.2424738589       17.4959010964
  H         5.3281273123        4.4957742727       16.0066720700
  H        11.1124624551        0.9106372426       14.4102076894
  H         7.4048800982        5.5338555130       16.6703554858
  O         7.7540167726        0.3662949040       14.4918228153
  H         7.9357260652        9.6629743567       15.4202478721
  O         5.4561060018        2.0159939214       17.9520445081
  O         2.3737485001        8.4762946423       12.1973501401
  O         8.1770081885        6.1496634409       16.6969250735
  H         4.7305120709        2.6653825847       18.1644549019
  H         8.0181062220        7.8465989374       16.8817037099
  O        11.7041976671        1.2341326937       15.1324295914
  O         2.8987067983        0.5055567916       14.1178098195
  O         7.9892928483        8.8271912461       17.0821281004
  H         1.9400315792        0.6498745282       14.6120496040
  H         0.9045950604        3.0147830510       14.8856179804
  O         1.1561575599        3.9405097901       15.0709716970
  H         2.8701132899        7.6368007813       12.2196175878
  H        11.3767948201        1.0600382066       15.9982690074
  H         7.2345182409       -0.1930599054       18.4109132578
  H         6.3144446062        1.0353314750       18.7664774373
  H         3.5344583333        0.1563259039       14.7798714696
  H         0.6676843142        4.4346176596       14.3674218922
  H         2.9037851228        4.7885656411       15.1778293649
  O         6.8926050857        0.3108364220       19.1813889817
  H         8.9606337445        9.1209292672       17.1385094409
  H         9.0785955917        4.9578489574       17.3978457573
  H         8.3312032436        1.4702576901       19.3189592682
  O         3.5328970773        5.4788100570       15.3726038891
  O         9.0406398803        2.1371878938       19.4404748452
  O         4.6072890865       -0.1724660793       16.5128102065
  H        15.0206025909        5.8379464493       14.5285046464
  O         9.4354952303        4.3578720942       18.1114190640
  H         5.3136118134       -0.3870551474       15.8799556810
  H         8.8765131493        2.8691082276       18.8028618625
  H         4.0195109610        8.7081025145       16.6526597940
  H         9.7911351056        1.0827528610       17.7927110686
  H         3.2273046815        6.6797826246       16.5046791602
  H         4.9679313201       -0.4040165449       20.2553563229
  O        10.3877885661        0.2973609005       17.5111906659
  H         9.2080024404        4.8305556219       18.9239746362
  O         2.9557650908        7.5150454730       16.9656457825
  O         4.0837603175       -0.4443969260       20.6713982620
  H         3.9877958824        0.3864625299       21.2061496432
  H        10.6896742787        9.6534679673       18.3771980160
  O         1.0042680659        4.1643179509       17.6596339398
  H         1.9895023713        7.5539878118       17.0389290884
  H         2.6275572929        3.5608363849       18.6498944698
  H         4.4879607697        6.6773307991       18.9400591821
  O         9.5685763848        5.2311887034       20.7379608004
  H         1.1786406872        4.1527282735       16.7010462592
  H         3.8763028590        4.4255791286       18.9769813835
  O         3.5149823908        3.5116171598       19.1057552619
  H         8.6536801316        5.4542266049       21.1484810045
  H         8.7323140837        2.7275830604       22.4873293854
  H         5.4963924347        5.5877398086       19.5241418012
  H         9.8097689598        4.4028582622       21.2433580187
  H        11.1991005437        3.9031972178       17.7797838399
  O         4.8511343686        5.7918106939       18.7889237180
  O        -1.2511105109       -0.5452571817       21.8399648554
  O         9.6402113791        2.7306013438       22.0664890782
  H         1.3223848334       -0.5124400481       19.9304681485
  H        11.1523871965        5.8379514913       20.1173756713
  H        -0.8709709787       -0.6262559808       20.9537126073
  O         6.8559882050        8.5418905438       21.6024652597
  H        -1.2339644150        0.4557649564       21.8750325178
  H         7.8339208520        8.6624663770       21.7657340458
  O         0.4695939915       -0.8670348037       19.7162348683
  O        12.0139669243        6.2818812858       19.7652619387
  H         9.5930118456        2.4718826027       21.0663595434
  H         6.7729858663       -0.7128187322       20.7298674335
  H         6.7509126120        6.8956870221       21.2687928666
  H         2.7745479341        2.4413613101       20.7993619649
  H        12.1413647936        5.7000189651       18.9533860264
  O         6.7238125431        5.8779666291       21.2191633148
  H         0.6602437910        7.7670800777       19.5929642577
  H         3.9792156775        8.1007751804       22.3635534799
  H         6.0987437831        5.6826721994       21.9904018038
  O         2.8970028248        2.1593778925       21.7015950898
  O        11.0060892999        9.5100189845       24.6060630079
  O         3.4934447980        7.6966814734       23.1442478849
  O         7.5430845859        2.6569166548       23.7172006796
  H        11.4804996143        5.7742365508       24.4247507908
  H         1.9792879062        2.3045706627       22.0936832283
  H         3.9419403755        6.8350870948       23.4950732669
  H        11.3222170698        8.6083509571       24.2962409981
  H         6.5242461442        2.7251488243       23.6554137667
  H         7.8136116721        3.2064668124       24.4403073645
  H         4.1245494119        2.8462960200       22.8134946875
  H        11.4994604479        0.5496346490       24.1459830894
  H         5.0468489774        4.6737940495       24.0217433935
  O        11.9571899632        7.2218388872       23.5696512169
  H         1.6427198566        7.6923273747       23.3043699072
  O         5.0568422901        5.6303335171       23.6953204155
  O         4.8328420138        3.0323702573       23.5825550527
  O        11.0102131705        4.9337644600       24.6525315792
  O         0.7194741285        2.1887816254       23.4801321638
  O         8.4473683198        5.9621787188       23.9681941926
  H         7.7745382421        0.8938294256       24.5317690887
  H         4.3968513723        8.8839581224       24.0425991703
  H        11.1814618736        2.3770144420       22.8165341263
  H         8.5937403402        6.7018070658       23.4132439401
  H        11.4626325616        7.1572582751       22.7365808387
  H        10.0425134461        5.1857476419       24.4177113174
  H         5.7792257006       -0.1247863023       23.8778644120
  H         9.1033607024        9.7292810921       24.3919368663
  H         4.7125371322        2.3871439630       24.3000621588
  H         5.6681496047        6.1603535654       24.2982029704
  O         8.1327708745        9.6431649480       24.4854616406
  O         4.8991086401        0.0447558165       24.2634627001
  H         0.6861352176        2.9544563972       24.0311188349
  H         7.9967916029        6.2335663465       24.7984460128
 Pt         2.4709671472        9.3453338883       26.9076302185
 Pt         5.0888015635        9.3188333858       26.7410083463
 Pt         7.9516776892        9.2875796006       26.7720647019
 Pt        10.9689365446        9.4097811826       26.9062870459
 Pt         7.7687363479        4.5651505283       26.8172238957
 Pt         3.7817768787        6.9893539200       26.8309539865
 Pt         9.4685749691        6.9448435256       26.9827515394
 Pt         6.5965136144        6.9200220818       26.8644456478
 Pt        10.7617699160        4.6327574974       26.8416671789
 Pt         0.9952644625        6.9504321701       27.1262058364
 Pt         9.4190878337        2.3220693008       26.9275071678
 Pt         6.6411855462        2.1899983285       26.8610927066
 Pt         2.3937118349        4.6008402204       26.9272910085
 Pt         5.1145587179        4.6082447749       26.8570440640
 Pt         1.0487792248        2.2575087466       27.0707153078
 Pt         3.7387876782        2.1365150619       27.0375269496
  H         7.9358704569        1.7914363150        9.4898499777
