     242
Tv_1:  11.152900   0.000000   0.000000 Tv_2:   0.000000   9.658700   0.000000 Tv_3:   0.000000   0.000000  26.829700
 Pt         5.4289328535        8.0976584661        2.5005214789
 Pt         6.7583086242        0.7764250213        2.5433751123
 Pt        10.8646695418        8.0579729233        2.4624748321
 Pt         8.1792504410        8.0662659405        2.2856994018
 Pt         8.3155754652        3.1836944287        2.5043210221
 Pt         2.5533958459        8.0424697561        2.4699311431
 Pt         9.7141229839        5.5424233564        2.3619265441
 Pt         6.7881877591        5.7023698172        2.5014632010
 Pt         5.4250655193        3.1864380278        2.4586737898
 Pt         4.0218007085        5.7043813903        2.6642938142
 Pt         9.6009491283        0.7784206577        2.6274165835
 Pt         1.3821510095        5.6790376563        2.4851895599
 Pt         1.2520426250        0.8046330257        2.5788823940
 Pt         2.6606672692        3.1566463666        2.5524387682
 Pt         3.9720782080        0.7112755348        2.4039453275
 Pt        11.0820994190        3.1577138894        2.3324693046
 Pt         5.7684683359        6.6237887436        4.9322128231
 Pt         8.5248568595        6.7078770201        4.6417375608
 Pt         7.2180769478        9.0354345891        4.6600427400
 Pt         7.1377862929        4.1965327994        4.8790944686
 Pt         8.5542027153        1.8737070403        4.9612094171
 Pt         5.7612591918        1.8553932286        4.8638574950
 Pt         9.9269433235        4.1347573987        4.6387589803
 Pt         9.9406866286        9.0065043723        4.8755650589
 Pt         1.5461078817        9.1153873215        4.8551339013
 Pt         0.1348809167        6.6267611643        4.7641570381
 Pt         3.0830948113        1.8191112810        4.7393525993
 Pt         2.9505843689        6.6853307110        4.8630741994
 Pt         4.4694181726        9.0627659725        4.8844384311
 Pt         4.3153018181        4.1958607081        4.8848172046
 Pt         0.1093655997        1.7344309285        4.8928313224
 Pt         1.4586262490        4.1648837647        4.7094782312
 Pt         7.5130393286        3.0740670184        7.3434868537
 Pt        10.3826118337        7.5597913979        7.2129538685
 Pt         8.9706035463        5.3094137132        7.0053998855
 Pt         9.0975255380        0.3810068714        7.1706367974
 Pt         6.3902823762        0.4482381989        7.2016506343
 Pt         3.2527926383        5.2118454099        7.1157520683
 Pt         3.3405998499        0.4923320595        7.1128993769
 Pt         7.6196686225        7.7338115925        7.2282449550
 Pt         4.7402372599        2.7222293695        7.1716451130
 Pt         1.9042351376        2.7120969958        7.1752344882
 Pt         0.6293226700        4.9928817070        7.0890339519
 Pt        10.2105126460        2.8204460868        7.1754096394
 Pt         6.2155693813        5.4164130740        7.2098278518
 Pt         0.5940409868        0.4226963355        7.2711538301
 Pt         2.1403790784        7.7410612287        7.2297618448
 Pt         4.8391199703        7.9016551102        7.2455779085
  O         6.1277982561        5.6903096425        9.3762780705
  O         2.1650854225        7.7619225530        9.3797521482
  O         0.3479570859        5.1552659006        9.0622326269
  H         4.0980210208        2.1149201815        9.5953737295
  H         7.9614995369        5.0785564384        9.9467756569
  O         0.5953241662        0.4269748063        9.4897425936
  H         1.6653889203        8.6233512905        9.5795924500
  H         3.8860694647        3.9578519215        9.3347876852
  O         9.0794098037        0.5055514214        9.2679147139
  H        10.7480757451        0.3724876255        9.6646116930
  H         0.9778902793        1.3613967396        9.8597636657
  H         1.2492737207        5.2586339804        9.4503795707
  H         6.9927334837        2.4598168844       10.1286109291
  H         0.5994780109        3.0064437334       10.8756681395
  H         8.3977121802        0.0469944340        9.7951961769
  C         7.2540840348        5.8339236194       10.2164060113
  H         3.0671233310        7.9438922708        9.7685528867
  O         7.8414414041        2.7545984130        9.4129223434
  H         5.5748875856        8.2446912970        9.8926265751
  H         6.8908952023        5.6576077812       11.2138423975
  O         4.8443058590        7.7166240974        9.4418337508
  O         4.5860014656        2.9076232847        9.3139481444
  O         1.3983878375        2.5104547173       10.4759277854
  H         2.1241434109        2.4437519917       11.1392533727
  H        10.2427018708        7.8922144033       10.0371274181
  O        10.0993571245        7.1703793508        9.3650553578
  H         5.3774943928        2.2562013920       11.2271030261
  O         6.3177697113        2.1542565397       11.2488082040
  O         3.2637888429        5.0302753727        9.1249216274
  H         5.5247753941        6.6132647798        9.4622940938
  H         7.7062335140        6.8358722529       10.1272189822
  H         8.4367930759        6.9851952079       13.8688805740
  H         6.7200713546        2.6911065986       12.0373185632
  H        10.8095399607        6.3079646610        9.3588022650
  H         6.7009894781        8.7107680651       11.7406867608
  H         6.4307499529        0.3678571358       11.0803268650
  O         6.7565194058        9.1353381847       10.8434239723
  O         9.3145203780        6.9873422308       14.3258859423
  H         3.5489844217        5.7250672496        9.8459918287
  H         9.9392225390        2.3871746209       12.1186435380
  H         9.8415828084        6.2149119524       13.9685061067
  H         9.1524253960       10.7522206515       13.6678222554
  H        11.4107579505        8.5587143947       11.7043454461
  H         9.4233617984        3.3362380960       10.9254502308
  O        -0.7006949408        8.5423464856       11.9328969365
  O         9.9751891717        1.3379689658       13.1686250574
  O        10.1633160023        3.2019752410       11.5313521370
 Cl         6.5868710282        8.1165682719       13.7078386264
  H         3.3383989822        3.5967577632       12.2825303694
  O        11.1326184282        5.3128220113       13.0110884966
  H        10.8883817865        4.6334904801       12.3622787579
 Cl         2.7766756289        5.4792258150       11.9633914875
  O         7.4558125051        3.3081683520       13.1441884113
  H        -0.6918290737        7.9088647370       12.6856458582
  O         3.5977024527        2.5997198193       12.1726763136
  H        12.0301471025        5.6173654184       12.7118482725
  H         7.0627901332        3.9996095994       13.7698227926
  H         7.7450611507        2.6119506661       13.8008100983
  H        10.2677753574       10.1320517574       12.8165639128
  H         7.4079360605       10.0744696165       14.2823397794
  O         6.3049504222        4.5031017447       15.5039260570
  H         6.2887488038        3.7043359888       16.0955654301
  H         2.4782129890       -0.3849237995       12.7187131776
  H         3.3979492182        2.1144924010       13.0403373760
  H         8.4902818130        6.5955696361       15.8616257988
  H         4.9970335196        1.3378362517       16.5932004779
  H         5.3796855153        4.6811219946       15.4170125558
  H        11.3733139788        1.8997483071       14.4265322988
  H         7.1046101301        6.2118752122       16.5544904632
  O         8.0737517221        1.0608852938       14.8055574118
  H         8.3018782768       10.1891773366       15.5798436236
  O         5.1837283185        2.2412221016       16.9859572102
  O         2.1020140772        8.6321687529       12.0637443219
  O         8.0465858634        6.5473170244       16.7189753476
  H         4.4112572453        2.4633313222       17.5312494109
  H         8.3271558424        8.1187772010       17.2388217924
  O        11.9229182799        1.8460917766       15.2512662438
  O         2.8497822678        0.6841003572       14.0106799368
  O         8.5291598146        9.0701832515       17.2446066697
  H         2.0848949199        1.0406349506       14.5771960157
  H         1.1149567335        3.4603304380       15.3209812628
  O         1.2513385637        4.4376811587       15.3601074204
  H         2.5780008675        7.8295713214       12.3801437511
  H        11.4115766176        1.4926652317       15.9824412128
  H         7.6605403351        0.3894467329       18.1088706779
  H         6.5332146707        1.5243974192       18.0767362182
  H         3.5098184256        0.1950492902       14.6460877418
  H         0.8755986490        4.8578486757       14.5702807324
  H         2.7754588898        4.7758755201       15.0907453685
  O         7.3068182574        1.1780515726       18.5434560918
  H         9.5017559250        9.1800507523       17.5402205798
  H         8.7143656927        5.3311987039       17.6370867326
  H         8.7068570910        1.9330389689       19.2563591634
  O         3.6333771908        5.3397659796       15.1705402833
  O         9.6112371111        2.2918298697       19.5405597194
  O         4.6501710704       -0.2946502957       15.9385732317
  H        14.9699871323        5.6214535061       14.2772720849
  O         9.1833764879        4.7045937935       18.3301550476
  H         5.3091980108       -0.7136645574       15.3016576205
  H         9.6977557262        3.0205454657       18.8621578597
  H         4.3156717523        8.6560326965       16.5463767046
  H        10.7893166952        0.9277263943       18.4677522282
  H         3.7254209987        6.5736078414       16.5656615690
  H         4.8469322582       -0.5549965845       20.9687861239
  O        11.0617785016        0.1973600040       17.8579664529
  H         9.2501972680        5.3257321395       19.2005374863
  O         3.9557079375        7.1546376328       17.3469968563
  O         3.9039864674       -0.6296968275       21.1117459500
  H         3.6970169419        0.3397891151       21.2984427940
  H        11.9100975511        9.4554120843       18.2274224502
  O         0.6348104662        4.6184232441       18.1285480829
  H         3.1740339630        7.2703719240       17.9381828625
  H         1.9445181073        3.6299152727       18.9590991411
  H         4.6082374047        5.7575461320       18.3175013848
  O         8.9122944687        5.9421470491       20.8505453556
  H         0.9078208807        4.4731610252       17.2217149640
  H         3.3960548617        3.9817205741       19.2238210096
  O         2.8180980268        3.1469187074       19.1348105433
  H         7.9755096833        6.1946969069       20.5679788423
  H         8.4747849394        3.1512638518       22.4348757515
  H         5.3958304199        5.3615641080       19.5240715525
  H         8.9400229266        4.9955695539       21.2074663707
  H        10.7708734310        4.6329099576       18.1364746992
  O         4.9223019338        4.9747843569       18.7894584894
  O        -1.3975545794       -0.2791099893       21.0927441438
  O         9.3041924354        3.4723918957       21.9405883691
  H         2.7144529240       -0.7216075812       19.4870216081
  H        11.0144005425        6.7282175614       20.6731193837
  H        -1.1438130944        0.5660103283       20.6369724086
  O         6.7968505917        9.1992221250       20.7702432599
  H        -0.9620126831       -0.2172089888       21.9852630200
  H         7.6501170087        9.0642662359       21.1606499195
  O         1.9302475928       -1.0948712960       19.0267579187
  O        11.9773494949        6.5930670054       20.3979926601
  H         9.4079422393        2.9782259499       21.0441908954
  H         6.9869496337        0.2895419341       20.1182534058
  H         6.1585324743        7.4837059841       21.1146433218
  H         2.8622949542        2.3834567652       20.5500987700
  H        11.9643023818        5.8718681930       19.8144434038
  O         6.3537037336        6.4935475890       21.0650523297
  H         1.4807339418        7.9746527340       19.7081393682
  H         3.9223514758        8.3968622216       22.5787645103
  H         6.4134390446        6.3324753327       22.0565259882
  O         2.9397576614        1.8385552189       21.4184767341
  O        10.5175898456        9.3922005743       23.7111809885
  O         3.7825245497        8.0678432889       23.5723964265
  O         7.3936635062        2.6777915557       23.9102036781
  H        11.7049167752        5.8658863247       24.4910568039
  H         2.0519116906        1.8004142496       21.7519265163
  H         4.3598734515        7.2553569566       23.6407591518
  H        11.0563420090        8.6459333055       23.9638984431
  H         6.5386503117        2.8747451739       23.5016815731
  H         7.5144896102        3.3412247786       24.5926203966
  H         3.6703597795        3.0606436396       23.2099553497
  H        11.1118064819        0.5968859794       23.7221900282
  H         5.2651125348        4.8869110454       23.5688769132
  O        12.4069772095        7.1023802713       23.5167731989
  H         2.1979897471        7.2747816842       23.4307093219
  O         5.6874717049        5.7585403303       23.6413472655
  O         4.5506144784        3.0830043475       23.6070000872
  O        11.3095281623        4.9252633352       24.7041952394
  O         0.5938334108        2.2237609173       23.2165299507
  O         9.0353006802        5.9218119277       23.6773425296
  H         7.8454661894        1.0203791486       24.3366673672
  H         4.7098784499        9.0556294553       24.2466346835
  H        11.0060322048        2.8567406397       23.1429916907
  H         8.4007389965        6.4749270419       24.1080670596
  H        12.2848710276        6.7077470279       22.6260342335
  H        10.3815163504        5.1594850059       24.3909988999
  H         6.3088957957       -0.1010692398       24.3995093008
  H         9.0251277040        9.6527768847       24.4262019725
  H         4.4315883479        3.1510842159       24.5951177652
  H         6.0166546559        5.7953703692       24.5354306288
  O         8.0149922183        9.7614285390       24.6693252454
  O         5.3731838316        0.0376555037       24.6502496331
  H         1.1688290688        2.4820940321       23.9365508404
  H         9.2089928297        6.2241252846       22.7535452051
 Pt         2.5990865474        9.4873337842       27.0413560333
 Pt         5.3161826779        9.4147291197       26.8896894442
 Pt         8.0171168494        9.3261450352       26.7993030136
 Pt        11.0848361352        9.3899813353       27.0202882114
 Pt         8.1287603255        4.6006069336       26.9369520444
 Pt         4.0761520389        7.0598018215       26.9488751899
 Pt         9.6771538860        7.1097840942       26.8740089591
 Pt         6.9112809736        7.0171582307       26.8686906896
 Pt        11.1744684128        4.5774532518       26.8374335281
 Pt         1.3548674273        7.0208586444       26.8060590658
 Pt         9.5646970549        2.0744869216       26.9562363245
 Pt         6.9030020620        2.2304870826       27.0623092529
 Pt         2.7492507618        4.7060613800       27.0502858283
 Pt         5.4811054072        4.6578945070       26.9597328281
 Pt         1.1462129524        2.1116935773       26.9881075716
 Pt         3.9814362695        2.1802827053       26.9867139693
  H         8.4625924472        1.9100446942        9.3503368341
