     242
Tv_1:  11.152900   0.000000   0.000000 Tv_2:   0.000000   9.658700   0.000000 Tv_3:   0.000000   0.000000  26.829700
 Pt         5.2913030551        8.0245367863        2.3626349911
 Pt         6.7903169899        0.8680052341        2.4786710188
 Pt        10.9613784921        8.0520452691        2.4815517443
 Pt         8.1119093592        8.0258656703        2.4738524074
 Pt         8.1614418934        3.2486696004        2.5630855007
 Pt         2.6027526743        8.0408730201        2.5085003250
 Pt         9.5693903267        5.5977138727        2.3479847793
 Pt         6.7457992221        5.4711879207        2.4677190119
 Pt         5.3211526307        3.2009746258        2.5885522335
 Pt         3.9758130190        5.6519232742        2.5639266415
 Pt         9.5958315097        0.8149371297        2.5108871691
 Pt         1.1577997415        5.6126268848        2.4932177395
 Pt         1.1555350954        0.7513910942        2.4623415628
 Pt         2.5382961901        3.1753211634        2.4933589630
 Pt         4.0489003431        0.8011408940        2.3190517926
 Pt        10.9200742900        3.2896338535        2.4079821751
 Pt         5.9192758535        6.8832249473        4.7834753438
 Pt         8.5765369715        6.7077123235        4.6602867519
 Pt         7.3404661610        9.3147833878        4.8960238387
 Pt         7.2104839373        4.2926249783        4.9285348155
 Pt         8.7776800002        1.9055235300        4.8340127255
 Pt         5.8705032332        1.9754857408        5.0084648058
 Pt         9.9404633798        4.3863023120        4.7880291670
 Pt        10.1526210228        9.0610924587        4.8868425824
 Pt         1.6895458537        9.2023511168        4.8192775435
 Pt         0.4173427512        6.8298349305        4.8530034890
 Pt         3.0994414354        1.8310494276        4.7152426113
 Pt         3.2105043487        6.7727253053        4.8903784023
 Pt         4.6192466130        9.2277311948        4.7407724814
 Pt         4.5163837551        4.4421375581        4.9392685752
 Pt         0.3802674786        1.8851722140        4.8638375839
 Pt         1.5759963487        4.2515994150        4.7267099449
 Pt         7.6824762473        3.0824991648        7.3120656256
 Pt        10.6819761905        7.7487052106        7.3522414302
 Pt         9.0250259017        5.3968025528        7.2220415185
 Pt         9.1941976298        0.4860730109        7.1612494381
 Pt         6.4315680274        0.5848147065        7.1910681584
 Pt         3.4610545744        5.4784333938        7.2819730626
 Pt         3.6313035816        0.6491278425        7.1825818009
 Pt         7.7978725439        7.8037044826        7.2103342797
 Pt         4.8737676541        2.9290455618        7.3673190800
 Pt         2.0945899716        2.9521546279        7.0942021673
 Pt         0.7373025966        5.3451192627        7.2108460903
 Pt        10.4718949720        2.9881746350        7.0576566269
 Pt         6.2891485238        5.4873355952        7.1818412230
 Pt         0.8079765846        0.5668057066        7.2091951347
 Pt         2.2748411666        7.8966248591        7.1643470051
 Pt         5.0233669201        7.9637839326        7.0899704107
  O         6.2849683186        5.7192956998        9.4988955657
  O         2.3980453862        8.0924997916        9.2370931647
  O         0.4153554696        5.0787781351        9.2025393157
  H         3.8857332097        2.3118068930        9.7429621575
  H         7.3316181713        5.6463515395       11.3374951280
  O         0.6273283512        0.5210337853        9.4204669416
  H         1.9030379339        8.8836623540        9.5072461328
  H         3.8947236486        4.2078615910        9.5718345300
  O         9.1046011894        0.7087903610        9.3122820134
  H        10.8044326438        0.6530866113        9.6369303743
  H         1.0491513854        1.3941180585        9.9467733286
  H         1.3150246333        5.0439274738        9.5337782210
  H         7.0061266217        2.5023653603        9.8642490966
  H         0.7835674897        3.0132667948       10.7312438125
  H         8.4965339525       -0.0405580720        9.6477930003
  C         7.4545965995        5.7592972956       10.2303770245
  H         3.3747548743        8.0703576555        9.4432753319
  O         7.8709726546        2.7722469676        9.3501481134
  H         5.5255218628        8.5950199098        9.7541753654
  H         8.0318961305        6.6671103003       10.0306010841
  O         4.9534608016        7.9135323373        9.2135778317
  O         4.5528956847        2.9328353631        9.4233131177
  O         1.5647142104        2.4608426878       10.4305700443
  H         2.2351846959        2.3823926746       11.2034450041
  H        11.0243956962        8.0148391424       10.1279420813
  O        10.5319037818        7.4051896360        9.4790903404
  H         5.2108714530        2.3846235225       11.4722214717
  O         6.2270076710        2.3516160812       11.4652545474
  O         3.3906264977        5.1136119352        9.4108490048
  H         5.7618418123        6.6424818140        9.4676634801
  H         8.0721165377        4.8961559548        9.9051768259
  H         8.9720918725        7.0363311187       14.1750660790
  H         6.5006678214        2.5210263835       12.4266498323
  H        10.8496819484        6.4379007044        9.6831952179
  H         6.7226708104        8.7401498247       11.5102248290
  H         6.5134449919        0.6078967776       10.8599784572
  O         6.6844384585        9.2630135998       10.6165394237
  O         9.8650818390        6.8256904029       14.5931511103
  H         3.5115306718        5.7078490390       10.1642646850
  H        10.3277967598        2.2543930940       12.2279628230
  H        10.2641664696        6.1040600080       14.1118467200
  H         9.4244769223       10.2541905472       13.5773135929
  H        12.4365941525        8.3258753104       11.9874391330
  H         9.5921210671        3.3019327011       11.0806886815
  O         0.2303569344        8.3513801363       11.8787721673
  O        10.2191568690        0.8898596757       13.0436934448
  O        10.4102949111        3.1967321867       11.6637919355
 Cl         6.7705233594        7.8109767749       13.4745665542
  H         3.5125278641        3.2981794635       12.4312108986
  O        11.6272955446        5.2699622113       12.9068343655
  H        11.0963706995        4.6240035973       12.3718633136
 Cl         3.5981953812        5.5804907537       12.4413771423
  O         7.0077291627        2.5974687288       13.9741917049
  H        -0.2240152616        7.5587820984       12.2445554685
  O         3.5010049507        2.3423229579       12.1720737976
  H        12.5751727477        5.3065029404       12.6574430875
  H         6.6489841814        3.2988316188       14.6216008616
  H         7.2991692666        1.7129148582       14.3915545993
  H        10.5723896185        9.7523643055       12.5494884224
  H         7.9534897350        9.1890920387       14.4394974384
  O         6.1240110599        4.3291597040       16.1148570854
  H         6.0190946541        3.5341947769       16.6445621747
  H         2.8454648465       -0.3145741941       12.9440000731
  H         3.5048009725        1.8179653962       13.0601333636
  H         9.1394241532        5.8760789515       15.9249438684
  H         5.2465689287        1.1458849693       17.0961074733
  H         5.2297960544        4.6551336091       15.7980319077
  H        11.1433394359        0.3730473762       15.0926621097
  H         7.6901933370        5.1497618434       16.3533881744
  O         8.3871132453        0.3149130083       14.8727409086
  H         8.4139613405        9.7907821542       15.8476082447
  O         5.3754245352        1.8185200132       17.7926669703
  O         2.8263163395        8.7224385211       12.1903165471
  O         8.3789310497        5.8456939894       16.6742100025
  H         4.5325981046        1.9647407717       18.3735523814
  H         8.4659563412        7.6990400491       17.0318797591
  O        11.7508020666        0.8082091538       15.7432017957
  O         3.0299688048        0.7155375115       14.2221195300
  O         8.5701613077        8.5674590849       17.4356946693
  H         2.3102698354        0.8037876224       14.9522762370
  H         0.8130819720        2.7282838168       15.1024564750
  O         1.3996448517        3.5164769259       14.9256153658
  H         3.2099183688        7.8982264670       12.5553956340
  H        11.5973125212        0.4957963599       16.6711238218
  H         7.4723043512       -0.2764862054       18.3960307064
  H         6.3633373292        0.7926940325       18.7056680684
  H         3.8031386914        0.2885702894       14.6960225269
  H         0.9158211940        3.9883430303       14.2117848433
  H         2.9297973560        4.4150110169       15.4441122667
  O         6.9420396748        0.0827000427       19.1183184339
  H         9.5584464116        8.6549246065       17.5939381841
  H         9.0419384700        4.8011026123       17.9432394107
  H         8.5845672398        1.4793423746       19.4376069974
  O         3.4651354685        5.2108135676       15.4261846435
  O         9.5241258720        1.7854402664       19.4692794624
  O         4.9216915217       -0.5769824445       16.0994551811
  H        14.7874775529        5.3803262121       14.4136157621
  O         9.4318326205        4.1844190071       18.6694011449
  H         5.5409358936       -0.9321782181       15.4063905988
  H         9.4878356800        2.7104968925       19.0457227620
  H         4.7996412578        8.2739808193       16.6470899351
  H        10.6444587011        0.6014422492       18.8791463364
  H         3.6553265624        6.0956966014       16.7974749407
  H         5.5101772034       -0.4574140032       21.1976573865
  O        11.0680107003       -0.0776627843       18.2981984186
  H        10.0048305938        4.7494418026       19.2718508294
  O         3.8678606878        6.6922497791       17.5661580868
  O         4.5623845487       -0.5953317963       21.3048213366
  H         4.0410812771        0.2122217676       21.2265072601
  H        11.8236897581        9.1419023166       18.7079154476
  O         1.1470057973        3.7161668197       18.0221631470
  H         3.0532819097        7.2435195463       17.8475172386
  H         2.5022972714        2.9527932492       18.8061425243
  H         4.2560168173        6.0198228789       19.1871306065
  O        10.8885467664        5.4176199619       20.9590567322
  H         1.1241294224        3.7026737718       17.0270519946
  H         3.8295419938        3.6795656106       19.4291384726
  O         3.2972966509        2.8008481297       19.3650976326
  H        10.5254631184        6.2970088563       21.1320375576
  H         9.1772438803        3.0414861626       22.3238260880
  H         5.4013965304        5.6921061463       20.2307195525
  H        10.3192473253        4.8125330426       21.5251297732
  H        11.3231590777        3.9481045976       18.1201527180
  O         4.4810956099        5.3539978780       19.9374271209
  O        -1.0287528193       -1.5876825736       21.2395143038
  O        10.1307840450        3.0020969412       22.0442404398
  H         2.8289987705       -1.0029235280       19.9868805948
  H        12.6213756660        5.5285664756       21.1484824749
  H        -0.5570264715       -1.4462981659       20.3870243805
  O         7.3589356586        8.4240902577       21.3953460496
  H        -0.6492219516       -1.0565484326       21.9692152592
  H         8.3717201135        8.3752291072       21.4534167969
  O         2.0549177699       -1.4506901224       19.6033283221
  O        13.4346791782        5.7008587755       21.6243959589
  H        10.2017657029        2.4304799426       21.2343289346
  H         7.2836541063       -0.7132618944       20.5497988103
  H         6.8027711528        6.8892178781       21.4486410558
  H         2.9927317648        2.1819307970       21.3057945403
  H        14.1456764338        5.2408707518       20.9902832136
  O         6.6106943776        5.9297068094       21.6401842859
  H         2.1402917050        7.3552868542       20.0683686871
  H         4.2631992393        8.2637698631       22.7138168376
  H         6.0689993263        5.9349460540       22.4405258440
  O         3.2288357589        1.5698842208       22.0423515996
  O        10.9577879537        8.9758507439       23.5757515331
  O         4.1265583187        7.9129583463       23.6261530706
  O         7.9363628224        2.6684831746       23.6219024710
  H        11.7087694085        5.5662957381       24.5063020627
  H         2.3833874358        1.5135803894       22.5755715931
  H         4.3804791393        6.9327727846       23.6609717371
  H        11.3428960600        8.1800122943       24.0026791922
  H         6.9702649845        2.6502011369       23.3308303187
  H         8.0044523124        3.6243513604       23.8675687969
  H         4.3313728587        2.0921058492       23.0001873790
  H        11.6220038627        0.0077343862       23.8104109800
  H         5.0286272173        4.5020805346       23.8862446905
  O        12.7096616946        6.6616598560       23.9968681801
  H         2.4211384466        6.9809085243       24.3757151623
  O         5.2877474780        5.4369783263       24.0796450466
  O         5.1492988351        2.4954948687       23.5604915136
  O        11.0834051186        4.6853405069       24.6556101366
  O         0.9162059846        1.6818584050       23.6381721192
  O         8.7021729224        5.3144631757       23.2816692662
  H         8.2963510503        1.0897160258       24.0882621089
  H         5.0083804988        8.6364020616       24.4419279406
  H        11.1633295214        1.8904435144       23.3535335986
  H         8.5958829212        5.8796985102       24.0666017937
  H        12.9687824059        6.3784823073       23.0599028706
  H        10.2917422243        4.6962684153       24.0293267760
  H         6.5619245428       -0.1408902420       24.4566787687
  H         9.2684328659        9.4554703155       24.1951781603
  H         5.2829320911        1.7435430245       24.1915733466
  H         5.6476600455        5.4467397957       25.0294647651
  O         8.3016814455        9.7674819800       24.1502873092
  O         5.6142958067       -0.1741667377       24.7652073852
  H         1.1540862371        2.2908209140       24.3822403841
  H         8.0688716647        5.5136622611       22.5208143747
 Pt         2.5253301900        9.5004778707       26.9933979773
 Pt         5.3088977551        9.5753609910       26.8374058136
 Pt         8.1482738549        9.3708231061       27.0006123988
 Pt        10.8459822815        9.4140930084       26.8395245605
 Pt         7.8982391224        4.7363845996       26.9126573651
 Pt         3.7337242156        7.0283737831       26.9756322483
 Pt         9.2291838061        7.0762262388       26.9940106566
 Pt         6.5087527679        6.9843689161       26.9277581185
 Pt        10.5786722058        4.7136736592       26.8000644131
 Pt         1.0356810290        6.9592018963       27.0732414277
 Pt         9.2628866934        2.2244902738       27.0424392154
 Pt         6.4787382936        2.4164464726       27.0456681381
 Pt         2.3372138758        4.5770056027       26.8556252143
 Pt         5.0043655440        4.6504128780       27.0575293683
 Pt         1.0194339691        2.1385925480       26.9247300006
 Pt         3.8006590264        2.2784921725       26.8783096197
  H         8.4593943731        1.7745540710        9.4899513139
