     242
Tv_1:  11.152900   0.000000   0.000000 Tv_2:   0.000000   9.658700   0.000000 Tv_3:   0.000000   0.000000  26.829700
 Pt         5.4546980333        8.0415045367        2.5056499519
 Pt         6.9149775845        0.8977108729        2.5238255751
 Pt        10.9533250680        8.0547446931        2.5176715543
 Pt         8.1526291691        8.1355832348        2.2262382343
 Pt         8.2398838689        3.1656600204        2.4841019208
 Pt         2.5961544847        8.0514901772        2.5677289371
 Pt         9.8008952352        5.6466744069        2.4610200219
 Pt         6.8769181815        5.6802481493        2.4816006025
 Pt         5.5235428616        3.3928104980        2.4453236409
 Pt         4.0115973823        5.7342289111        2.6056263361
 Pt         9.6741037130        0.7671525282        2.5090398079
 Pt         1.3827724961        5.6706472216        2.5920746727
 Pt         1.2798078908        0.7818801460        2.4917450054
 Pt         2.8188205742        3.2212814632        2.3448181279
 Pt         4.1521026737        0.8856365807        2.4378680796
 Pt        10.9976116094        3.1433626907        2.4705730084
 Pt         5.7841807647        6.5959672572        4.9003303143
 Pt         8.6457715751        6.6641618805        4.6947507432
 Pt         7.2622088358        9.0100470520        4.6717415689
 Pt         7.0934319649        4.3238600780        4.9602391206
 Pt         8.4421916342        1.8033887010        5.0071607703
 Pt         5.7322577797        1.9938822000        4.9017797296
 Pt         9.8719923863        4.2089021730        4.7280607648
 Pt         9.9205578819        8.9892976156        4.8365465433
 Pt         1.6313983705        9.0958573760        4.8276618310
 Pt         0.2910613370        6.7113472457        4.8989732658
 Pt         3.0059794750        1.8940864116        4.6973044929
 Pt         3.0780200184        6.7574130105        4.9477187094
 Pt         4.4732571895        9.1515516683        4.8307708834
 Pt         4.1900427234        4.1939453950        4.8064098966
 Pt         0.0566091520        1.7281410957        4.8906811285
 Pt         1.3915060127        4.0672337587        4.6878285530
 Pt         7.4242759695        3.0322178532        7.3798813475
 Pt        10.2939645110        7.5906459999        7.2337273003
 Pt         9.0082150193        5.2371405324        7.2389343704
 Pt         9.0559557921        0.4424168588        7.1974162703
 Pt         6.2769061754        0.4694430709        7.0842363599
 Pt         3.2945604214        5.2656589107        7.2037957694
 Pt         3.3259025738        0.5438064427        7.1978014535
 Pt         7.4819448652        7.7526823824        7.1559990017
 Pt         4.7532678116        2.8341570260        7.1791609664
 Pt         1.9403464142        2.8168242049        7.0463491099
 Pt         0.5960713599        5.1691204129        7.0571949827
 Pt        10.1690989835        2.8170398802        7.1173634807
 Pt         6.2021163035        5.3975563221        7.2702373247
 Pt         0.6481054450        0.4052888933        7.2468530782
 Pt         2.1888733236        7.7423236372        7.3569656264
 Pt         4.7618349243        7.9418359282        7.2215895407
  O         6.0942381308        5.6763806905        9.6501038228
  O         2.1201265372        7.8063726155        9.4588357983
  O         0.4087535842        5.1294961268        9.3352881614
  H         4.0849938536        2.0344193494        9.3384585338
  H         7.3039634143        6.4207480689       11.2192260056
  O         0.5034410637        0.2736008109        9.3737036426
  H         1.6407617332        8.6079691004        9.7453176855
  H         3.8150367587        3.8037340921        9.3037298604
  O         8.9847826683        0.5634879589        9.2476785122
  H        10.7308276302        0.2857611312        9.6619824104
  H         0.8638205111        1.1838650320        9.8546452006
  H         1.3607475326        5.1637237553        9.6117165186
  H         7.0185867413        2.8943145347       10.1888415051
  H         0.4574010200        2.7470003589       10.6894928814
  H         8.2452715776       -0.0593876929        9.5819104947
  C         7.3221266470        6.1783860954       10.1607150192
  H         3.1369297808        7.8433850141        9.6350678702
  O         7.7055954697        2.8301013482        9.4007205792
  H         5.4086362077        8.4414519040        9.7834379580
  H         7.5147221421        7.0988949821        9.5554902294
  O         4.7364052005        7.7791896388        9.4150151492
  O         4.6579714447        2.7756683070        9.1806872660
  O         1.3127258588        2.3799500616       10.3250171190
  H         2.0357855114        2.4857264342       10.9938044703
  H         9.9708523343        8.0953669420        9.7533615927
  O        10.1174740542        7.1889964472        9.3222660732
  H         5.3404608757        2.8483871691       11.2432049088
  O         6.3185987010        2.6617571895       11.4236313388
  O         3.1291321400        4.7277789615        9.2676727472
  H         5.4644269655        6.5589060368        9.6186664374
  H         8.0662153247        5.3558689182       10.0439840779
  H         9.0107369386        7.1268469095       13.5582001761
  H         6.5110643303        3.2237187775       12.2650364591
  H        11.1827081283        6.0852180280        9.3275542137
  H         6.6026867599        8.8586616524       11.5392490454
  H         6.1731227179        0.5102356537       10.7188869723
  O         6.5550317442        9.2428183141       10.5847384625
  O         9.8441218884        7.3389112182       14.1642001783
  H         3.6548356452        5.4000217683        9.8091926302
  H        10.0644374276        2.8982998460       12.2806897210
  H        10.3881997818        6.5508406174       14.0133950059
  H         9.4709804963       11.1870882695       13.9094892518
  H        11.6670470307        9.0168845108       12.1046823805
  H         9.5543604516        3.9656440586       11.1455212963
  O        -0.4748414617        9.0754002045       12.1625641264
  O        10.3604176835        1.7731661073       13.4810327579
  O        10.3484923207        3.5641467372       11.5449556996
 Cl         6.7712727518        8.4217521128       13.4083500985
  H         3.4522644685        3.7977740874       12.2221859469
  O        11.5640852990        5.1840234535       13.6447708242
  H        11.0406258066        4.5596916252       12.9900688359
 Cl         3.0274457340        5.7201907213       12.3434861761
  O         7.3610712871        3.4359026798       13.6273331552
  H        -0.7701581744        8.5641218065       12.9575037072
  O         3.4422700464        2.8304981150       11.9141245129
  H        12.3255964433        5.4033115039       13.0884892625
  H         6.9540706925        3.9514266300       14.3377178006
  H         7.3943961443        2.5343989337       14.1226961478
  H        10.6196849605       10.6295021596       12.9241382334
  H         7.6445384834        9.9160788419       14.2944618449
  O         6.6655114823        5.1903180005       15.8190211122
  H         6.3909107971        4.6906100731       16.6455620679
  H         2.7391909754       -0.2122395253       12.6413155940
  H         3.3344101603        2.2808507411       12.7249258504
  H         9.2005823787        7.1013821105       15.7583396821
  H         5.4776545287        2.0819528967       16.8785996177
  H         5.7135550871        5.4490246318       15.5084981896
  H        11.4320340705        1.3527366960       14.9004455913
  H         7.9085912098        6.3094484650       16.4832789125
  O         7.9867434766        1.1876269610       14.6731855522
  H         8.3408913544       10.5283266781       15.5719270305
  O         5.5534522228        2.8362212500       17.5594298180
  O         2.3431974993        8.8254871209       12.0038453084
  O         8.7753014128        6.8201048860       16.6437885469
  H         4.5948409206        3.1207971500       17.6730427664
  H         8.6111632180        8.3888028752       17.1948481992
  O        12.1412251359        1.0848990122       15.5300846298
  O         3.2130539577        0.9445189998       13.8619621134
  O         8.7027137916        9.4233678585       17.2144199752
  H         2.4731801428        1.1679489869       14.5249194652
  H         1.2029661862        3.0784735406       15.6631723510
  O         1.5629753467        3.9586273860       15.8669410281
  H         2.5409094050        7.8850921911       12.2026259495
  H        11.7311549140        1.1725756853       16.4514463020
  H         7.8965261294        0.8389007881       18.2162584447
  H         6.9028631881        2.1155511515       18.5719576853
  H         3.9570521313        0.7944755069       14.4485897663
  H         1.0915520320        4.5247057376       15.2251042212
  H         3.4212362998        5.5192912477       15.1266179098
  O         7.5469452178        1.4993797906       18.9655516240
  H         9.6669452854        9.5105388202       17.5316249595
  H         9.3943792338        5.6729352568       17.7605064641
  H         9.0591778012        2.3301570662       19.3095985032
  O         4.2109419475        6.1369502576       15.3187914619
  O         9.8940858694        2.6461876853       19.7836945715
  O         5.2982253515        0.4397945594       15.8053244018
  H        15.3280517180        6.6136491613       14.4732084782
  O         9.7011423607        5.0736451847       18.5380555640
  H         5.9970107229        0.0458848518       15.3054020878
  H        10.0657195140        3.5310034605       19.3653241057
  H         4.7361003662        9.4083663674       16.2065226760
  H        10.9372864726        1.4280233460       19.0828953814
  H         3.5346182553        7.3188390674       16.8771049710
  H         5.2654327537        0.2496575345       21.2359482296
  O        11.1451815066        0.7479473493       18.4101723388
  H         9.6672771918        5.6914833443       19.3477454798
  O         3.9642374898        8.0494014869       17.3733945470
  O         4.3256103193       -0.0325473813       21.0550198786
  H         3.7512106354        0.7770229424       21.2871399147
  H        11.9788826679        9.9444165092       18.6666568244
  O         1.4200775578        5.2615803530       18.1979594493
  H         3.2376698396        8.3915613895       17.9735519067
  H         2.6929775439        4.4862190209       18.9983854146
  H         4.7950942636        6.9309411332       18.9797469323
  O        10.3133439300        5.5076794919       21.1224741575
  H         1.3996334478        4.8229584159       17.3343044984
  H         4.2531151286        4.9661263531       19.1268772615
  O         3.5938879567        4.1384667586       19.1874384238
  H        10.0832928134        6.3599117510       21.5327117281
  H         9.4248763697        2.8009000640       23.0337871006
  H         5.4800637120        6.6058632324       20.3998483332
  H        10.2577376420        4.7378586051       21.7838714178
  H        11.6427626689        5.1511903483       18.5808197401
  O         4.6518814087        6.5195246819       19.8733140606
  O        -1.1953915455       -1.1880211923       21.3168983481
  O        10.1468175069        3.0841992652       22.4795299449
  H         2.7895689197       -0.0650002982       19.6195051085
  H        12.8860997553        6.2027200077       20.1430445979
  H        -0.8628325604       -0.5230470025       20.6791715668
  O         6.9416365006        9.7729440040       21.1594968725
  H        -1.0443486002       -0.7802043055       22.1883163871
  H         7.6342447409        9.8586550195       21.8403795801
  O         2.0237171997       -0.5055700160       19.2673126858
  O        13.2303156930        6.9149060198       20.7954699770
  H         9.9881085128        2.8006405501       21.4405894072
  H         7.2530694943        0.5087293149       20.2671404013
  H         6.9704908757        7.8358185810       21.3419287629
  H         3.1732788124        3.0264638000       20.7724825694
  H        14.2289315111        6.8586685955       20.7623360096
  O         6.7817065616        6.8602140374       21.5692925416
  H         2.0226766573        8.3101073967       19.8540549620
  H         3.8163373534        8.7804023301       22.6818188352
  H         6.1671217858        6.8396077128       22.3176977081
  O         3.3546190015        2.5812002323       21.6096075234
  O        10.7427223204        9.4092924836       23.8358632235
  O         3.5343304979        8.1995756133       23.4451103015
  O         7.8574034892        2.8895737757       23.9556132688
  H        11.8018398422        5.7900634410       24.5671387493
  H         2.6088113413        2.7356702664       22.1987578098
  H         4.1132436370        7.3484954713       23.4330447497
  H        11.3893470124        8.6021600245       23.8110862883
  H         7.0296762383        3.0815960008       23.4646702412
  H         8.0014670728        3.5401101390       24.6790458799
  H         4.8008444560        3.2161824212       22.6905339700
  H        11.3494776313        0.5120884690       23.9479975910
  H         5.3416843005        5.1310345633       23.5797141275
  O        12.2546419890        7.2284907747       23.3308599855
  H         1.9506034134        7.6940916781       23.3571316656
  O         5.3980739509        6.1762647145       23.7906298024
  O         5.2615053782        3.4895360709       23.5378111701
  O        11.2531726704        4.9390707227       24.7200260132
  O         1.3652648124        1.9978520966       23.5044014819
  O         8.8092811755        6.1171158622       23.6991056587
  H         7.9151974337        1.0608664565       24.3255040710
  H         4.7030736710        9.0794101412       24.3071633574
  H        11.7099198375        2.4770119315       23.1472075248
  H         8.3275755966        6.5849762910       24.3891511836
  H        12.4243155033        7.0102749145       22.3964124187
  H        10.4770669105        5.3432619973       24.1596264299
  H         6.2834456495       -0.2126733909       24.3662535369
  H         9.2093059250        9.7170944690       24.3706494446
  H         4.8471230989        2.8286651687       24.1643473163
  H         5.4232845130        6.2532799447       24.7886945355
  O         8.2093813666        9.8035380532       24.4865660963
  O         5.3641207381        0.1497235628       24.6120885397
  H         1.5295266804        2.3019390517       24.4696921873
  H         8.3374011423        6.1284120550       22.8892208057
 Pt         2.6261645845        9.4075602351       27.0961140352
 Pt         5.3218121440        9.5989742665       27.0363639611
 Pt         8.1770958740        9.3962925954       26.7601320738
 Pt        10.9375594939        9.4377963731       26.9067184617
 Pt         8.2918636825        4.6498829210       26.8333132281
 Pt         3.9975040576        7.1463775536       27.0158724571
 Pt         9.6186354092        7.1432742523       26.9918164627
 Pt         6.7738306182        6.9350766591       26.8070568791
 Pt        10.9567001674        4.5241593032       26.8735875821
 Pt         1.2145545284        7.0766053998       27.0246938701
 Pt         9.5656330661        2.2226108737       27.0742911780
 Pt         6.7165794276        2.3471601321       27.0031178550
 Pt         2.6439798616        4.6768195830       27.0395963657
 Pt         5.3993703875        4.6276412580       26.8473643261
 Pt         1.2714233028        2.1533533624       26.9272728858
 Pt         3.9823571777        2.3111792486       26.8981165451
  H         8.2340530351        1.9327958745        9.3932343278
