     242
Tv_1:  11.152900   0.000000   0.000000 Tv_2:   0.000000   9.658700   0.000000 Tv_3:   0.000000   0.000000  26.829700
 Pt         5.5129506515        8.2111076861        2.4497278578
 Pt         7.0740196964        0.9146371259        2.4586800199
 Pt        11.1054075137        8.0528364959        2.5157669908
 Pt         8.2782621303        8.1352695993        2.2915389969
 Pt         8.2428372227        3.3819746642        2.3503675805
 Pt         2.8661862393        8.1866063533        2.5280653762
 Pt         9.6674981612        5.6532298144        2.4708006344
 Pt         6.9771440204        5.7198108687        2.5699259393
 Pt         5.4430379728        3.3745359687        2.5192742244
 Pt         4.2594305457        5.7709781018        2.5998060421
 Pt         9.6687558870        0.8840236263        2.4551219490
 Pt         1.4183713836        5.7243487685        2.5057181077
 Pt         1.2826601144        0.8679588197        2.3852180525
 Pt         2.7270659493        3.3560294095        2.4332366733
 Pt         4.2615937077        0.9494077327        2.4557059661
 Pt        11.1212765491        3.2319613475        2.4212667358
 Pt         5.8116527549        6.7169002545        4.8286957916
 Pt         8.6212302408        6.7683104838        4.7698744254
 Pt         7.3297823025        9.1402497124        4.6701911828
 Pt         7.2405659891        4.2828641126        4.8737411721
 Pt         8.7007930889        1.8685693215        4.7419010156
 Pt         5.9141575604        1.9441264387        4.7636026331
 Pt         9.8868929287        4.2080329741        4.7372775205
 Pt        10.1298402193        9.2433423253        4.8296660063
 Pt         1.7515358824        9.2436383897        4.7322275410
 Pt         0.1629480964        6.7811651522        4.9242332102
 Pt         3.1594582927        1.9222560981        4.7990775211
 Pt         3.0040383302        6.8956465744        4.8985437735
 Pt         4.5917904299        9.1816478967        4.8294748991
 Pt         4.4997279935        4.2580903083        4.8455589587
 Pt         0.5177669738        1.9152957854        4.7207968494
 Pt         1.5904905082        4.3768835352        4.7498467167
 Pt         7.5104787996        2.9380346207        7.2192780154
 Pt        10.3240106442        7.7682634502        7.2215710528
 Pt         8.9688543655        5.3514722030        7.0309218694
 Pt         8.9617049370        0.5470916517        7.1907501640
 Pt         6.1919000279        0.4802422224        7.0291251577
 Pt         3.3136697262        5.2197274773        7.0608297096
 Pt         3.4262194486        0.5873586990        7.2018830906
 Pt         7.5687371248        7.8230517353        7.0842893069
 Pt         4.8337032601        2.8135251803        7.2499489662
 Pt         1.7822140583        2.7746222034        7.2245494069
 Pt         0.5396682934        5.2213713565        7.0656207493
 Pt        10.2493325562        2.8115320204        7.0622941882
 Pt         6.2402817983        5.3923937192        7.1940792115
 Pt         0.7410749797        0.4423456039        7.1699681739
 Pt         2.1482661759        7.7282527739        7.1516843255
 Pt         4.8976949551        7.8094038036        7.2206391883
  O         5.9915930956        5.5023847705        9.3564751367
  O         1.9691719294        7.8511215376        9.2400666742
  O         0.5051479116        5.1436483332        9.0320225003
  H         4.3166228875        2.2283573334        9.6177749031
  H         7.1694440574        5.1055257674       10.9188590640
  O         0.4423218714        0.3837683373        9.3020027942
  H         1.3754732992        8.5942557898        9.5862456299
  H         4.1109315294        3.7913513455        9.3163147297
  O         8.9303225813        0.4516549268        9.2446984112
  H        10.5734396564        0.4170211877        9.3814785499
  H         0.8939134149        1.2776661160        9.6919526255
  H         1.4537653330        5.0164389346        9.3495256263
  H         6.8938778869        2.6158757905        9.8368396476
  H         0.7816931482        3.1077623279        9.9768818167
  H         8.1893610020       -0.1294571514        9.5540929240
  C         7.2064003072        5.7117601541       10.0222549522
  H         2.8948150680        7.8671339822        9.6243873487
  O         7.7440564706        2.7996193174        9.4054390361
  H         5.1215294412        8.1557924716        9.8765955397
  H         7.5840305566        6.7736091361       10.2391709392
  O         4.6301267542        7.5484660819        9.2882513844
  O         4.8072244706        2.9940532451        9.3086749451
  O         1.5599542309        2.5735274502        9.6943933252
  H         2.2062147868        2.6186999231       10.4195725784
  H        10.3670972491        7.9688174170       10.2402357456
  O        10.1033633771        7.3195120371        9.4940245390
  H         5.1738498103        2.2976716045       11.7967672532
  O         6.0610460168        1.9849759301       11.4640241286
  O         3.2277214299        4.9808389181        9.0735206431
  H         5.2938152882        6.4540863921        9.4978633992
  H         7.9903485473        5.2895353632        9.3312245508
  H         7.9890029071        5.5275673086       13.8609633628
  H         6.6973641279        2.0249230607       12.2265998616
  H        10.7985100313        6.5657138605        9.5375850751
  H         6.3517164102        8.3720131282       11.6563092164
  H         5.9787343289        0.2672400043       11.1767643419
  O         6.1076903839        8.9859645372       10.9306392264
  O         8.5266763318        4.7421993340       14.2614470574
  H         3.6530755687        5.6933594271        9.5439809916
  H        10.3881307900        2.8578030330       11.6112072406
  H         9.4560484971        4.8919000741       13.8672584730
  H         9.3401945334       11.2928301491       12.9356782606
  H        11.9603818343        8.5964441348       11.8364233162
  H         9.8119936875        3.7438499079       10.4140019753
  O        -0.2546984669        8.7329831277       11.7440258274
  O        10.2474804679        1.4826908714       12.5522530467
  O        10.6067761189        3.5521120683       10.9482798539
 Cl         6.8504942902        7.2162226608       13.1392208490
  H         3.2277614019        3.3214875113       12.2012643959
  O        10.6882051873        5.5190969939       13.0342373802
  H        10.7976310618        4.9667481135       12.1705243578
 Cl         2.7857771638        5.3454783446       12.6209889474
  O         7.8770997382        2.1444984536       13.6308685852
  H        -0.5537371485        7.9823016573       12.2979781777
  O         3.3023099721        2.3862145287       11.8069234529
  H        11.6205397843        5.7598627601       13.2483582012
  H         7.9802229216        3.0389401246       13.9775211638
  H         7.6311375709        1.4421714404       14.3910906961
  H        10.4370748896       10.1979524568       12.1689258707
  H         6.9201018945        8.8931540963       14.3720297661
  O         5.9386686409        4.8627916685       17.2531250486
  H         5.9245208250        3.8808038373       17.0553274912
  H         2.5516762822       -0.7733755518       12.9712926958
  H         3.3187332167        1.7357606915       12.5806368438
  H         8.5504009666        5.2945970015       16.0576546964
  H         4.7320931623        1.1263184956       17.8114607550
  H         5.3155643092        5.3124269720       16.5542639645
  H        11.1856099754        1.4554636290       14.2849544692
  H         7.5111341835        5.3586536547       17.1905701433
  O         6.9517543746       -0.1267731021       15.1779751787
  H         7.5745774668        9.1134620840       15.7946865767
  O         5.2702074469        1.8077897349       18.3248432136
  O         2.2828630247        8.3325857996       12.1920169695
  O         8.4891466912        5.5374827188       17.0396915479
  H         4.7658114666        2.1911464743       19.0238711282
  H         8.3650799355        7.6808740546       17.1708256311
  O        11.6726002578        1.4407517618       15.1040271967
  O         2.9526709614        0.6321031098       14.0411609285
  O         8.5361854881        8.6244644295       17.2421697185
  H         2.1030539814        0.6791729508       14.5150849518
  H         1.8061566143        2.9251220215       15.6991415692
  O         2.2668298865        3.6607880690       16.2338514937
  H         2.7837808496        7.4723070703       12.3316521362
  H        11.1502740602        1.1311617507       15.8858254858
  H         7.3728282016       -0.3297148570       18.4456797218
  H         6.4863599957        0.9188303294       19.0282103536
  H         3.5657056708        0.5058559588       14.8427913881
  H         2.1718387574        4.5266558025       15.7651565337
  H         4.1108281567        6.0277969004       14.5656682964
  O         7.3397089837        0.3228763296       19.1436262303
  H         9.5370444795        8.7007586030       17.3150254121
  H         9.3211042043        4.4319585289       18.0925157409
  H         9.0892060769        1.0792804100       19.0160263933
  O         4.5590240614        6.2519087948       15.3838227128
  O         9.8925257667        1.5225397102       19.4205303549
  O         4.4532721467        0.3055705098       16.2561510086
  H        16.4650504012        6.8411635655       15.1015884271
  O         9.9809035034        4.0353112592       18.7276031679
  H         5.3056777496        0.0910160253       15.8629877209
  H         9.9980897792        2.4021834881       18.9855020517
  H         4.2038557159        9.1224631544       16.6727709598
  H        10.9191175380        0.2627386703       18.4583658957
  H         3.7565658621        6.8607304247       16.9096886742
  H         4.6887009012       -0.5077661420       21.5488786744
  O        11.2700327666       -0.2071211811       17.7111972929
  H         9.8822299103        4.5569976171       19.5218589808
  O         3.9840702483        7.3584567474       17.7480142111
  O         3.6923364509       -0.4952873399       21.5221651852
  H         3.4167457595        0.3999883755       21.8327164283
  H        12.0236249019        8.8467121152       17.9842566506
  O         1.5811791817        3.8799322680       18.9103296066
  H         3.1665536265        7.2267881064       18.2951034631
  H         2.6597398732        3.1088702558       19.6837124653
  H         4.5366676004        6.3608916294       19.3349878172
  O        10.5702994422        5.3303563694       21.1823353937
  H         1.6649473249        3.7494861334       17.9109296635
  H         3.6839337790        4.1060586621       20.1643941751
  O         3.5805611545        3.0960107173       20.1860396440
  H        10.3436384366        6.2688522539       21.2555990987
  H         9.0766755578        2.5218225122       22.4354902877
  H         5.4417208045        5.8274902960       20.4223520855
  H         9.8974078322        4.7824635698       21.6471767745
  H        11.7427667091        4.0285093880       18.9911859437
  O         4.5238324031        6.1246661074       20.3119477742
  O        -1.6972548100       -1.6057667470       20.9791127055
  O         9.9152410023        2.6342219369       21.9857304406
  H         2.8681175361       -0.9253846701       20.0590653209
  H        12.5721651301        5.3559626932       21.2549716445
  H        -1.3315242512       -0.8731779466       20.4772372997
  O         6.5639513126        9.3767450780       21.6909909209
  H        -1.3277250154       -1.3157288234       21.9076297373
  H         7.2380035315        9.7028205964       22.3384077890
  O         2.2668408216       -1.4986790847       19.4576902769
  O        13.0674472807        6.2044463449       21.3731774409
  H         9.8078250774        2.0930834379       21.1248105722
  H         6.9604553496       -0.1208696701       20.7438512875
  H         6.7447135063        7.2955461050       21.9125545574
  H         3.3744932553        2.3985922639       21.4913871642
  H        13.9880539512        5.9939124881       21.3138586129
  O         6.7396564187        6.3107357485       22.1998974430
  H         1.9525513116        7.6632624292       20.2054382355
  H         3.5237648446        8.3297322334       22.9154880574
  H         5.9751508580        6.0586450721       22.8179663932
  O         3.0687293949        1.9268441393       22.3934477633
  O        10.3365267223        8.9603275220       23.2735493890
  O         3.4553647823        7.8765445470       23.8350502110
  O         7.7763126968        2.2128843839       23.7545665831
  H        11.4154265385        5.6127071835       24.4680990559
  H         2.0948614704        2.0445369093       22.4166005654
  H         3.8701871151        6.9745899002       23.6838738459
  H        10.8176553022        8.1648443961       23.5573133687
  H         6.7589971458        2.3006726337       23.6410533715
  H         7.9543215608        2.7249952227       24.5978571533
  H         4.2703012608        2.3425402364       23.3982910325
  H        10.9610563912        0.0935861262       23.4557661732
  H         4.8446377996        4.3339815830       23.6859656432
  O        12.1235582717        6.8430217892       23.9088176933
  H         1.8038226880        7.0971514548       24.3355931708
  O         4.5874129881        5.3774186053       23.7679049477
  O         5.0391346580        2.7900649517       23.8902210808
  O        10.8105144141        4.8779954976       24.7866502506
  O         0.5723869277        1.4059434110       23.6644562499
  O         8.6681103941        6.2365034583       23.9685047307
  H         7.9552896283        0.9395476627       24.1963066304
  H         4.6885629212        8.7102107352       24.2475218288
  H        11.0312401350        2.0053493620       23.2961470455
  H         8.0086847918        6.5366720977       24.6817430918
  H        12.4648704979        6.5396200885       22.9984837509
  H         9.8619848352        5.1949944121       24.5585728162
  H         6.1728623214       -0.6336741687       24.3592608189
  H         8.9436765300        9.2130732748       24.0487724705
  H         4.9202888790        2.5191708637       24.8683075305
  H         4.7381663503        5.5186953509       24.7204154399
  O         8.1144066371        9.5504274373       24.4982305756
  O         5.3548154918       -0.2330120978       24.6474245313
  H         0.5794488650        1.5784533054       24.6586933520
  H         8.0571187285        6.1825143750       23.2084797164
 Pt         2.5371123189        9.5164720228       27.0107715633
 Pt         5.2907106395        9.3656300219       26.9066445608
 Pt         8.1591619196        9.4780053792       26.7502077557
 Pt        10.9571844119        9.5393850833       26.9448813395
 Pt         8.0523248308        4.6960539839       26.8695736596
 Pt         3.8200452990        7.0881945549       26.9507134154
 Pt         9.5720742908        7.1766940893       27.0855314417
 Pt         6.5457882155        7.0264165083       26.9350480558
 Pt        10.7622782842        4.6746121389       26.9100727778
 Pt         1.2031338203        7.1285047157       26.9432179345
 Pt         9.4444026736        2.3737754422       26.7655879550
 Pt         6.5978617739        2.2998602425       27.0716426948
 Pt         2.3659990312        4.7462759117       27.0078652448
 Pt         5.1718218335        4.6621465293       26.9458801806
 Pt         0.9871745083        2.4125568218       26.8417567417
 Pt         3.8289711042        2.3666429533       26.9539661747
  H         8.2563252937        1.9618571018        9.5041559508
