     242
Tv_1:  11.152900   0.000000   0.000000 Tv_2:   0.000000   9.658700   0.000000 Tv_3:   0.000000   0.000000  26.829700
 Pt         5.4291364935        8.1712094957        2.3034379789
 Pt         6.7926031309        0.8520259110        2.4291042680
 Pt        11.0668362361        8.0570958565        2.5890730811
 Pt         8.2672171123        8.1192185501        2.2999403371
 Pt         8.1654314968        3.0940406044        2.5325608187
 Pt         2.7041608572        8.0705092277        2.5218873248
 Pt         9.8164032537        5.4908519884        2.2917587086
 Pt         6.9999020178        5.5883183216        2.4167133273
 Pt         5.3765741153        3.3375279241        2.4861320078
 Pt         4.0953311847        5.7423494306        2.5080904978
 Pt         9.6402529826        0.7239085249        2.5190555686
 Pt         1.2964608703        5.6729538468        2.5097525483
 Pt         1.2222152416        0.7201199610        2.4086762055
 Pt         2.6113303530        3.2470449505        2.4839505664
 Pt         4.0734728771        0.9938597354        2.5033809713
 Pt        11.0453874968        3.0624193018        2.3526973469
 Pt         5.9368470096        6.6472224756        4.6756135913
 Pt         8.7152605322        6.6029795800        4.4889917588
 Pt         7.2964632108        8.9951768687        4.6257591809
 Pt         7.3356637801        4.1976370768        4.8621094818
 Pt         8.6221360385        1.8081524288        4.8223564392
 Pt         5.8241484698        1.9637288459        4.7976649566
 Pt        10.0829000789        4.2606492533        4.6248686962
 Pt         9.9230107812        9.0545558921        4.9482863317
 Pt         1.6581228839        9.1642060110        4.8085397047
 Pt         0.3712858931        6.7642997937        4.8745239534
 Pt         3.0655233502        1.9576430672        4.7016433900
 Pt         3.0185746173        6.7188775132        4.8747196659
 Pt         4.4943470886        8.9738776651        4.7810484985
 Pt         4.4358336540        4.4005308994        4.7967886274
 Pt         0.3167499798        1.8602166954        4.7926821981
 Pt         1.5718597564        4.2807106004        4.7613168616
 Pt         7.6924483108        3.0136626251        7.3042390455
 Pt        10.4604859166        7.8096623313        7.2420512211
 Pt         9.0952352529        5.4417462701        6.8896105089
 Pt         9.1106296603        0.5452712179        7.2388814746
 Pt         6.4133940638        0.5051647806        6.9791535434
 Pt         3.5862441464        5.4183288073        7.1682397242
 Pt         3.5917330805        0.5685608475        7.0353154122
 Pt         7.6793266476        7.6942702487        7.0744589111
 Pt         5.0015115571        2.9702049669        7.2180486956
 Pt         2.2987000113        2.9650187972        7.2355659502
 Pt         0.7375153533        5.3401130422        7.0992908057
 Pt        10.5054781910        3.0539506322        7.0487786171
 Pt         6.4450105566        5.3128455602        7.1758085263
 Pt         0.7031456913        0.6598755423        7.1432514502
 Pt         2.1236892991        7.8009440899        7.1625671345
 Pt         4.9020855845        7.8263728127        7.1634192490
  O         6.2542193485        5.6717375403        9.4675637815
  O         2.3448959734        8.0457320488        9.3195678253
  O         0.6781954745        5.4148187257        9.1832094269
  H         4.6506719012        2.3931916212       10.0176022970
  H         7.2334234986        6.3178920874       11.1724099957
  O         0.6498573017        0.6029876040        9.3854383461
  H         1.8135007080        8.7955564934        9.5889028366
  H         4.5613125220        3.9988415366        9.5642295911
  O         8.9877105240        0.7498315579        9.4432169359
  H        10.8259497870        0.7279045257        9.5536992158
  H         1.0633444776        1.5280142153        9.6060773685
  H         1.6094386581        5.2335571728        9.3956965910
  H         6.7654786180        2.8099190440        9.8623747309
  H         1.1214003150        3.3688921671        9.9371782232
  H         8.3793570251        0.0713729369        9.7872322254
  C         7.5344527428        6.1120283723       10.1378867142
  H         3.4209788014        8.0397272195        9.5793589312
  O         7.7880353159        2.9510854459        9.5611219112
  H         5.3861865218        8.5528616997        9.5963718932
  H         7.9229131111        7.0744531824        9.6684117123
  O         4.7585680211        7.8256350865        9.4041660367
  O         5.0200293171        3.1117323355        9.4467247780
  O         1.8713682858        2.7508597279        9.8531721319
  H         2.3531428607        2.7100328509       10.7384214367
  H        10.5430480457        8.1099858853       10.1794908074
  O        10.6298484872        7.4708677043        9.3084937976
  H         4.9442282464        2.3722993609       12.0754379203
  O         5.8162953640        1.9030679498       12.0356940711
  O         3.5189744552        5.2711647055        9.2828785292
  H         5.6320615697        6.4837554663        9.4524899936
  H         8.3207553428        5.2944206626        9.9944229133
  H         8.5728390792        6.4078020141       13.7641756219
  H         6.4401684098        2.4890309313       12.4531827587
  H        11.1877851206        6.5879443120        9.3265229333
  H         6.7322960998        8.7824639190       11.4368419756
  H         6.2932888588        0.5623131585       11.1273492735
  O         6.5634037543        9.3309276052       10.6331504834
  O         9.0833717081        5.5186512720       13.9719098364
  H         3.7165769585        6.1417010668        9.6364540375
  H        10.5042004479        2.6580115897       11.6821765475
  H         9.9792762941        5.5273954426       13.5416488543
  H         9.3647556567       11.8229528478       13.2586720316
  H        11.7786558955        8.4783085093       11.7276591621
  H         9.6052027606        3.5643297846       10.6967580376
  O        -0.3949788299        8.4638356352       11.6335697248
  O        10.2742777635        1.6491535657       13.2488323031
  O        10.4918872529        3.3524165238       11.0082209144
 Cl         7.1843373966        7.9222080000       13.3742392617
  H         3.1713206113        4.0161857909       12.4240692708
  O        11.2225936062        5.5906767425       12.3689643300
  H        11.1576944610        4.7178301094       11.8452364863
 Cl         3.3134770824        5.9884882216       12.6603706128
  O         7.9035644270        2.9306657046       13.3426587611
  H        -0.5297734577        7.5492033886       11.9615604559
  O         3.2325386291        3.0175372918       12.2155462686
  H        12.1829722827        5.5693930575       12.6693892960
  H         8.2015012620        3.9042421541       13.5060720606
  H         7.5648864105        2.5706091972       14.2022049020
  H        10.1277126660       10.4331076711       12.7858137477
  H         7.2772941292        9.9122915864       14.3501519105
  O         5.4747225221        5.7282508565       17.0391212285
  H         5.2023903055        4.7608252433       17.0721893626
  H         2.2466261959       -0.3385400935       12.8390726534
  H         2.8517235148        2.4983320322       13.0210888870
  H         8.5964066409        5.7519450370       15.6647258297
  H         4.7308801048        2.4142846723       17.0366825283
  H         5.0328888836        6.1104441989       16.2666883561
  H        11.0772100630        2.0594811141       14.8256332452
  H         7.0837787683        5.8813796610       16.3444133530
  O         7.1756304972        0.9004174112       15.0489428883
  H         7.6812820106       10.1026396976       15.8711975841
  O         4.7790826108        2.8880863555       17.9345244433
  O         1.9283742653        8.6906980841       12.2101455152
  O         8.0310498377        5.9900054183       16.4512937246
  H         3.8638077877        2.7183868254       18.3312290722
  H         8.1657315128        8.2699982380       17.0500601665
  O        11.8136361684        2.3920697031       15.4162611152
  O         2.5727648909        1.0450530955       13.8422127341
  O         8.2178875135        9.2710367888       17.1359094617
  H         1.8097051788        1.4797637024       14.3327581729
  H         1.1100310304        4.0729354443       15.3190379672
  O         1.4848677587        4.9921351463       15.6208546332
  H         2.5659850182        7.9281424259       12.3058340647
  H        11.7186578591        1.9600054753       16.3531738184
  H         6.9901388015        0.5958424201       18.5423452192
  H         5.9667696216        1.7907454170       18.6925140407
  H         3.3539439107        0.8978540661       14.4351405642
  H         2.0041476932        5.2615238256       14.7840569883
  H         4.1716809596        6.9707787574       14.2855322124
  O         6.7278090661        1.3575230036       19.1169557029
  H         9.2373589167        9.4636621783       17.0653477743
  H         9.0080126920        5.3641970552       17.7280427166
  H         8.3547679685        2.0279057961       19.0094385402
  O         4.4567905710        7.5214577669       15.0468959803
  O         9.3992683162        2.1960899286       19.1591348566
  O         4.7116070577        1.3314801249       15.8474943405
  H        16.3629012935        7.9422369075       14.5385846076
  O         9.5772933227        4.7886415715       18.3969246433
  H         5.6304309026        1.1762336588       15.5114196225
  H         9.5818219385        3.1509661638       18.7286431373
  H         4.4195333203       10.2015505681       16.3523198526
  H        10.3378281897        1.2296623041       18.1885414718
  H         3.9048436202        8.2044476118       16.6380946912
  H         4.0903070551        0.1848764422       21.2682949014
  O        10.8422936602        0.6383689895       17.5069542444
  H         9.5128318029        5.2197533698       19.2979967892
  O         3.4712700755        8.8842368395       17.2537381144
  O         3.1422990412        0.0973986676       21.2694325197
  H         2.9075792302        1.0024379311       21.5789986797
  H        11.3739477707        9.5977002203       17.9921620467
  O         1.2052042829        3.9187988585       18.1224958121
  H         2.6323702403        8.5535362822       17.6977117871
  H         1.8109536826        4.5581342057       19.5235048856
  H         4.4076314984        7.7897105992       19.0652840283
  O         8.8471466120        5.9091252171       21.0263212749
  H         1.5566078911        4.5429016147       17.4505304530
  H         3.0807812672        5.4824555379       19.8578242783
  O         2.3941425216        5.0079995300       20.3201599927
  H         8.1979380122        6.6924130996       20.8677650428
  H         9.0883573931        3.2157969617       22.2507480810
  H         4.9009672878        6.3618385378       18.4814574081
  H         8.2611447344        5.1857890046       21.1549060571
  H        11.4017267859        4.2666086876       18.1076425593
  O         4.6369280699        6.7828077642       19.3323227070
  O        -2.0001256179       -0.1595475464       21.2987343868
  O         9.9775038434        3.2823849480       21.8181911400
  H         1.9878568712       -0.4895025120       19.7567019983
  H        10.9584131076        6.2112205159       20.9551406518
  H        -1.3911428735        0.2549341087       20.6015264318
  O         5.8128924764        9.8910538452       21.6249660246
  H        -1.5056774140       -0.1954317608       22.1445444252
  H         6.1242937189        8.9711005470       21.5863232170
  O         1.5522559865       -1.1212012731       19.1247128490
  O        11.8097949719        6.7448745975       21.1193026851
  H         9.7746901409        2.7509937747       20.9563430715
  H         6.1567567703        0.7429335910       20.8299724276
  H         5.7294825906        7.0202590248       20.5414387766
  H         2.4626198456        3.5814785015       21.9157652180
  H        12.6522182827        6.2321858051       20.8506188366
  O         6.3986942853        7.3014274598       21.3092863623
  H         1.0564217587        7.9562825370       19.7654369427
  H         2.9888493087        8.5839578132       22.6011550924
  H         6.0085147613        6.8220455030       22.1077054227
  O         2.7631467104        2.8471287783       22.4421198704
  O        10.3024272762        9.3693219479       23.8380108021
  O         3.2342607519        8.2286941274       23.5470904568
  O         7.6056772838        2.9824028923       23.3628652878
  H        11.4908685874        5.4211211954       24.5049806611
  H         2.0577129883        2.7054972336       23.0585014452
  H         3.8635935012        7.4879095636       23.4671862773
  H        10.8234654070        8.5642564884       23.9100009222
  H         6.6002816880        2.9943398284       22.9830789925
  H         7.5217632296        3.7773608973       23.9517739092
  H         4.1567283430        3.3091620383       23.0030674109
  H        10.9639445895        0.5195673040       23.8728541092
  H         5.4004759168        5.3904140153       23.5502137505
  O        11.9168138710        7.0244323393       23.7590983400
  H         1.6126990311        7.4270075950       24.0295204113
  O         5.2753378196        6.3879108634       23.6389480565
  O         5.0522036034        3.5480568928       23.3735988241
  O        10.8959450939        4.6766322594       24.6111559456
  O         0.4649504379        1.9533701170       23.7082856140
  O         8.5349087513        5.9468254146       23.9158247520
  H         7.9606450575        1.2816881394       24.5676466245
  H         4.3637444011        9.2807831427       24.2412973692
  H        11.0323993610        2.4435043595       23.0931357996
  H         8.5568209321        6.7435802596       24.4542178205
  H        11.8348542042        6.9684858216       22.7125819797
  H        10.0878621844        5.0658482689       24.2088984465
  H         5.8573768487        0.3450689826       24.1267200526
  H         8.8760829931        9.6581103381       24.2324939118
  H         5.1077239174        3.3315242884       24.3281487275
  H         5.7517995171        6.6174701940       24.4513700093
  O         8.0009920164        9.9365356603       24.6622325277
  O         5.0158747221        0.2476057783       24.7053917053
  H         0.5515335386        2.2735608591       24.6458592919
  H         8.6939897057        6.2328537648       22.9859719878
 Pt         2.4066975714        9.4143643407       27.0083048606
 Pt         5.2779085981        9.5125529385       26.8798028568
 Pt         8.1689985590        9.2961322613       26.7606743459
 Pt        10.8798387249        9.5814364572       26.9282589695
 Pt         8.1325990659        4.5945789344       26.9147206536
 Pt         3.9063054668        7.0991405410       27.0447669905
 Pt         9.4690692149        7.0356331048       26.9405864007
 Pt         6.5755932273        6.8866524970       27.0195526957
 Pt        10.8867142331        4.6746453145       26.7721928902
 Pt         1.1313010351        7.0570849715       27.0184535502
 Pt         9.2455744374        2.1887259059       26.8649846793
 Pt         6.5392337069        2.3718644374       26.9197250916
 Pt         2.4584670653        4.5898097468       27.0715607082
 Pt         5.1666507264        4.7005215074       27.0439271578
 Pt         1.2420293128        2.1768576711       26.8770690530
 Pt         3.8858342569        2.3347224014       26.8591032590
  H         8.2484704588        2.0055424008        9.4863166378
