     242
Tv_1:  11.152900   0.000000   0.000000 Tv_2:   0.000000   9.658700   0.000000 Tv_3:   0.000000   0.000000  26.829700
 Pt         5.2891546582        8.0650246625        2.3208715783
 Pt         6.9373938930        0.7795844865        2.4064126329
 Pt        10.9485479993        8.1460496288        2.6188859782
 Pt         8.1271785213        8.1813256614        2.3494216235
 Pt         8.2291409782        3.2647916886        2.4238345891
 Pt         2.6415843982        8.1872891438        2.4980128090
 Pt         9.5706769649        5.6369450607        2.3985970875
 Pt         6.8952777001        5.6206115372        2.4344087107
 Pt         5.3912641454        3.2385949116        2.4778524921
 Pt         4.0475437304        5.6226907185        2.3948540942
 Pt         9.8375553536        0.8732513013        2.2950901923
 Pt         1.0717627144        5.8137836164        2.4433568839
 Pt         1.2611810756        0.9060442551        2.3682445490
 Pt         2.7257538537        3.2561057491        2.3744335322
 Pt         4.0912304612        0.8101615837        2.3228387916
 Pt        11.0828638877        3.3583107517        2.3631537251
 Pt         5.7558312092        6.8232457263        4.7238187543
 Pt         8.6531733330        6.7482460576        4.5890407722
 Pt         7.3402093049        9.1656510152        4.7327344701
 Pt         7.4020302230        4.3585301077        4.8445333649
 Pt         8.5885547483        1.9020210276        4.8341630873
 Pt         5.6668740651        1.9938608911        4.7723830073
 Pt        10.1171093793        4.2975834884        4.6372332232
 Pt        10.0214888407        9.1872072906        4.7973367232
 Pt         1.5968025461        9.3168267915        4.8544483351
 Pt         0.3476308657        6.8276608105        4.8577592636
 Pt         3.0673133331        2.0018511078        4.6896991710
 Pt         3.0606176455        6.8242333724        4.7917003710
 Pt         4.4781330780        9.1988563216        4.7916122591
 Pt         4.5659497165        4.4245101670        4.7947616300
 Pt         0.2656505009        1.9832077903        4.7085877259
 Pt         1.6658112759        4.4132782613        4.6850936049
 Pt         7.9615087344        2.9677500972        7.2489487563
 Pt        10.3501566857        7.8741720536        7.1976687018
 Pt         9.0866257193        5.3960310231        7.0836614525
 Pt         9.0180327792        0.5728607376        7.1771404525
 Pt         6.2950750376        0.6136560214        7.0238204017
 Pt         3.6123042733        5.4188416543        7.1012747362
 Pt         3.4758655096        0.6199741821        7.1035916845
 Pt         7.6297172136        7.8457829527        7.0442715425
 Pt         4.9781588312        3.0423249632        7.1860982539
 Pt         2.1855049941        3.0931147252        7.0535426712
 Pt         0.7719915624        5.5662222400        7.1351644878
 Pt        10.6296257663        3.2461259562        7.0763492901
 Pt         6.3591869060        5.3537021226        7.0940364747
 Pt         0.7140367955        0.8037192187        7.2089041114
 Pt         1.9792851027        7.9624777376        7.2439667740
 Pt         4.8673738141        7.9309351310        7.0999091588
  O         6.0374337197        5.5702214451        9.3918082590
  O         2.1007867101        7.7471431197        9.3227835279
  O         0.8519550343        5.6541962392        9.3847823404
  H         4.5303176304        2.0300312827        9.3395258221
  H         6.9857191639        5.9289356527       11.1136590785
  O         0.6700229492        0.9119618219        9.4372150751
  H         1.6027873238        8.4479942029        9.7910544490
  H         4.1783963451        4.3593272096        9.5000377062
  O         9.2204582077        0.6462191370        9.3730202640
  H        10.8660619241        0.9772808645        9.6094421942
  H         1.1033516902        1.7544341220        9.8526373845
  H         1.4444701652        6.4911759016        9.4580088421
  H         6.9355764097        2.6912802175        9.5486312180
  H         0.7440455167        3.6142980439       10.5816675850
  H         8.9202852929       -0.2329526722        9.5945219939
  C         7.2155709394        6.0645009805       10.0523635285
  H         3.6144063708        7.7447731343        9.4320156702
  O         7.9134064494        2.7656334385        9.3554344751
  H         5.2611239087        8.5472338750        9.9240608746
  H         7.5505832363        7.0798688550        9.7862906576
  O         4.6617247773        7.8536850956        9.2529947976
  O         5.0071108992        2.8820142158        9.2638910531
  O         1.5303715905        3.1932692325       10.1714790994
  H         2.1336013499        3.1000370447       10.9956112458
  H        10.1685957215        8.2451973079        9.7301612414
  O         9.8169187760        7.6028967936        9.1014384479
  H         4.7039336285        2.1992975481       11.9391921850
  O         5.6215085921        1.9385614465       11.5810002289
  O         3.3236569160        4.9886774324        9.2544956136
  H         5.3911852999        6.3432686967        9.1974560330
  H         8.0294422073        5.3328333501        9.7281254317
  H         7.2544853420        5.6367774852       13.8138974236
  H         6.2291493676        2.1901368348       12.2867348953
  H        11.0734941300        6.0438734029        9.4627233677
  H         6.2895375959        8.5626252291       11.4544055480
  H         5.7100777157        0.4602924616       11.1706228030
  O         6.1127980299        9.2651398707       10.7186618622
  O         7.9049669460        4.8964580730       13.9255266711
  H         2.5867836533        4.3345685903        9.4952907823
  H         9.9586693456        2.8477208390       11.6132574711
  H         8.6863405391        5.1299822919       13.3358264125
  H         8.8933105004       11.3394907184       12.7560938290
  H        11.4503240527        8.5734130368       11.8314640459
  H         9.4139181229        3.5608430926       10.2557406621
  O        -0.7276326454        8.5754220907       11.5894029920
  O         9.8683046369        1.5068121288       12.5172486576
  O        10.0969562486        3.6201961520       10.9831798248
 Cl         5.9791947430        7.2704942801       13.3195289339
  H         2.5951210597        3.4272866861       12.8866039682
  O         9.9165699274        5.7579414602       12.4135662502
  H         9.8115562876        4.9639679559       11.7866925720
 Cl         1.5886490323        5.0553443172       13.6580451816
  O         7.3851331934        2.1967592495       13.6435166031
  H        -1.0986914938        7.8172814406       12.0572316135
  O         2.8957738827        2.6242221942       12.2946037048
  H        10.7879133671        5.5272574124       12.8832556866
  H         7.4479278206        3.1345754096       13.9830151310
  H         7.1588607398        1.6331392315       14.4652340270
  H         9.9732836448       10.2304124106       12.1244264640
  H         6.6151287969        8.8252381991       14.5843765135
  O         5.7100313722        4.4002352379       17.0255737851
  H         5.3872894199        3.5536344044       17.2954971718
  H         2.0598876620       -0.8949955614       12.9111710419
  H         2.8232897430        1.8472101799       12.8852505417
  H         8.6061844280        5.0712494499       15.4642390399
  H         4.3351755853        1.5836629070       17.1931604506
  H         5.0235542431        4.7255016901       16.3351532086
  H        10.7228970712        1.1234367013       14.2145731132
  H         7.6148989727        4.8817035360       16.5634897210
  O         6.8383402041       -0.0160100660       15.0709246565
  H         7.3685473392        9.3594961956       15.8226894533
  O         4.4559928670        1.9635748665       18.0947045969
  O         1.6722845803        8.1444427247       12.2274803571
  O         8.5958988702        5.2016778396       16.5268655352
  H         3.5615108391        2.1138201753       18.3679276682
  H         8.3611213879        7.3781700097       16.6538609062
  O        11.4137692433        0.8420792128       14.8976628574
  O         2.8400572777        0.3778441391       13.8465464161
  O         8.2368070436        8.2820951208       16.9761162153
  H         1.9252817923        0.4759790279       14.2659303830
  H         1.1686848474        2.0833642688       15.8227592552
  O         1.8920135170        2.7104283307       16.1225972290
  H         1.8392905229        7.2101509927       12.4042229378
  H        11.0381181211        0.3340398339       15.6291261156
  H         7.0176515126       -0.0511146560       17.9821828401
  H         5.9124443292        1.0392226818       18.3176134588
  H         3.4548026831        0.1540810446       14.5775532654
  H         1.9769679222        3.3212941872       15.3459870816
  H         3.0559653398        6.1897022939       14.8451443402
  O         6.7894869554        0.6689870993       18.6372752832
  H         9.0927528151        8.5636173264       17.4665758457
  H         9.5085913246        4.5217908178       17.8113366799
  H         8.2370518899        1.4372190417       18.9191385531
  O         3.8888806114        6.4681426200       15.2873174053
  O         9.2128990654        1.5900406980       19.2573451744
  O         4.5598736515        0.0992666071       16.0593603158
  H        15.7222994389        6.8130616419       14.6600897907
  O         9.9985756718        4.0389480302       18.5503384568
  H         5.4386063308        0.1267948725       15.5786470783
  H         9.3513862380        2.4585793325       18.8655686029
  H         4.5828266657        9.0074320563       16.7247584706
  H        10.3259181845        0.4080172299       18.3465183754
  H         3.8375681346        7.0964537646       16.8415125229
  H         4.2084410199       -0.0143980714       20.3976582885
  O        10.6460674965       -0.3058952503       17.6188876783
  H         9.7227082738        4.5446716125       19.3426708352
  O         3.8919529825        7.5287230416       17.7583748986
  O         3.4405659468       -0.1036526614       20.9479995554
  H         3.1866147543        0.7795689747       21.3296856149
  H        11.4194681909        8.9039563952       17.9865419178
  O         1.5206923898        3.2829144943       18.6783985856
  H         2.9510364477        7.8268005690       17.9694854088
  H         2.2394916892        4.1596840637       19.8303063647
  H         4.2083042725        6.5244482702       18.8670651259
  O         9.6677389140        5.3646567965       20.8782736709
  H         1.6716979911        3.2524740772       17.6668680057
  H         3.5892992205        5.0179229002       20.2436488977
  O         2.7336849878        4.5397475204       20.6914702102
  H         8.8163653615        5.8583735358       20.9339657213
  H         8.5760579400        2.5099907437       22.2488541029
  H         4.9841758450        5.0589045979       18.5404109819
  H         9.5233865425        4.5596335555       21.3712706491
  H        11.6752879932        3.4360954335       18.8152228787
  O         4.6533660233        5.6326535019       19.3234004772
  O        -1.7791799417       -1.1132108648       22.1016929322
  O         9.4911886251        2.5093643203       21.8823835022
  H         2.2127894115       -0.6926843780       19.6278078587
  H        11.3100593883        6.1318555871       20.7995699080
  H        -2.6784380381       -0.8179500000       21.6958245178
  O         6.9903303435        8.9210079499       21.1776938996
  H        -1.0938964731       -0.6198940870       21.6075310644
  H         6.9258020820        7.9319937092       21.0341960915
  O         1.7234766382       -1.2684836910       19.0072064912
  O        12.2007277101        6.6013182740       20.8380310089
  H         9.3731461103        2.0259275981       20.9588973120
  H         6.9716342231       -0.3785761469       20.2618247596
  H         5.9873101343        6.2906387158       20.5551190857
  H         2.3173354841        2.8668217669       21.5684797384
  H        12.8008429581        5.7728693742       20.8223607670
  O         6.7753130138        6.2881591373       21.1655477612
  H         1.5068568094        7.5922563681       19.6177438826
  H         3.8845789437        8.4259068099       22.0757259169
  H         6.4765987493        6.0660721723       22.0332482256
  O         2.4727812620        2.0330944336       22.0840833234
  O        10.9812720738        9.0817899323       24.6758471288
  O         3.9526361531        7.7297132070       22.8119390646
  O         7.2860137258        2.4098566576       23.6870356742
  H        12.0954908351        5.6425625970       24.3540437381
  H         1.6798276794        1.8888381829       22.7338870439
  H         4.6422453453        7.0293491983       22.6109238798
  H        11.6996121334        8.4183733624       24.4901905858
  H         6.3151319695        2.5387839919       23.4590121322
  H         7.4749537360        2.9169864556       24.4787731778
  H         3.8663272451        2.4884732149       23.0377862685
  H        11.2198050578        0.3066315778       24.3865511972
  H         5.1222049905        4.6486101797       23.3734223565
  O        12.5900922453        7.0803981935       23.6904362513
  H         2.4578096193        7.0471425644       23.6595200752
  O         5.3161298157        5.6060790467       23.3764735517
  O         4.6284841731        2.7948608203       23.5544687350
  O        11.4514969576        4.8528938418       24.4709208533
  O         0.2537594959        2.0554526206       23.6860110341
  O         9.3353654138        6.4669147177       24.1998173004
  H         7.5563232654        0.9740061090       24.2157355335
  H         4.7097308655        8.5378045954       24.1462506416
  H        10.7408350694        2.3419254361       23.0291964148
  H         8.6465968729        6.5384266267       24.8558836076
  H        12.3180175459        6.8613365904       22.7736991165
  H        10.5973586364        5.3388561176       24.3195919674
  H         6.2303237802       -0.3772463252       24.3272687837
  H         8.6532581378        9.6220510531       23.9395982885
  H         4.2879939933        2.6189479517       24.4716426653
  H         5.3131232430        5.8551545800       24.3448893304
  O         7.8806245709        9.7271524204       24.5157302807
  O         5.1648385125       -0.2853807448       24.5783310059
  H         0.5620178601        2.8650746333       24.2211087383
  H         9.2881562854        7.2040554585       23.5353983869
 Pt         2.6153921742        9.4478278599       26.8102091805
 Pt         5.2470862526        9.4725955861       26.7384118076
 Pt         8.1475838726        9.3999555071       26.8601505661
 Pt        10.9676939628        9.5135508726       26.7953962966
 Pt         8.2280067236        4.5930661345       26.8846278318
 Pt         3.9226064997        7.0658337707       26.7619666877
 Pt         9.5178923103        7.1071934092       27.0539287244
 Pt         6.7427096500        7.0199975906       26.9163387382
 Pt        10.9319644136        4.5529139998       26.8282880798
 Pt         1.2544681194        7.0974221569       27.0104806268
 Pt         9.3882252120        2.2196858120       26.7151288010
 Pt         6.7621197189        2.2566913404       26.9255942814
 Pt         2.5302017044        4.6543120994       27.0026184716
 Pt         5.3837451830        4.6571369538       26.9285099010
 Pt         1.3173368065        2.1935414417       26.8614131095
 Pt         4.0427001803        2.2552509179       26.8231457104
  H         8.3680333987        1.6911040900        9.4844285586
