     242
Tv_1:  11.152900   0.000000   0.000000 Tv_2:   0.000000   9.658700   0.000000 Tv_3:   0.000000   0.000000  26.829700
 Pt         5.5549470394        8.0815072154        2.2308977212
 Pt         6.9629003945        0.9298059683        2.3639760140
 Pt        11.0501891472        8.2022068198        2.3708202628
 Pt         8.4410843978        8.2452191227        2.3487432841
 Pt         8.3274784113        3.4542773515        2.5303411477
 Pt         2.6300135423        8.2586629895        2.4177280054
 Pt         9.7800911691        5.7643607990        2.4275901819
 Pt         6.9680904388        5.7939144860        2.5799163751
 Pt         5.6011464870        3.2606001465        2.4670876543
 Pt         4.2220496837        5.8027852203        2.5227462329
 Pt         9.6533355595        0.9068432655        2.4796524357
 Pt         1.5038942415        5.8416124871        2.4104786946
 Pt         1.2948770187        0.9711687242        2.3927590556
 Pt         2.7390631593        3.3369360923        2.3684572261
 Pt         4.2768542326        0.8279095468        2.3693114790
 Pt        11.0339735111        3.3648065334        2.3726693033
 Pt         5.7752078841        6.7320606859        4.8949397306
 Pt         8.5910071714        6.7368447821        4.6870136338
 Pt         7.1341395679        9.1236073875        4.6455031713
 Pt         7.2337240328        4.3849762005        4.7748026795
 Pt         8.5208875466        1.8761768527        4.8177631832
 Pt         5.8718714406        1.8798379660        4.7702173551
 Pt        10.0676404733        4.3531129605        4.6927309854
 Pt         9.9651952945        9.2013920841        4.8798178576
 Pt         1.5966800393        9.2247326601        4.7194437744
 Pt         0.2633559283        6.7474528117        4.6705342160
 Pt         3.0208864225        1.8411326750        4.5930538100
 Pt         3.0446542237        6.8083979942        4.7637605892
 Pt         4.4780895468        9.0707300003        4.6186973854
 Pt         4.3618719286        4.1408318691        4.7652598607
 Pt         0.2257671593        1.8827734224        4.6242254369
 Pt         1.6786092058        4.3466529217        4.6803247255
 Pt         7.5734025409        2.8686135551        7.1435678793
 Pt        10.3037967499        7.7827528929        7.1361944647
 Pt         8.8914762604        5.3331281666        7.0887483175
 Pt         8.7478919615        0.4972399470        7.1759396427
 Pt         5.9723385051        0.2673622080        6.9250264135
 Pt         3.4998580520        5.1868978487        7.0738856176
 Pt         3.3663731327        0.4916389910        6.9767493587
 Pt         7.4201367175        7.5952742636        7.0591141173
 Pt         4.6862992352        2.7983897791        7.1752581541
 Pt         1.8220645357        2.8662438577        6.9790995345
 Pt         0.5658866990        5.2928899781        7.1094990784
 Pt        10.3220683030        3.0226158415        6.9433612988
 Pt         6.1813253227        5.1760601354        7.1141962965
 Pt         0.4411987365        0.5353090056        7.0849995012
 Pt         1.9047205557        7.7483122610        7.0275305331
 Pt         4.7303958212        7.6397134439        7.1646319715
  O         5.9423318724        5.3966106877        9.5009201579
  O         1.9641194453        7.8108217362        9.0722493646
  O         0.7596534228        5.3059338209        9.2517506632
  H         3.4825735332        2.1522589376        9.2090631956
  H         6.9343960614        6.2239157780       11.2028912807
  O         0.3578951830        0.3031912664        9.3546727371
  H         1.2018469374        8.2334373592        9.4168147990
  H         3.7591676122        3.8340222765        9.3303979840
  O         8.7484398501        0.6015204049        9.2116151752
  H        10.5514023551        0.5054011828        9.3754692026
  H         0.8666376409        1.0949797883        9.8526260384
  H         1.3864711071        6.0803116905        9.3191272323
  H         6.6610207442        2.9668657822       10.2093494038
  H         0.4662660462        2.9383919416       10.2972319591
  H         8.6681415066       -0.2642961905        9.6532229098
  C         7.1326747683        5.9682793961       10.1555391403
  H         3.4583104920        7.6018195121        9.3875025778
  O         7.3603672413        2.8284492864        9.4069012983
  H         4.8426384647        8.4296220552        9.7414052482
  H         7.4201714128        6.9162767823        9.5709522302
  O         4.4734088103        7.5711383899        9.3044850119
  O         4.3208816276        2.6685850865        9.2755575309
  O         1.3424100254        2.4696053662       10.2802992425
  H         1.9126566784        2.5529750882       11.1188796044
  H        10.1695153326        7.7978989896       10.1786001600
  O        10.0864567982        7.2399341138        9.3647009149
  H         5.0728776347        3.1689379485       11.7798294011
  O         5.9953614663        2.8923545628       11.5637086016
  O         3.4043542610        4.9276248377        9.2097305677
  H         5.2491783893        6.1538652043        9.4870212065
  H         8.0246080598        5.3240902701        9.9804217701
  H         7.3586849560        6.0963767072       13.8440963922
  H         6.3854085646        2.8597148983       12.4646792762
  H        10.5714328082        6.3631711461        9.4392682432
  H         5.6682529319        9.3271554615       11.2201267993
  H         5.2182359492        0.9718097595       10.3353345802
  O         5.4385327598        9.6693837041       10.2984781133
  O         7.9767785153        5.3394302195       13.9970999107
  H         2.4577224372        4.7530920420        9.2681508251
  H         9.8461967654        2.7609985651       11.4011824419
  H         8.6584581146        5.5247140156       13.2965006626
  H         8.4578287491       11.6061726900       13.0090336093
  H        11.1344274149        8.6901819906       11.8027152474
  H         9.2547986945        3.4402350774       10.0615605463
  O        -1.0102703409        8.5449375902       11.6382258439
  O         9.3409966852        1.5714955250       12.5889200232
  O        10.0415612865        3.4800753416       10.7312548957
 Cl         6.2851465517        7.9956560517       13.0712189185
  H         2.8476399450        4.0706950051       12.3399760906
  O        10.0349022928        5.8029761415       12.5367952564
  H        10.0756765073        5.0419225263       11.8238774257
 Cl         1.6688614494        5.5639251883       13.1894268600
  O         7.3207173947        2.8256512917       13.8188111337
  H        -1.2011899366        7.8134320524       12.3280216420
  O         3.3823654325        3.2318771075       12.0407438490
  H        10.8508467963        5.6182379066       13.0648562434
  H         7.5065798067        3.7363784082       14.1396259261
  H         7.0366429537        2.2097680694       14.5710386577
  H         9.1388938139       10.2195562381       12.3839396679
  H         6.6896846390        9.5258322142       14.4060167368
  O         5.8282180329        4.7978868870       17.0816347574
  H         5.5866229336        3.8383503099       17.2024322481
  H         2.1613284539       -0.4247694917       12.5809616079
  H         3.1236441296        2.5564180366       12.6763831731
  H         8.2679406323        5.8651180098       15.7664311551
  H         4.7845197075        1.5815123425       16.9242131146
  H         5.2962609077        5.2768672119       16.4325667709
  H        10.5404248891        1.8126717091       13.9441198923
  H         7.3915788518        5.6628534089       17.0172967398
  O         6.7005716247        0.5529142325       15.2279931776
  H         7.0271074626        9.7008445342       15.9903296140
  O         4.7342644734        2.0576266397       17.7998422799
  O         1.6606797584        8.6324200117       11.8402487004
  O         8.1952870582        6.1480476013       16.6977491160
  H         3.7840154718        2.1544071322       17.9912337897
  H         8.3120515412        7.9243444284       17.0067577105
  O        10.9164631816        2.0388422225       14.8593381410
  O         2.4732686495        0.8360109320       13.6462397716
  O         8.0602801945        8.9090252984       17.2440209700
  H         1.5853178237        0.8336448476       14.0250044269
  H         0.7692461326        3.3871370331       15.3045572608
  O         1.2613207269        4.1452560278       15.7809463495
  H         1.7922076061        7.6194444128       11.9824840133
  H        10.9440166317        1.2041729615       15.4521990416
  H         6.8222876660       -0.1272592764       18.8518549515
  H         5.8824949526        1.2013339710       18.9414124624
  H         3.1278405454        0.5284823908       14.3366446029
  H         1.4939278808        4.7624833493       15.0365239710
  H         3.7756803582        5.7775455372       14.5310390357
  O         6.4873813987        0.5480752820       19.4702184535
  H         8.9354465049        9.3400056402       17.3630122962
  H        10.0162644031        4.3436247575       17.4919229630
  H         8.4360120781        1.5446775556       19.5777033585
  O         4.4848840129        6.1394546252       15.1531507638
  O         9.3856052982        1.7861950075       19.4529834380
  O         4.1396315590        0.5010865471       15.7623072045
  H        16.1850138500        6.7594896201       14.4796801803
  O         9.9918788488        3.9781239250       18.4337664299
  H         5.0911371413        0.5520946663       15.4465258906
  H         9.3622143593        2.6022194724       18.8773463870
  H         4.0527563056        9.3278441929       16.2481317376
  H        10.8141761152        0.6838012195       17.9920189821
  H         3.9679852476        7.1064003845       16.6685019935
  H         4.3011871259        0.4992867194       20.0675422002
  O        11.0424557214        0.3606660727       17.1289611814
  H         9.6970596432        4.6946751242       19.0908818656
  O         3.9525462942        7.9186016715       17.2831706618
  O         3.4572085215        0.4258407500       20.5329128178
  H         3.4219062057        1.3258942795       21.0933328628
  H        11.6319219717        9.2510838120       17.3752170850
  O         1.9253099225        3.0886468260       18.0617251586
  H         3.1328139884        7.8973129931       17.8319739628
  H         2.3902171760        3.9293307120       19.2128573506
  H         4.7357516003        6.8162160368       18.7828394954
  O         9.3379901774        5.4975080209       20.7893747390
  H         1.7929745856        3.5807398973       17.1803654941
  H         3.5387105858        4.8358548349       19.9016270447
  O         2.6858818254        4.3661231035       20.1194399397
  H         8.3907512479        5.8048200697       20.9985658286
  H         9.2418745497        2.8310157566       22.5900792490
  H         5.4196068883        5.5293800865       18.6209400010
  H         9.3601665666        4.7570330534       21.4421970294
  H        12.2570800084        2.5859598175       18.1391288837
  O         5.0448116125        6.1223694407       19.3793991767
  O        -1.6680395681       -1.2625682735       22.2730732743
  O         9.8813017753        2.8428766301       21.8587912130
  H         2.2078482684       -0.6897535264       19.4163124329
  H        11.0026481909        6.0071897111       20.7283046301
  H        -2.5224745453       -0.7698646106       22.1909876669
  O         7.0253252210        9.3456623549       21.9748674961
  H        -1.5605878445       -1.6634527865       21.4082133051
  H         6.6621209986        8.4898919561       21.8831407328
  O         1.8312199329       -1.4478215695       18.8603891486
  O        11.9282248521        6.3891515276       20.7325235290
  H         9.6948324694        2.3329837318       21.0089626103
  H         6.6836583515        0.1355860553       21.1665118130
  H         6.1308447046        6.5538242006       20.5926291160
  H         2.9281321219        3.4794103697       21.3903577417
  H        12.6515033640        5.7361386688       20.8293507510
  O         6.8443162291        6.5205831068       21.2810508146
  H         1.4401009993        7.5652740962       19.5273267663
  H         3.5015187599        8.8902780589       22.0938969198
  H         6.3594854597        6.2711095107       22.1291404186
  O         3.2518469412        2.7453818979       22.0838747109
  O        11.3685277161        9.7301321231       24.6777817875
  O         3.6252905340        8.4236099315       22.9463904828
  O         8.1000978563        2.7903774537       23.9681180243
  H        11.9129997220        5.4732379255       24.5491911922
  H         2.4366825350        2.6673359283       22.6747824693
  H         4.3166175454        7.7382857426       22.9372271930
  H        11.7368145448        8.7945611513       24.2784115765
  H         7.1516996886        2.9872082604       23.7858890386
  H         8.3363366790        3.2618419593       24.7898129668
  H         4.7939140599        2.8855797683       22.9984094176
  H        11.5936180183        0.8986350083       24.1159376167
  H         5.0614354981        5.2509205214       23.5609979581
  O        12.2880019828        7.4855579293       23.6884789432
  H         2.0736678873        7.6839021674       23.5616728663
  O         5.2128271708        6.2490181105       23.5703364633
  O         5.5035639731        3.3474502031       23.5498126921
  O        11.1103449454        4.9449398135       24.5275680648
  O         0.7661461748        2.4442958495       23.3867936624
  O         9.0296576835        6.2126697637       23.8324884154
  H         8.4192233254        1.2341462594       24.4964507752
  H         4.8173632296        9.4595522952       23.6539053095
  H        11.1077912529        2.4295408511       22.6649413947
  H         8.5887124787        6.4900022749       24.6691230301
  H        11.8794609244        7.2469640793       22.8230903187
  H        10.2272162447        5.5840432143       24.2430355701
  H         6.3483082279        0.1343550914       23.8437334973
  H         9.5064479317        9.7070676484       24.5435957695
  H         5.3457069398        2.9414898000       24.4441374426
  H         5.3335668722        6.4901452240       24.4866011333
  O         8.5557120992        9.9617118557       24.7383783762
  O         5.4983515269        0.2592538397       24.2581170414
  H         0.5386344848        3.2237191303       24.0130008934
  H         9.0740373385        6.9443094383       23.1591611986
 Pt         2.6747037308        9.6807163188       27.0317931653
 Pt         5.4011178503        9.5573276972       26.6742171310
 Pt         8.4573895964        9.6267996732       26.8447602988
 Pt        11.1512655304        9.7443721821       26.8709577859
 Pt         8.2611994665        4.8434472504       26.9073795644
 Pt         3.9495925024        7.1960090810       26.8495001521
 Pt         9.5891490593        7.2553436339       26.8993080265
 Pt         6.8000942338        7.0167207313       26.7272574057
 Pt        11.0091455381        4.7517981343       26.8012345024
 Pt         1.2273529694        7.2036487102       26.9704264545
 Pt         9.4070535516        2.3580011541       27.0193143721
 Pt         6.7522108316        2.3512720850       26.9080139265
 Pt         2.5077210934        4.7784019989       26.9372820607
 Pt         5.3053410170        4.7727922095       27.0011186402
 Pt         1.2299974271        2.4399461351       26.8904069518
 Pt         4.0948246105        2.3715073262       26.7350027335
  H         7.8136375330        1.9538548735        9.5341779527
