     242
Tv_1:  11.152900   0.000000   0.000000 Tv_2:   0.000000   9.658700   0.000000 Tv_3:   0.000000   0.000000  26.829700
 Pt         5.5253832281        8.2082218363        2.3160775795
 Pt         6.9414531226        0.9438726817        2.3551264293
 Pt        10.9560573612        8.2192589149        2.2593720138
 Pt         8.2616507083        8.2583125289        2.3121567849
 Pt         8.2146589744        3.3765884447        2.4369212668
 Pt         2.6755957910        8.2318618489        2.3980009268
 Pt         9.6979498051        5.7607678065        2.3151051279
 Pt         6.8656182047        5.8986956669        2.3846964019
 Pt         5.4646505792        3.4201247404        2.4385846900
 Pt         3.9729823573        5.8308096193        2.5070305451
 Pt         9.8120762281        0.9207021191        2.5137721088
 Pt         1.1965655630        5.7664535684        2.4629942332
 Pt         1.3679194461        0.9981015597        2.3763390657
 Pt         2.8109007416        3.3378855171        2.4189182717
 Pt         4.1613378459        0.9227364283        2.3224694196
 Pt        11.1151110686        3.4196908246        2.4582880987
 Pt         5.7284930820        6.7964937811        4.6616654899
 Pt         8.5563943526        6.7458680238        4.6043964742
 Pt         7.1325317101        9.2356635361        4.6506575506
 Pt         7.1244430609        4.3228540669        4.7207066926
 Pt         8.5499509176        1.8783875583        4.7966271192
 Pt         5.7738152993        1.8476106615        4.6476745713
 Pt         9.8863041941        4.4370694624        4.6893774724
 Pt         9.8798748289        9.1691553355        4.8667580547
 Pt         1.5500258125        9.1508607751        4.6712320604
 Pt         0.1663279855        6.7144593548        4.7831494543
 Pt         2.9897325753        1.8820001895        4.6534361850
 Pt         3.0009572424        6.8189103260        4.8089352228
 Pt         4.3632091014        9.1264281221        4.6060770603
 Pt         4.3633857159        4.3155572571        4.6689197655
 Pt         0.1854561956        1.8955363516        4.7232086745
 Pt         1.5533330776        4.2965884106        4.7208928614
 Pt         7.5817068378        2.9561028077        7.0935338168
 Pt        10.3784104749        7.6946535172        7.0357222781
 Pt         9.0286087623        5.2879379094        7.1089948437
 Pt         8.7484265286        0.5578180327        7.2315221383
 Pt         6.0627018479        0.5350877479        7.0766447585
 Pt         3.4034680630        5.1729869571        6.9499443102
 Pt         3.2161220208        0.5727035699        6.9591956284
 Pt         7.5704607176        7.6109308028        6.9099126954
 Pt         4.7017760463        2.8206257038        6.9671664920
 Pt         1.8212906063        2.8423090628        7.0427614454
 Pt         0.6466818863        5.3598668645        7.1409634053
 Pt        10.3849637738        2.9261351524        6.9606803405
 Pt         6.1571294426        5.2707553992        7.0720681537
 Pt         0.4766086819        0.4830825689        7.1119502461
 Pt         1.9690158270        7.7617275814        7.0067519076
 Pt         4.9107618030        7.7220022385        6.9728425126
  O         6.0619908826        5.6590398029        9.3732960372
  O         2.0781845061        7.9110759871        9.2181010288
  O         0.6521442221        5.3950004241        9.2328490022
  H         4.2550232831        1.9615330093        9.3686152165
  H         7.2012512560        6.0384601555       11.1084953185
  O         0.3211659099        0.4084245392        9.1430507229
  H         1.7006702973        8.7553209941        9.5397210475
  H         3.8139128196        4.1328190655        9.4571748193
  O         8.8822188190        0.5741923988        9.2653572795
  H        10.4695306665        0.3891601604        9.3488070604
  H         0.7359738057        1.2235119556        9.5903314398
  H         1.2060478277        6.2035395287        9.2745095763
  H         6.2838934356        2.7196443979        9.3876402676
  H         0.7998970552        3.2818981660        9.8612876790
  H         8.2845873420        0.0289515162        9.7841275182
  C         7.2413888608        6.1329383323       10.0170878338
  H         3.0772088539        7.9672524560        9.3071988415
  O         7.3425078788        2.7472280845        9.2185542813
  H         5.2178169602        8.7005900881        9.5315245427
  H         7.3672027701        7.1717566419        9.6156037683
  O         4.6850055630        7.9087493706        9.0603055033
  O         4.8037287488        2.7176627386        9.0309123762
  O         1.4772865554        2.5775613870        9.8015639457
  H         1.8756888531        2.7716200757       10.7944827634
  H        10.4462110765        7.8260362031        9.9612819288
  O         9.9899072029        7.3101162712        9.1756968104
  H         4.8599936742        2.5036486859       12.0760711280
  O         5.7267166430        2.2338923750       11.7624869327
  O         3.4153935876        5.0698895436        9.2801645452
  H         5.4620093126        6.4672874054        9.4952113941
  H         8.0473705713        5.5002898215        9.5774001303
  H         7.8784946315        6.1710252870       14.1882740532
  H         6.3507942618        2.5223307924       12.4845633334
  H        10.4531304987        6.3634243000        9.3005825026
  H         6.4509565447        8.8818593289       11.3179579003
  H         6.2150642728        0.7116183757       10.9653371028
  O         6.4835282888        9.4852810973       10.5786198556
  O         8.4674625486        5.3950816416       14.4683045821
  H         2.4326195855        4.7303326301        9.2858335454
  H         9.9314091762        2.6960846314       11.0705597018
  H         9.2792203741        5.4912353494       13.9381024306
  H         9.1150918303       11.3926501554       12.9216880038
  H        11.2701526112        8.6307100674       11.9308510262
  H         8.8504661573        3.3569474601       10.1476019938
  O        -0.8538313329        8.5818401610       11.5717367231
  O        10.0593693272        1.3613743805       12.8740084049
  O         9.6911035988        3.5353046614       10.6325056380
 Cl         6.8080342681        7.8263782193       13.4858825550
  H         2.6065492221        3.6313401339       12.6075850874
  O        10.3977552867        5.9832418382       12.4919384478
  H        10.1779931827        5.3454012858       11.7412965291
 Cl         2.4619073534        5.6089446644       13.2350362012
  O         7.4037901632        2.8952579959       13.6086292433
  H        -1.2279689954        7.9820092824       12.2956892285
  O         2.7341955486        2.7542660916       12.1690643977
  H        11.4247742497        5.8976759924       12.6290955390
  H         7.8443472487        3.7445555494       13.9081806402
  H         7.5119233383        2.1522449838       14.2808616199
  H        10.0211085440       10.0967059497       12.4672892708
  H         7.0657308204        9.4596707154       14.6243910991
  O         5.5039936257        3.9481621831       16.8720260619
  H         5.1244933848        3.0469647401       16.6771340448
  H         2.0270092244       -0.3419610308       13.1260279089
  H         2.7219104458        2.0828529258       12.8521461520
  H         8.3134986749        5.4541083552       16.0633352667
  H         4.1947487382        1.1002227830       17.4156329256
  H         5.3487220884        4.4950204882       16.0474648678
  H        10.8585930872        1.6371377378       14.4623638637
  H         7.2474695437        5.0777823326       17.0236942137
  O         7.0850219555        0.5060556733       15.2891514529
  H         7.4487784063        9.7824847862       16.0528654869
  O         4.2716678187        1.7095918521       18.2508946458
  O         1.7342212702        8.7732591639       12.2915988595
  O         8.0242549916        5.6809282642       16.9928601379
  H         3.5183344153        2.2869146024       18.3599763450
  H         8.0554261903        7.6521663868       17.2518270424
  O        11.1918213107        1.8548186424       15.3849849388
  O         2.6537964398        1.0201558792       14.3265060033
  O         8.3636725777        8.6247774887       17.3387434783
  H         1.9482484764        1.2741163065       14.9577572730
  H         0.4535561029        3.5613761282       15.5011288761
  O         0.6992752945        4.4652898235       15.8359943263
  H         2.1644588313        7.8812757845       12.4376366470
  H        10.9655778407        1.1684687050       16.0590696569
  H         7.2263319162       -0.0308685532       18.3380875236
  H         6.0869298206        1.0436467586       18.6248825704
  H         3.4686287584        0.7436489695       14.8947964491
  H         1.2816419869        4.9152618992       15.1380181856
  H         4.2642207725        5.5911733381       14.4032180263
  O         6.8674688872        0.6364267237       18.9505769999
  H         9.3186842272        8.6297600483       17.6389506381
  H         9.4539752450        4.0682605518       17.8433195111
  H         8.4300422337        1.1813124396       19.5872072704
  O         4.9049590176        5.8975811062       15.1402878696
  O         9.4072420454        1.3914542186       19.8113612237
  O         4.4901274117        0.2175604793       16.1161961535
  H        16.7443846940        6.4923840190       14.7109966744
  O        10.0186199026        3.9516687104       18.6159322825
  H         5.4183215719        0.3476054752       15.7480690714
  H         9.4608515026        2.2949465084       19.3826337827
  H         4.3738788874        8.8812963285       16.2401961921
  H        10.5646954181        0.1353682108       18.7309471555
  H         4.1557578516        6.7154546573       16.6403253718
  H         4.6112976752       -0.3226174041       20.2247952892
  O        10.9641711655       -0.4289627803       18.0454340196
  H         9.9169717247        4.7780330742       19.1295369356
  O         4.1915010548        7.4525105055       17.3336739416
  O         3.9325922091       -0.3391142024       20.9143260235
  H         3.7721602861        0.4816367164       21.4231838405
  H        11.7885285300        8.8263903526       18.4315592436
  O         1.7895867303        3.5884685519       18.2870908900
  H         3.2426768681        7.4659010990       17.6656168635
  H         2.6997102572        4.0298021679       19.4895969352
  H         5.1090981861        6.3192938561       18.5731272784
  O         9.8345422940        5.4418220891       20.7172592300
  H         1.7334050873        4.0346914436       17.4001318888
  H         3.9548645838        4.6429126104       20.2606680718
  O         3.1411800821        4.1387540071       20.3660207731
  H         8.8767781929        5.6571645139       20.9494422372
  H         9.0828406737        2.6772491929       22.4304620683
  H         5.2425159881        4.8570905859       18.3514050024
  H         9.9398492428        4.5569159939       21.1973032553
  H        12.0168613615        3.2351222636       18.2978611762
  O         5.4033676249        5.5119214509       19.1151902423
  O        -1.7718644632       -0.9138074270       22.5198996408
  O         9.8598098000        2.8912122195       21.8287890186
  H         2.4574581970       -0.6534757536       19.5090479648
  H        11.2217987783        6.2962723383       20.9492102317
  H        -2.5972306128       -0.8946548138       21.9990478026
  O         7.0556871850        8.8268931099       21.4767091195
  H        -1.1698832026       -0.3118606436       22.0473859525
  H         6.8667807336        7.8626004810       21.3366508612
  O         2.0097848827       -1.3725385816       18.9834447075
  O        12.2224955198        6.6991079271       21.0242184974
  H         9.8414760095        2.1387302433       21.0451605587
  H         6.9044763785       -0.3613184861       20.6461003588
  H         6.7207743622        5.9893190222       20.3136334145
  H         3.0081926591        2.7228649296       21.2821032570
  H        12.7747801189        5.9314399829       20.8178192949
  O         7.3105407313        6.0799229325       21.0757223564
  H         1.6686319735        7.7049943171       19.7502656182
  H         4.2396116044        8.1474511937       22.3541099973
  H         6.9153983871        5.8680044999       21.9317946928
  O         3.1818817331        2.1855559677       22.1610862178
  O        11.1378611489        9.7140883722       24.5175295077
  O         4.1008487164        7.5912563315       23.1864229882
  O         7.8046901679        2.8870663519       23.6001351494
  H        11.8344105034        5.9335671772       24.3913957866
  H         2.3941625517        2.3205164964       22.7450361146
  H         4.6959554296        6.8579908134       23.1923792343
  H        11.7157863678        8.9763661029       24.2027513743
  H         6.7681939865        2.9676582181       23.4104283287
  H         7.9813151206        3.5439279878       24.3063586392
  H         4.2296567489        2.7280115884       23.0975651784
  H        11.5935342465        0.9291537304       24.3612186244
  H         5.2694283716        4.6148362521       23.5175117173
  O        12.5408049360        7.6642677047       23.5911607836
  H         2.3317601696        7.8128389641       23.7105133537
  O         5.7755783748        5.5160936317       23.4367528579
  O         4.9989774394        3.0380549453       23.7240089768
  O        11.2762825871        5.1406889857       24.6213487561
  O         0.6666357748        2.5995729483       23.7219738364
  O         8.8604115658        6.1481647890       23.7935494155
  H         7.9854251457        1.1921648779       24.3498691872
  H         4.7769697995        8.9209636634       24.0312609537
  H        11.1496802525        2.5956450753       22.9863744500
  H         8.6425287401        6.6626049044       24.6240059519
  H        12.3786469533        7.4942153925       22.6243132040
  H        10.4301930345        5.5532720456       24.3004551299
  H         6.0536411643        0.2640564394       24.0676309832
  H         8.5788959664        9.4145235789       23.8999341829
  H         4.7125245397        2.6041188354       24.5809166268
  H         5.9655134940        5.6820477309       24.4224954295
  O         7.8604997178        9.8681152680       24.4774592790
  O         5.1741894594        0.0984462400       24.4275411882
  H         0.4597458291        3.4600276537       24.0978599225
  H         9.1972807278        6.8593960723       23.2339809101
 Pt         2.5556002860        9.6345258293       26.7332635373
 Pt         5.1747941937        9.8074399270       26.6857739647
 Pt         7.9768429601        9.7080560045       26.8110752917
 Pt        10.9466637442        9.5408939784       26.6870280177
 Pt         8.1519197846        4.8435740739       26.7075101046
 Pt         3.8097812024        7.3211347102       26.7571962606
 Pt         9.4946287278        7.1502896964       26.8806766037
 Pt         6.7340887330        7.1702906726       26.7089240966
 Pt        11.0331726951        4.7760892426       26.9539610676
 Pt         1.1786190404        7.1922304029       26.8765946889
 Pt         9.5698472218        2.3147705465       27.0579232802
 Pt         6.8676025602        2.4924195289       27.0230604561
 Pt         2.7704077574        4.9253233885       26.9562966038
 Pt         5.4513477007        4.8316612237       26.7898625628
 Pt         1.0964439464        2.3685348743       26.9112885273
 Pt         3.8523430363        2.5359505768       26.8744616736
  H         7.7676217771        1.7925338705        9.3598158844
