     242
Tv_1:  11.152900   0.000000   0.000000 Tv_2:   0.000000   9.658700   0.000000 Tv_3:   0.000000   0.000000  26.829700
 Pt         5.3933926721        8.0467432026        2.3381660782
 Pt         6.6316450551        1.0680478280        2.3347072363
 Pt        10.8890684362        8.2586848330        2.3336526496
 Pt         8.1306008956        8.3577600637        2.2767147059
 Pt         8.1057462774        3.2874088346        2.3056935064
 Pt         2.5376431368        7.9570527478        2.2997932331
 Pt         9.4496866130        5.6367531296        2.3205535363
 Pt         6.7099681504        5.7143642816        2.3746852087
 Pt         5.1183334975        3.3446135106        2.3816995102
 Pt         3.9502257387        5.6667976870        2.3537298973
 Pt         9.5006879901        1.0188461036        2.4059624532
 Pt         1.1345574109        5.7453951664        2.4283483816
 Pt         1.2277992991        0.7938131430        2.3918702084
 Pt         2.4864989670        3.1143516564        2.2694879549
 Pt         4.0192551376        0.7800378884        2.3501069372
 Pt        10.9312996435        3.2517254971        2.2008888942
 Pt         5.8477819680        6.8659291368        4.7364165619
 Pt         8.5475454334        6.9297442252        4.5096638120
 Pt         7.1667710942        9.3508607365        4.7181803802
 Pt         7.2753325170        4.4223978004        4.7777649758
 Pt         8.6784316798        2.0756819870        4.7542580614
 Pt         5.7457988340        2.0856230654        4.6824349916
 Pt        10.0321148398        4.3831590472        4.6229451454
 Pt        10.0374386800        9.3167513814        4.8234864772
 Pt         1.6822950254        9.0888162977        4.7767911968
 Pt         0.1679869683        6.8848568392        4.6835471782
 Pt         3.0778422941        1.9148504908        4.6333750834
 Pt         3.0486422393        6.7484482476        4.7782992220
 Pt         4.4750146119        9.1838462057        4.6865291220
 Pt         4.5138776419        4.5111443822        4.7803722778
 Pt         0.3392714910        1.9927406191        4.6216808772
 Pt         1.7274876935        4.3263963711        4.6052132709
 Pt         7.7687270979        3.0722269445        7.1012651487
 Pt        10.3890946137        7.8169814435        7.0315307046
 Pt         9.1305842080        5.4480409785        6.9773764052
 Pt         9.1018169769        0.6692673801        7.1997198643
 Pt         6.2724325516        0.6400897574        6.9553902179
 Pt         3.5739730537        5.4772999030        7.0700733833
 Pt         3.4748051434        0.7243136011        6.9740108184
 Pt         7.8365581133        7.9894646670        7.0237807789
 Pt         5.0013065957        2.9785198711        7.0257284040
 Pt         2.0693223965        3.0133258805        6.9120003564
 Pt         0.8201035095        5.2930270964        6.9363645102
 Pt        10.3792753805        3.0208429056        6.9852979069
 Pt         6.4878948094        5.5512563074        7.1687477672
 Pt         0.8170286991        0.7691054705        7.2246502254
 Pt         2.0369530486        7.9300158911        7.1872743346
 Pt         4.9056321275        7.9477384044        7.1124774444
  O         6.2596518505        5.8440186770        9.4281360505
  O         2.0806927693        7.7482712193        9.3655854890
  O         0.8185517619        5.3604031131        8.9784962545
  H         4.3260235888        2.2956462895        9.3830321638
  H         8.1804214703        5.4985443778        9.9945299380
  O         0.5509823516        0.7071683385        9.3506177405
  H         1.7864251372        8.5861481259        9.8602030187
  H         4.1346043966        4.3253573571        9.4073129220
  O         8.9137648598        0.9103338996        9.3029069498
  H        10.6841602879        0.7712626306        9.4021629570
  H         0.9534738679        1.6768021863        9.5740118297
  H         1.1801913006        6.2231516567        9.3501394208
  H         6.5219034628        2.9318361401        9.3240213943
  H         1.1727550811        3.6757813115        9.8266397040
  H         8.2628094570        0.2114787377        9.4513871658
  C         7.3842345527        6.1411418166       10.3468587429
  H         3.1018193080        7.8232912292        9.3721150220
  O         7.5623482840        2.9598358021        9.2310276651
  H         5.1665064185        8.7179220265        9.4959823224
  H         7.1211769036        6.0335939427       11.4032081573
  O         4.6324691120        7.8920936275        9.1458857199
  O         4.9453150844        2.9999751579        9.0727734929
  O         1.8229061540        2.9602937459        9.9797306464
  H         2.3300636684        3.1971032978       10.8884011462
  H        10.3601568284        7.9071107389       10.1113856786
  O        10.0072492212        7.4157663288        9.1973999616
  H         4.9863968044        3.1258590110       11.7182936999
  O         5.7327986449        2.4728130934       11.7152273342
  O         3.5780120637        5.1626219185        9.2411036765
  H         5.5818810674        6.5823939175        9.4714914912
  H         7.7984834018        7.0948403240       10.1159274724
  H         7.5902888509        6.4195020006       14.0010483356
  H         6.0633289036        2.3511831190       12.6562095307
  H        10.4790972082        6.5658239548        9.2372646300
  H         6.3279092043        9.0961832627       11.2616906860
  H         6.1157740982        0.9985901034       11.0077430307
  O         6.3171231324        9.8275923722       10.5162859730
  O         8.1017316244        5.6381298515       14.4314313327
  H         2.6502553857        4.8464976906        9.3580220023
  H         9.5689566667        2.6196347321       11.5051097750
  H         8.9801578178        5.5862163365       13.8611731430
  H         9.1183010838       10.5383301435       13.4607526537
  H        11.5850008890        8.4209801845       11.7379750839
  H         8.8091467211        3.5342219033       10.5212784371
  O        -0.5652182231        8.3166702624       11.4925822981
  O         9.9261820673        1.2620054399       12.9701429677
  O         9.6265699308        3.5370144525       11.1317590685
 Cl         6.0252573933        8.1713059876       13.1694788688
  H         2.9405641078        4.5398849788       12.4950969789
  O        10.2236890318        5.7313144110       12.8268832852
  H        10.1246955216        4.9690196677       12.1384055327
 Cl         2.0719207946        5.8750277969       13.5021717510
  O         6.6964081208        2.7528543964       14.3782695379
  H        -0.6969847839        7.4354437606       12.0103670145
  O         3.1991443936        3.6216015744       12.0436367734
  H        11.1427903092        5.6399462734       13.0235582438
  H         7.0137395383        3.6884368856       14.3356895871
  H         7.4265216866        2.1130221560       14.3757139563
  H        10.3653176110       10.1520380681       12.5193696790
  H         7.1635438192        9.3082364566       14.0838535534
  O         5.5890366331        4.9259001412       16.9305547128
  H         5.4942149588        3.8918627124       16.8275253003
  H         2.0534498146       -0.0250500548       12.5354903848
  H         2.9430422621        2.8864536070       12.7287832524
  H         8.2362836236        6.1651930022       16.1643679926
  H         4.7197918657        1.7608958239       16.4256852115
  H         5.1432305861        5.4217054741       16.1315908160
  H        10.8166096423        1.8316774025       14.4183310058
  H         7.1156721615        5.8096646114       17.0655713447
  O         7.8896743984        0.2414760405       14.4757170441
  H         8.0174153612        9.6155875009       15.4016866031
  O         4.9129447817        2.4272974581       17.1279116641
  O         1.7832376127        8.8013268524       12.0248504891
  O         7.9282268208        6.3678676526       17.0800666060
  H         4.0061075132        2.7652555304       17.2432659723
  H         8.2298706739        8.1117781494       17.2064019532
  O        11.4679508301        1.9594506830       15.0866390319
  O         2.6008826568        1.4208993032       13.5561218226
  O         8.3336470037        9.1171079676       17.1546231568
  H         1.8440543275        1.6476852976       14.1658936462
  H         1.1984141722        3.2007495314       16.0430484772
  O         1.9744218909        3.7051770599       16.3447179784
  H         2.2961101709        8.0516206743       12.3579464087
  H        11.0628915969        1.4853928572       15.8427850527
  H         7.3858083432        0.3291808387       18.0489504042
  H         6.2158485654        1.2357825326       18.2969179212
  H         3.2819356292        0.9524227748       14.1421153649
  H         2.1887142100        4.3201530829       15.6376245449
  H         3.4462318428        6.4224310803       14.9314085380
  O         6.9898862054        0.8889656570       18.7810171103
  H         9.2450006924        9.4563745748       17.0982333871
  H         9.0252918941        5.2472809403       17.9303673318
  H         8.6963332789        1.9122832141       18.7889005166
  O         4.2148125125        6.7822179513       15.3648729783
  O         9.5431284455        2.3246943849       19.1704042524
  O         4.3266488954        0.3957762353       15.1964309840
  H        15.8552254658        7.1903192911       14.5518866411
  O         9.7093481153        4.9960064491       18.5966417008
  H         5.0327639618       -0.0184362322       14.6367562246
  H         9.5355132914        3.2990853301       18.9202661939
  H         4.0382422033        9.3899097479       15.9126339154
  H        10.4656675247        1.4475967499       18.1478440031
  H         3.6083714342        7.5114666915       17.0554689928
  H         4.1438054478       -0.1632280895       20.8686017470
  O        10.7800835816        0.6269435234       17.5146895018
  H         9.3716143231        5.2980996526       19.4659230369
  O         3.6029319733        7.8726375487       17.9526021630
  O         3.1569245689       -0.2071388667       20.8819084896
  H         2.9555356543        0.6897977128       21.2786827293
  H        11.5556398364        9.8742489185       17.9305886182
  O         1.2850100432        5.4173398362       18.6652507363
  H         2.6040237541        7.8345921948       18.2395588669
  H         2.0317406576        5.1018510569       20.1137363296
  H         4.5555892216        6.6598116190       19.1464712014
  O         9.1649419614        5.7041180924       21.2229983162
  H         1.5783351696        4.7130661294       18.0999981559
  H         3.5896751073        5.1936725777       20.5363064568
  O         2.6888350713        4.9094440875       20.8714206366
  H         8.2174200864        6.0423640113       21.2312339489
  H         8.6339670464        3.0120022405       22.1630297085
  H         4.9861660340        5.3379880819       18.4745918378
  H         9.2092624459        4.7541106045       21.5612065942
  H        11.4758569261        5.4287559715       18.5974970371
  O         4.7826089474        5.7376308001       19.4060893568
  O        -2.3321182503       -0.6616173451       21.7910163730
  O         9.4245098791        3.0076523530       21.6734773501
  H         2.1043728915       -0.7928654295       19.7317073113
  H        10.6249239058        6.5332807795       21.1810745202
  H        -3.1005277765       -0.0578788894       21.6215004267
  O         5.9553611906        9.3411856855       21.2537671114
  H        -1.5588871547       -0.2882536572       21.3943164600
  H         6.0378745812        8.3811390681       21.1224573314
  O         1.2607031076       -1.1074597589       19.2410453736
  O        11.5648055349        6.9776580888       21.1786362064
  H         9.2503317454        2.6503702817       20.7473460751
  H         6.2449153623       -0.0906001739       20.3536573569
  H         6.0222088904        6.1732000380       20.6452023276
  H         2.5506951919        3.3074617734       21.6471389416
  H        12.2338704955        6.2238303041       21.4165589197
  O         6.6914368798        6.5950425947       21.2582068297
  H         0.8351521282        7.8893570840       19.8208556399
  H         3.5882291158        8.2120796385       22.5335901678
  H         6.3201397794        6.2770727814       22.1525994113
  O         2.8154296072        2.5214187060       22.1300131868
  O        10.8619221973        9.8555137718       24.3652123056
  O         3.5419893330        8.1319293667       23.5129684325
  O         7.5759685722        2.9309504150       23.8270173424
  H        11.4649930440        5.9871130917       24.1714662048
  H         2.1543841762        2.3428004511       22.8312672496
  H         4.2017661761        7.3697771221       23.7101611630
  H        11.3413363371        9.0805228027       23.9290097804
  H         6.6406291766        3.0025021469       23.5532661318
  H         7.6022319980        3.7515400330       24.4605565476
  H         4.0176918792        3.0526403819       22.9894246758
  H        11.2604063939        1.0921661236       24.0816132796
  H         4.7722198525        5.2278202357       23.8203218124
  O        12.1269528683        7.5251853108       23.6716918021
  H         1.9507291070        7.5629333769       23.7073070222
  O         5.3510464905        6.0260803477       23.6993931841
  O         4.7451787405        3.3482311566       23.5544855942
  O        10.8406413122        5.1892775721       24.3442466552
  O         0.3625350474        2.4800510773       23.4515983622
  O         8.6134036030        6.5342621534       23.8356216637
  H         7.8376635668        1.4904152681       24.3151556415
  H         4.5970511437        9.4369299740       24.0808740605
  H        10.7760049639        2.6614676334       22.7998769507
  H         8.4219859047        7.0477947209       24.6839949581
  H        11.8514163733        7.4730898077       22.6961521784
  H         9.9196017497        5.7283062090       24.2600966751
  H         6.0705476865        0.2419083464       24.0012614678
  H         8.9484810011        9.9892678506       24.1401517996
  H         4.6089425796        2.8670006274       24.3930250822
  H         6.0507685005        5.9596624879       24.4014779082
  O         7.9881160478       10.1133647439       24.3696677232
  O         5.1719327735        0.4862696936       24.4241420789
  H         0.2271475539        3.2542551704       24.0359960825
  H         8.7363886960        7.1759929123       23.1152346193
 Pt         2.4272628338        9.5454237685       26.8744662735
 Pt         5.1910528452        9.5744101216       26.7310540146
 Pt         8.0064838265        9.4410854417       26.6541760710
 Pt        10.8644960873        9.4337834347       26.6767077220
 Pt         7.9563432769        4.5519461846       26.7806173494
 Pt         3.7519379821        7.0891172841       26.7490728961
 Pt         9.3197763743        7.0016011575       26.7868092138
 Pt         6.5782064947        7.1276171920       26.9204488275
 Pt        10.7873846856        4.6877251959       26.5905056086
 Pt         1.0638827388        7.0250540597       26.6835906650
 Pt         9.4210501019        2.1716617044       26.8901887503
 Pt         6.5579267408        2.3222300951       26.8034904821
 Pt         2.3714656374        4.6667462781       26.9157562731
 Pt         5.1382709754        4.6482757551       26.8936104088
 Pt         1.1042208908        2.2883564287       26.7216642947
 Pt         3.7380913812        2.3344655238       26.6537808695
  H         7.9063444837        2.0196326010        9.4720950523
