     242
Tv_1:  11.152900   0.000000   0.000000 Tv_2:   0.000000   9.658700   0.000000 Tv_3:   0.000000   0.000000  26.829700
 Pt         5.3790065012        8.1406632871        2.4413317550
 Pt         6.8429966794        0.9917698937        2.2327960796
 Pt        10.9434157342        8.3047683115        2.2319832003
 Pt         8.1784307316        8.3600825394        2.3436674631
 Pt         8.1884242414        3.4939219926        2.4100182998
 Pt         2.5906497350        8.2763186142        2.3490543662
 Pt         9.6191391196        5.8323972608        2.3376668214
 Pt         6.9282042990        5.8993916195        2.4721187138
 Pt         5.5096914258        3.3903091786        2.4289267704
 Pt         3.9200621948        5.8941803186        2.4583847333
 Pt         9.6148339513        1.0778527596        2.2078845492
 Pt         1.1923306853        5.8977349258        2.3777323578
 Pt         1.1566740187        1.1829501078        2.2329762175
 Pt         2.7774226913        3.4512750015        2.3304201216
 Pt         3.9472423917        0.9639318016        2.2514813410
 Pt        10.9829433596        3.5321455669        2.2457042052
 Pt         5.8833729970        6.8088739147        4.7213527327
 Pt         8.5897337976        6.8145316840        4.6544102679
 Pt         7.2844875236        9.2268706531        4.6591089568
 Pt         7.1602738354        4.3802313425        4.7472691424
 Pt         8.4657503394        2.0026684424        4.6897172745
 Pt         5.7336751334        2.0054459384        4.6082300683
 Pt         9.9692232722        4.3693850380        4.5301155875
 Pt         9.9555389855        9.2303890927        4.7467273999
 Pt         1.5465571286        9.3284372719        4.5793426969
 Pt         0.2493071757        6.9727840615        4.7606815693
 Pt         2.9683722297        1.9435437270        4.5368946840
 Pt         3.0044945802        6.9043467549        4.7467530990
 Pt         4.3761474313        9.2604490555        4.5717883280
 Pt         4.3621452953        4.3457628769        4.7992113220
 Pt         0.1423976090        1.9917402405        4.6198304278
 Pt         1.5441254390        4.4628651527        4.5475753625
 Pt         7.4820068865        3.0264244796        7.0137242347
 Pt        10.2076549250        7.8549798070        7.0462817220
 Pt         8.8797356443        5.5111546257        6.9059675469
 Pt         8.9234729547        0.5972388399        7.0956764373
 Pt         6.0462418101        0.4991435020        7.0386642201
 Pt         3.2148069713        5.4854524032        7.1348577866
 Pt         3.2835993004        0.7139660535        6.8937108323
 Pt         7.4417010827        7.9069215135        7.0512588966
 Pt         4.7236158199        3.0189618035        7.0899788687
 Pt         1.9033380294        2.9836033592        6.7708895454
 Pt         0.5738077780        5.4316030974        7.1163766534
 Pt        10.2253388647        3.1052634303        6.8031387614
 Pt         6.1700819583        5.4672621253        7.1420537968
 Pt         0.4851848973        0.6714617135        7.0654508418
 Pt         2.0984748618        7.8923486650        7.0702157209
 Pt         4.7983436741        7.8985110382        7.1641002737
  O         6.1263328156        5.4608698871        9.4400589653
  O         2.0605303365        7.9284748607        9.1093496895
  O         0.6291479508        5.6763437468        9.1764025099
  H         4.1578958653        2.3412635108        9.4835449947
  H         8.0878942613        4.9247513585        9.7575150230
  O         0.4113997615        0.5317133840        9.2698038177
  H         1.4155352580        8.6247323072        9.4074551043
  H         3.9550003351        4.4803027140        9.3261088302
  O         8.6863085014        0.7059114065        9.1286527593
  H        10.5598729490        0.3673090987        9.4254321986
  H         0.7296002725        1.5259111662        9.4970314017
  H         1.2512093851        6.4304727022        9.3558074893
  H         6.3502960241        2.9092990845        9.4240904964
  H         0.5315232348        3.3788299871       10.3136615405
  H         8.0077696243        0.0185064011        9.5228304614
  C         7.3496693573        5.6023479646       10.1705366465
  H         3.6667483452        7.7738978438        9.6313906747
  O         7.3332958493        2.8917823339        9.1781039141
  H         5.3136240577        8.3837134609        9.8260153389
  H         7.1795456496        5.4398735150       11.2336964144
  O         4.6663281293        7.7611162159        9.3667600169
  O         4.6949801821        3.0940041828        9.1678182846
  O         1.3192548998        2.8663951806       10.0135997025
  H         1.9854099671        2.6683798629       10.7547222779
  H        10.1247550980        8.0461856256        9.6277554881
  O         9.8716742153        7.3402792800        8.9993260930
  H         4.7415070255        1.6322088542       11.8697524555
  O         5.6622879158        1.5441860376       11.6492941882
  O         3.3835873231        5.2867882288        9.3010837567
  H         5.6164969187        6.2861229112        9.6915797439
  H         7.7235971722        6.6216549749        9.9120494640
  H         7.8646073557        5.8604335166       13.2983032352
  H         6.1482157684        2.0292052733       12.3466970294
  H        10.8938801803        6.3287505743        9.2744777038
  H         6.7065635672        8.3445668135       11.3670427435
  H         6.3799640676        0.1879547889       10.9300848622
  O         6.6441967302        8.9554620040       10.5731096806
  O         8.1910956766        5.0450216246       13.7770008569
  H         2.4035426263        5.0082899013        9.4560567990
  H         9.9355835554        2.0815673399       11.7076381317
  H         9.1699346805        5.0443418097       13.5553400229
  H         9.6146329941       10.0413991092       13.4618009336
  H        11.9989476444        7.8415343718       11.6151593788
  H         9.2136595646        2.6458977525       10.5683010169
  O        -0.1081665981        8.0784624587       11.4941093081
  O        10.4373506792        0.5915758693       12.9570397063
  O         9.8075262791        2.9506844111       11.2370865608
 Cl         6.2786286113        7.5544863931       13.2413128960
  H         2.9887430052        2.9132185077       12.3950886624
  O        10.3789149989        5.2814742214       12.4786196044
  H        10.1022917654        4.5479037067       11.8569604002
 Cl         2.2941965339        4.5723752466       13.2306618035
  O         6.8645717261        2.5001507799       13.8217520566
  H        -0.5442087325        7.3614879472       12.0158096115
  O         3.0454768601        2.0721674810       11.8541959859
  H        11.2895610653        4.9811223775       12.7360954516
  H         7.3953326789        3.3760882450       13.8220104831
  H         7.3951526759        1.8672239615       14.4077783549
  H        10.7487351429        9.3371840970       12.5208651575
  H         7.6715599750        8.7757871902       14.0180424840
  O         5.9949961600        4.5166568821       16.7469564788
  H         5.7714972182        3.5799945568       16.9795950478
  H         2.7636562352       -1.6898569547       12.4484557827
  H         2.6747555383        1.4315963846       12.4704188919
  H         8.6496791560        5.3107203300       15.6932164507
  H         5.0856224022        1.5441502671       16.2802097609
  H         5.2688260343        4.8798900744       16.2475865538
  H        11.2039383352        1.1982170861       14.4956993178
  H         7.4721991758        5.0471345364       16.6679926690
  O         8.2131552632       -0.0972603833       14.4639780002
  H         8.4488830093        9.1590405925       15.2825121038
  O         5.2315416355        1.8663838209       17.1644580012
  O         2.4304837738        7.3053385027       11.8056848120
  O         8.4526854095        5.4403538564       16.6700595994
  H         4.3296253014        1.9701320971       17.5095019808
  H         8.5659748918        7.0313548604       16.6858300268
  O        11.7741375153        1.2886812534       15.2372562977
  O         2.5919166335        0.1027432513       13.7897487243
  O         8.6477242102        8.0315644892       16.8370552195
  H         1.8773186042        0.4546866153       14.3661460156
  H         2.0409802309        2.4025689188       15.7261072288
  O         2.7753165021        2.9505323164       15.9830454808
  H         2.2294677259        6.5352413747       12.3719318264
  H        11.3876521172        0.7834287185       15.9727343945
  H         7.4415673084       -0.5354796331       17.9809128214
  H         6.4580130672        0.7675272624       18.0148978797
  H         3.3029307894       -0.0619569443       14.4722171505
  H         2.8862078577        3.4967722635       15.1187993339
  H         3.6529969647        5.6044716263       14.4836274973
  O         7.0553055448        0.1694044924       18.5645482634
  H         9.6245531790        8.2500966474       16.9717246581
  H         9.4275069726        4.0515127174       17.4427157043
  H         8.6777342620        0.9569801526       19.0079138423
  O         4.2316426425        5.9700452932       15.3444492584
  O         9.5322542093        1.4864888507       19.2089413314
  O         4.5591013069       -0.2651171535       15.7278181355
  H        16.1526384751        6.3705594732       14.9293219764
  O        10.0927212088        3.7666491241       18.0980260480
  H         5.2090221447       -0.8937637891       15.3072958643
  H         9.6574478179        2.3659818363       18.6948065580
  H         4.2178507341        8.8317411038       16.4933349174
  H        10.4305396373        0.3384586620       18.2370256927
  H         3.7670796595        6.8846598526       16.9976757766
  H         4.7164006368       -0.3843306991       21.0918297498
  O        10.8663509449       -0.2465864774       17.5988970804
  H         9.8255262664        4.2611747301       18.8882721168
  O         3.7522336607        7.5420991321       17.6965814376
  O         3.7464551080       -0.3009085472       21.2547835759
  H         3.4757559704        0.5980559970       21.4946930084
  H        11.7217909211        9.0676513543       17.9860608956
  O         1.8296143699        3.2526564188       18.3097211683
  H         2.8809783885        7.6149170134       18.2205811939
  H         2.5664094312        4.2079910311       19.5592109453
  H         4.7731770776        6.4175280837       18.7222644952
  O         9.6476337277        4.9007903096       20.4743149827
  H         2.2628170920        3.3291128711       17.4619181925
  H         3.8212865211        5.1467342181       20.0503446362
  O         3.0014434125        4.6269545442       20.3649028184
  H         8.8180422530        5.3358996835       20.8277907962
  H         8.3614973068        2.3780913977       21.9214597787
  H         5.4963319604        5.0772777808       18.4421275343
  H         9.6179019403        3.9343820128       20.7791637067
  H        12.0289038741        3.2410533748       18.0269574848
  O         5.2362130451        5.6900429390       19.1603540788
  O        -2.4320600840       -0.9105423932       22.3033305093
  O         9.2840537089        2.3937892415       21.5804827820
  H         2.3756657498       -0.7955295730       19.8220546259
  H        11.2385866364        5.7446184532       20.8224347156
  H        -3.1313591440       -0.6506442005       21.6939978816
  O         6.3464222316        8.9661496759       20.8706086405
  H        -1.5955035884       -1.0650757039       21.8483873731
  H         6.8011809255        8.0840409995       20.8694343489
  O         1.8683388557       -1.4909639976       19.3072555386
  O        12.1124914839        6.2435159336       21.0528827283
  H         9.3045145578        1.8948626409       20.6567466594
  H         6.5120423874       -0.3437090397       19.9159993399
  H         6.5957786358        6.0658739276       20.2408271219
  H         2.8441820903        3.0881241296       21.6093795450
  H        12.8490782795        5.6367897349       20.8933850523
  O         7.1761708914        6.3828157720       20.9525518704
  H         1.5458406565        7.3914715390       19.9009127135
  H         3.7507071690        8.4793351573       22.6541403473
  H         6.6906588053        6.1700285041       21.7672805045
  O         2.7231526586        2.2177327757       22.0128308510
  O        10.9108289779        9.5314944704       24.2198567860
  O         3.6700206141        7.9091887886       23.5142014842
  O         7.1202588547        2.8905716455       23.3965040375
  H        11.9084298713        5.7577204948       24.3890490160
  H         1.7632714713        2.2165692814       22.3668494337
  H         4.3466315719        7.1940105291       23.5345980938
  H        11.5599113912        8.7479563537       24.1099855589
  H         6.1063686304        3.0444542865       23.3827150518
  H         7.3533769294        3.6435214999       24.0135731250
  H         4.0630424811        2.7954229545       23.3715575639
  H        11.2580356769        0.7709766299       24.1016001651
  H         5.1245034002        5.2717838753       23.1448588389
  O        12.2552399038        7.3764581758       23.7030475112
  H         2.1488677018        7.5442217498       23.7269035104
  O         5.5977075761        6.1201042876       23.3004272685
  O         4.5574820627        3.6484883322       23.5882412628
  O        11.2897808263        5.0394987999       24.5289509587
  O         0.2234644126        2.3588952188       23.0163240664
  O         9.0395893351        6.2025772963       23.8593207832
  H         7.6948746939        1.3470279440       24.0755519800
  H         4.5487802053        9.2419781616       24.0761683219
  H        10.4869778588        2.3525777896       22.5828590331
  H         8.9337307480        6.4715293046       24.8690143437
  H        12.1101367156        7.2824636274       22.6950853745
  H        10.4114168309        5.5410313325       24.1932967993
  H         5.9108079929        0.4924912487       24.0477923859
  H         8.2739759110        9.5140583977       23.8633826995
  H         4.1606558289        3.8608775499       24.4688027988
  H         6.1308968724        5.9630027064       24.1273541426
  O         7.7071982543       10.0958464597       24.4401463611
  O         4.9738018035        0.4265671750       24.3976963521
  H         0.3179593372        3.2032392921       23.5481105396
  H         8.9112770505        7.0265143658       23.3125706886
 Pt         2.3001268256        9.6634281214       26.6598558729
 Pt         5.1408187675        9.6626101947       26.8127395318
 Pt         7.8742019522        9.7152429318       26.6787000598
 Pt        10.6564245762        9.7086933951       26.4921825648
 Pt         7.9727236231        4.8839145264       26.7441191999
 Pt         3.8102728842        7.2899560731       26.7834509900
 Pt         9.4125220887        7.3435839194       26.9807550252
 Pt         6.6279253004        7.1969971115       26.8903251684
 Pt        10.7958991273        4.8849724686       26.7526496887
 Pt         1.0390437258        7.2752473202       26.7473263045
 Pt         9.4792105134        2.5461276836       26.7219644370
 Pt         6.6334746677        2.4440112988       26.8387509918
 Pt         2.4045262535        4.9539439338       26.8440965398
 Pt         5.3535856824        4.8599636101       26.8783651887
 Pt         0.9524973376        2.4376671260       26.7381115062
 Pt         3.8118814237        2.5038494791       26.7778527217
  H         7.6608260733        1.9694164995        9.3472013106
