     242
Tv_1:  11.152900   0.000000   0.000000 Tv_2:   0.000000   9.658700   0.000000 Tv_3:   0.000000   0.000000  26.829700
 Pt         5.3842009390        8.3053787705        2.2681605347
 Pt         6.7075486911        0.9839794305        2.3674722702
 Pt        10.8972348079        8.2992491285        2.1992658645
 Pt         8.0523955587        8.3374475596        2.1487397306
 Pt         8.1740106653        3.4718211382        2.3584627791
 Pt         2.6567771342        8.3053841287        2.3460401505
 Pt         9.5673599622        5.8300277392        2.3656025474
 Pt         6.6808410263        5.9076762969        2.3571592573
 Pt         5.4098277006        3.5374670194        2.4696047384
 Pt         3.8639583453        5.8849529719        2.3865286337
 Pt         9.6207057876        1.1460492941        2.3405903859
 Pt         1.1819037872        6.0378407167        2.3211079930
 Pt         1.3252795146        1.0474323004        2.3719257342
 Pt         2.6134925701        3.4122697066        2.3134659263
 Pt         3.9786561161        0.9798204814        2.2677119249
 Pt        11.0497391461        3.5102113140        2.1937873405
 Pt         5.6658663612        6.7925983434        4.6588660179
 Pt         8.4256325737        6.8410108636        4.5759414852
 Pt         7.0657944630        9.2190855769        4.5994148261
 Pt         6.9212329603        4.4220290417        4.7468311151
 Pt         8.2747297084        1.9982513438        4.6788656105
 Pt         5.6086330957        2.0279260965        4.7059962018
 Pt         9.8331451690        4.3912430287        4.6889458857
 Pt         9.8278714199        9.2563280199        4.6084491528
 Pt         1.4306205095        9.2895315138        4.6677978845
 Pt         0.0231114695        6.8779818983        4.6969992089
 Pt         2.8508417784        2.0215079532        4.6746856190
 Pt         2.7803399763        6.8543318705        4.7068363864
 Pt         4.2324688823        9.2682616944        4.6448442069
 Pt         4.1953539746        4.4625180668        4.7508766291
 Pt         0.0853101064        2.0415510282        4.5930304113
 Pt         1.3845048462        4.4233133830        4.6151725136
 Pt         7.4630660921        3.0686459734        7.0924004444
 Pt        10.1782228378        8.0151488036        7.0703227013
 Pt         9.0011478780        5.4901178975        7.0738678278
 Pt         8.7054767192        0.6815226669        6.9746314747
 Pt         5.8972617937        0.5454382561        6.9786967976
 Pt         3.2833327883        5.2815099043        7.0643733534
 Pt         3.1810773948        0.4635803815        7.1204868127
 Pt         7.4546363008        7.9206524879        6.9293559196
 Pt         4.5676387770        2.7984340616        7.0099507927
 Pt         1.8167370094        3.0098446908        6.9835382470
 Pt         0.5159409282        5.3332637169        6.9719668236
 Pt        10.2129425982        3.1285179491        6.9496031351
 Pt         6.1273101306        5.4328391082        7.0843801419
 Pt         0.4331666683        0.6230735295        6.9870624741
 Pt         1.7231847872        7.7827352004        6.9676199603
 Pt         4.5534683715        7.7484361062        6.9548361875
  O         5.9617790294        5.4642689202        9.2706737377
  O         1.8017849126        7.8995647954        9.0689166040
  O         0.4419529005        5.5047863728        8.9903732100
  H         3.5987513618        2.4275984431        9.2479319527
  H         8.0905041251        5.4539948429        9.7518966764
  O         0.2827967924        0.5877700423        9.0911978929
  H         1.4033421305        8.7133541147        9.3799684681
  H         3.8744626286        4.2065416259        9.2169737469
  O         8.7683014814        0.6928997792        9.1529860158
  H        10.4037013018        0.5546055224        9.2974288737
  H         0.5281262852        1.5117658471        9.4695649955
  H         1.0816241363        6.2564309451        9.0857007555
  H         6.7700267563        2.8154978581        9.7625955007
  H         0.3728374296        3.3390162788       10.0864171495
  H         8.1049153557       -0.0046839247        9.4274013451
  C         7.1191329107        5.8125394281       10.1714874077
  H         3.5607178975        7.8245808112        9.3032740652
  O         7.6196381615        2.9467302207        9.3097678237
  H         5.0380210519        8.5636606823        9.4916079493
  H         6.8605740304        5.3624369699       11.1111407905
  O         4.5512761525        7.7380844747        9.0735685217
  O         4.3657603291        3.0235722371        9.0635254808
  O         1.1827635701        2.8665915940        9.8726707575
  H         1.8248596489        2.7026304586       10.6069088921
  H        10.2817090461        8.0681933377        9.8626411965
  O         9.9667117068        7.4052839264        9.1302186900
  H         4.9437456413        2.7056453005       11.2463115965
  O         5.7790453385        2.2393687838       11.4096766007
  O         3.2392849195        5.1425033676        9.2026069669
  H         5.2950753953        6.2063485771        9.4116656999
  H         7.2353149750        6.9201539907       10.2550422106
  H         7.0804598243        6.0242354565       13.2258682474
  H         6.1009438035        2.4380970243       12.3095120494
  H        10.5695855587        6.5797032702        9.2212588297
  H         6.2058549232        8.7060585237       11.1760374172
  H         5.7473689944        0.4708009904       10.5866776593
  O         6.1251483930        9.2470392109       10.3099936334
  O         7.7240234548        5.2967543701       13.4952256568
  H         2.3218258213        4.8676238626        9.4126441005
  H         9.8667041394        2.8188502940       11.4919611203
  H         8.6566690228        5.4985635920       13.1760741455
  H         9.6500810701       10.7008701143       12.7858332052
  H        11.9152290391        8.3652902107       11.6857460568
  H         9.1853361756        3.6077617222       10.3939045460
  O        -0.2229914590        8.4524272489       11.5863571863
  O        10.5212059445        1.2593114375       12.4032942648
  O         9.9644262898        3.5847797751       10.9512211115
 Cl         6.1801761517        7.8460707584       13.1117921439
  H         2.7431049347        3.5200841097       12.2906838396
  O        10.1675013967        5.8257301179       12.3432002564
  H        10.1539954806        5.0807661269       11.6925103124
 Cl         2.2404301322        5.4388166811       12.9588883180
  O         7.0324454260        2.6834705299       13.9681408277
  H        -0.4638097429        7.5984382644       12.0205611325
  O         3.0543348791        2.7245192416       11.7645966113
  H        11.0380946158        5.6181104022       12.8559852929
  H         7.3563464123        3.5244487128       13.6528376118
  H         7.7647240072        2.0818475556       13.7389496966
  H        10.7498343549        9.9346384165       12.0323616743
  H         7.7412152641        9.2650297009       13.6699602426
  O         5.2992406618        4.6764815870       16.9538565936
  H         5.3057052373        3.6405805658       16.8536268982
  H         2.8165578585       -0.8652534548       12.4257495201
  H         2.9706128063        1.8087862339       12.2971674150
  H         7.6381998701        5.9651914696       15.3443542912
  H         6.4936340682        2.4545949722       15.8458967926
  H         4.8163326738        4.9916875307       16.1263521606
  H        11.2664936553        1.4126257058       13.8965122781
  H         6.9043551145        5.6966863803       16.7593703563
  O         8.4766446703        0.1758882711       14.0044595371
  H         8.8044333309        9.5345207517       14.8467053243
  O         6.1143814786        2.1512064320       16.6915769977
  O         2.3466513444        8.1516902361       11.8119114927
  O         7.6354932800        6.2193489588       16.2942894840
  H         5.4771411192        1.4724333071       16.3071401023
  H         8.2017759856        7.7934533259       16.7190319658
  O        12.0468583797        1.5093436463       14.5959929303
  O         2.9825054432        0.6457546816       13.4445911609
  O         8.6432186627        8.6454937342       16.6719151465
  H         2.1329526634        0.7248564718       13.9752263511
  H         1.7838123080        3.0661169214       15.2931637720
  O         2.5165433587        3.7165424916       15.5374185732
  H         2.7141626688        7.2595783219       12.1360971838
  H        11.5947400902        1.1411175303       15.3903321133
  H         8.1785707428        0.4564000966       18.0546268624
  H         6.9721741578        1.5127402605       17.7629455488
  H         3.7563700389        0.5902607410       14.0635022490
  H         2.4476935575        4.3605646382       14.7755632920
  H         3.8458069110        6.1670603006       14.2688551705
  O         7.4614858924        0.9829399214       18.4843264584
  H         9.6215502461        8.5992521868       16.8033240549
  H         9.0119785824        5.3063106773       17.0431030303
  H         8.8188727180        2.0012128551       19.1406655497
  O         4.4783857364        6.2870929568       15.0227743563
  O         9.5718858280        2.6298005402       19.2373130362
  O         4.8954318936        0.1846275250       15.1995509961
  H        16.3742862420        6.7450717412       14.6372838469
  O         9.5248296135        4.9227741926       17.8209795240
  H         5.5419500913       -0.2669467190       14.6594360335
  H         9.3874376138        3.3404398961       18.6056352633
  H         4.4649770734        9.1944299252       15.7866755318
  H        10.7593268729        1.5322838421       17.5394710283
  H         3.6964822374        7.2860451560       16.1991562586
  H         4.7751934168        0.3710339793       20.7161871479
  O        11.1204315560        0.7373692415       17.1276688962
  H         9.2565944117        5.4675657939       18.5782704906
  O         3.8220121782        7.9985252787       16.9034140838
  O         3.7784091688        0.2805142380       20.7999251189
  H         3.4875483838        1.1556842623       21.0954572827
  H        11.8055370505       10.0750687695       17.7854406314
  O         1.2492902705        5.1953480043       17.8318275063
  H         2.9818680954        8.3440908764       17.3576393178
  H         1.8087779142        4.8726749410       19.3998514141
  H         4.2114174409        6.9966308500       18.3106595868
  O         9.0598834283        6.0836125021       20.3268189546
  H         1.6724092806        4.6612228664       17.1366664183
  H         3.2154639517        5.5578913533       19.8531101895
  O         2.4660838532        4.9522326322       20.1730288445
  H         8.1208539950        6.3292672000       20.4860675992
  H         8.9616875285        3.5467818828       22.3105210941
  H         4.8073783053        5.5276991631       18.2074614033
  H         9.2112277367        5.2831645275       20.8784219798
  H        11.4191591836        5.1944363183       17.6130895027
  O         4.4901632782        6.2419134833       18.8432932843
  O        -2.1904320057       -1.0174086046       21.8990011578
  O         9.8382493775        3.5777956202       21.8694892862
  H         2.6019666938       -0.3199749599       19.3230441945
  H        10.7125570554        6.8043612337       20.5748182145
  H        -3.0141017669       -0.6190907385       21.4276668841
  O         6.5931525092        9.5554382478       20.6875302021
  H        -1.9223527907       -1.7019400524       21.2627438867
  H         6.5151556846        8.6307609528       20.3684179349
  O         1.8308368535       -0.7187418644       18.7664452001
  O        11.6597224144        7.0520978231       20.7319365225
  H         9.8404708632        3.1570901942       20.9761732194
  H         6.8756633398        0.3725939483       19.8729212810
  H         5.7973443019        6.5731670596       19.9353093130
  H         3.0179513534        3.5857478707       21.2344415423
  H        12.1824472986        6.2535492503       20.7143387703
  O         6.5415641017        6.6913371485       20.5851456840
  H         1.3672267971        8.3070328274       19.4030591723
  H         3.7992938150        9.0626347063       22.2617140368
  H         6.1033249796        6.6223414242       21.5038475301
  O         3.1722814071        2.8676589565       21.9211267911
  O        10.8485314488        9.9610572448       24.4260067711
  O         3.7494750588        8.5929307642       23.1522626041
  O         7.7650144593        2.6580938592       23.5357638956
  H        11.2871979036        6.3026988720       24.2267838363
  H         2.4039369828        3.0114973454       22.5769648547
  H         4.2055252814        7.6823873269       23.0610828699
  H        11.2456534917        9.1538682259       23.9402363358
  H         6.7972785871        2.9464075518       23.6800645310
  H         8.2199748300        3.2417911428       24.1911295879
  H         4.5322282172        2.9951345384       23.0138881811
  H        11.2411815855        1.1057725513       24.0281655837
  H         5.0374290693        5.6037013052       23.3760298181
  O        12.0361852405        8.0129641451       23.3615415212
  H         1.8497439220        8.1521064284       23.4221882839
  O         5.3602836358        6.5499795293       23.1811031513
  O         5.1351989700        3.5320728854       23.6063705906
  O        10.6746852787        5.5078821591       24.4035249695
  O         0.7769560685        2.7323610363       23.5651109887
  O         8.3887260884        6.8479991750       23.7941931070
  H         7.8973170430        1.1765700332       23.9862295723
  H         4.6895633306        9.2814950879       23.8412078793
  H        11.0503051419        2.9315240180       22.9763331607
  H         8.4526061656        7.3971150093       24.6369320692
  H        11.8610292067        7.6879443959       22.4244008562
  H         9.7394946060        5.7938496524       24.1250021321
  H         6.2649906547       -0.1211758716       24.0580553462
  H         9.3041691982       10.0061734993       24.2942171289
  H         4.9045861585        3.2360691307       24.5564586947
  H         5.8298763368        6.8555569195       24.0224981356
  O         8.2705295412       10.0432238832       24.5746560824
  O         5.4388843978        0.1947994619       24.4329181533
  H         0.6721604397        3.3275807441       24.3393334692
  H         8.6211884615        7.4920114651       23.1024499960
 Pt         2.5918129254        9.7113152888       26.7686112380
 Pt         5.2365742767        9.7331960287       26.5816528070
 Pt         8.1321775510        9.7660925459       26.6156980511
 Pt        10.9512350886        9.7421302995       26.7609679331
 Pt         8.1038336465        4.9316407940       26.7738991759
 Pt         3.9336481293        7.2871948570       26.7571920624
 Pt         9.4745816975        7.2258674516       26.8952197921
 Pt         6.7610475421        7.2041781371       26.7553502927
 Pt        10.9000038848        4.8558132781       26.5958288236
 Pt         1.2221538884        7.2473235365       26.7820621817
 Pt         9.3706415417        2.5479959333       26.8643407323
 Pt         6.6738769407        2.5154137771       27.1280493862
 Pt         2.5547276146        4.9423774891       26.8288170630
 Pt         5.3575708195        4.9520588774       26.8584848208
 Pt         1.2325419614        2.3980669878       26.7663403119
 Pt         3.9244621881        2.5089875625       26.7141359508
  H         8.0545998187        2.0139890100        9.2333272007
