     242
Tv_1:  11.152900   0.000000   0.000000 Tv_2:   0.000000   9.658700   0.000000 Tv_3:   0.000000   0.000000  26.829700
 Pt         5.1815856794        8.3469393895        2.1734537401
 Pt         6.6302897804        1.2416022924        2.1521478531
 Pt        10.7485216669        8.3414553320        2.3252486269
 Pt         7.9053629892        8.4637376804        2.2103325528
 Pt         8.0101785713        3.7007579131        2.4019756735
 Pt         2.4693839615        8.2712470104        2.3583850314
 Pt         9.3658100562        6.0034495991        2.4199547934
 Pt         6.4485083470        6.0032586968        2.3267415597
 Pt         5.3698375468        3.5170670402        2.2998045975
 Pt         3.7152675345        5.6849235934        2.2754783270
 Pt         9.4852560478        1.1345060717        2.3843548105
 Pt         1.0972413268        5.9090071587        2.3683138543
 Pt         1.0823459962        0.9436988774        2.2331555703
 Pt         2.2222335742        3.3281068198        2.3805575991
 Pt         3.8766996909        1.0559534712        2.2191128905
 Pt        10.7020341860        3.5963331038        2.2730603498
 Pt         5.7340249977        7.0218560223        4.6863956836
 Pt         8.4684439519        7.0431089222        4.6841738056
 Pt         7.1824224153        9.4529582228        4.5535849328
 Pt         7.1781431501        4.6362456350        4.7731056845
 Pt         8.5142206947        2.2117265102        4.7842425712
 Pt         5.7906033345        2.2532932898        4.6236113282
 Pt         9.8688160037        4.6060510251        4.6592828724
 Pt         9.9075939334        9.4293756154        4.6949030601
 Pt         1.5896330876        9.3917724521        4.6503634644
 Pt         0.1588504986        6.9711283074        4.7057336922
 Pt         2.9891482833        2.0613849536        4.5639387080
 Pt         3.0381351994        6.8978121431        4.6943672564
 Pt         4.4096645119        9.3274712979        4.4789725957
 Pt         4.2202845452        4.4733208069        4.6485690953
 Pt         0.1733827758        2.1076547427        4.4864607458
 Pt         1.4643002263        4.6057804985        4.7156096014
 Pt         7.6267179024        3.3363043745        7.2172987185
 Pt        10.2930852702        7.9672224636        6.9890808978
 Pt         8.9964686726        5.6005785467        7.0507140644
 Pt         8.9324830266        0.9231642130        7.0875573693
 Pt         6.0675595683        0.6237651248        6.7371965048
 Pt         3.4487389888        5.5279548494        7.0426287964
 Pt         3.2893258741        0.6689301973        6.8481088116
 Pt         7.4111695003        8.0495651985        7.0038134061
 Pt         4.8675988014        3.0580974043        6.9492894635
 Pt         2.0120330452        3.0746009325        6.9696271630
 Pt         0.7460355973        5.4638133579        7.1339240549
 Pt        10.4904566907        3.3095622683        7.0118980704
 Pt         6.2180119119        5.5784582874        7.0502775177
 Pt         0.6042834899        0.8822125401        6.9887058598
 Pt         2.0334388869        8.0235020515        6.9835382460
 Pt         4.8358760783        7.9494168193        6.9787355664
  O         6.0062867357        5.7037531165        9.3585236692
  O         2.0302205760        8.0041266223        9.0794081757
  O         0.6893367870        5.7378309701        9.2998205194
  H         3.8840906156        2.2349060968        8.9113460528
  H         8.0155142766        5.6582131526        9.6573521249
  O         0.4033352777        0.6935259385        9.1163315348
  H         1.7806064060        8.8703096536        9.3811813810
  H         4.0189788906        4.4831832234        9.5143256543
  O         8.8719803963        0.9028739756        9.1555941080
  H        10.6298105857        0.6564836252        9.3993400421
  H         0.8877526354        1.5023839374        9.5323471909
  H         1.1253014756        6.6495183568        9.2524306267
  H         6.9721065193        2.9092995541        9.7368223373
  H         0.5738646075        3.3096556107       10.1933187524
  H         8.1953762196        0.2475060612        9.5093724097
  C         7.1588532609        6.3424790512        9.8061927602
  H         3.4961580147        7.9203090777        9.1551195034
  O         7.8760385649        3.1137159544        9.3514048717
  H         5.0256749195        8.7318761468        9.5362571857
  H         7.0545374768        6.3445174724       10.9431354249
  O         4.5483348629        7.9770395347        9.1423105663
  O         4.6098340685        2.9038410016        8.9292589448
  O         1.4033048109        2.8512794639        9.8621470009
  H         2.1178234710        2.8399681878       10.5294791071
  H        10.1230342642        8.0139344706        9.9483185429
  O         9.9277265521        7.4366201995        9.1146734463
  H         4.9610386958        2.7416448766       11.1206316502
  O         5.8850335023        2.3131328379       11.2113115115
  O         3.4292257875        5.2310106498        9.1899861505
  H         5.1801271850        6.2800440147        9.5454291146
  H         7.2897224319        7.3095454609        9.3979818440
  H         7.6185054350        6.0487020331       13.8302892967
  H         6.2248410504        2.5406871272       12.1308416206
  H        10.5655236990        6.6231102433        9.3261667785
  H         6.4717892900        9.0018434059       11.4188085074
  H         6.2982675140        0.8052080931       10.7770290494
  O         6.7021842151        9.5994815398       10.5736518397
  O         8.3990793550        5.4853347062       14.0640214570
  H         2.4964206944        5.2048186941        9.5228063228
  H        10.0031053709        2.9269361445       11.5761111672
  H         8.9995432845        5.7021487052       13.3442402659
  H         9.3103478539       10.8133557813       12.9724189295
  H        11.7218840160        8.5979606218       11.3723340335
  H         9.3212964082        3.6284155086       10.3463836034
  O        -0.4476075705        8.7015475518       11.4090708412
  O        10.2456958086        1.3978587176       12.7929746063
  O        10.0960724908        3.6264435206       10.9452350295
 Cl         6.2906893936        7.9957199609       13.2209823702
  H         3.1889755735        3.7147875938       12.1331408042
  O        10.4533109167        5.9706160812       12.2562715682
  H        10.4716178244        5.0984282733       11.8280423898
 Cl         2.6166228564        5.4426318420       12.5538887545
  O         7.1872948176        2.8562933219       13.5698090114
  H        -0.7024743442        7.8585352783       11.9622623154
  O         3.1907474521        2.7697705881       11.7240015072
  H        11.2179452712        5.8992719666       12.9180637430
  H         7.6717983174        3.6667996864       13.5867857587
  H         7.6807329489        1.9985133178       13.8860631235
  H        10.7425947812       10.4599682147       12.1638772716
  H         7.1337144942        9.6534282004       14.0369447385
  O         5.0178426005        4.3931581430       17.0998161657
  H         5.3193859103        3.4676268976       16.8533243937
  H         2.5010056102       -0.5846762023       12.6199481200
  H         3.0843389012        2.0766764108       12.3880048486
  H         7.8094223897        5.3059625106       15.8436954778
  H         6.6533292517        1.8183611617       16.0702725948
  H         4.4370606437        4.7441599475       16.3623465964
  H        11.1251954425        1.3380028633       14.3867375210
  H         6.5522039106        4.9120926896       16.6914453511
  O         7.8898334209        0.5272016237       14.4006097399
  H         8.1699143818        9.7589613863       15.1928901239
  O         5.8425771888        1.7654809853       16.5939699874
  O         2.2836735844        8.4803197287       11.8527053489
  O         7.5374970368        5.0387405005       16.7221932665
  H         5.4759950782        0.9016706517       16.3171635157
  H         8.4214556973        7.9344922514       16.3016051894
  O        11.8011699733        1.5396751170       15.0353743802
  O         2.7882021121        0.8388637281       13.6279583441
  O         8.5700761076        8.7845483552       16.6669922343
  H         1.9893625900        1.0566823018       14.1423235885
  H         1.4104954813        3.1111501620       15.6102450281
  O         2.1130085875        3.8696961216       15.7689718902
  H         2.5290960936        7.5329955624       11.9936251264
  H        11.6570652925        0.9784729724       15.8200720135
  H         7.6664851580       -0.3509274790       18.0771671727
  H         6.8666269313        1.0110839743       18.4812211642
  H         3.4351418173        0.5535275146       14.3313843370
  H         1.9976892509        4.3314737971       14.9606292773
  H         3.6826337235        6.1166186104       14.1697279837
  O         7.4269283647        0.2939788887       18.8614640090
  H         9.5271356237        8.9788930111       16.8339457408
  H         8.7269388428        4.4684459658       17.5487273581
  H         8.6432841895        1.2160047944       19.1321806067
  O         4.2068963929        6.2281842131       15.0513492532
  O         9.5089621944        1.7081154288       19.0975803898
  O         4.4724669310       -0.2760228052       15.5558096030
  H        16.2096039257        6.6044035547       14.5617933473
  O         9.5263610719        4.2575057844       18.1447607766
  H         4.8711392292       -0.9368176677       14.9163241529
  H         9.3959687467        2.5848786101       18.7019997510
  H         4.0382423989        8.8591039418       16.2371918656
  H        10.5792840169        0.8064028963       17.9630853695
  H         3.3995900968        6.8096252315       16.5872278130
  H         4.4918507803       -0.0342670260       20.3859088772
  O        11.0338119822        0.0894464647       17.3781472151
  H         9.2527102963        4.7034740861       19.0197937457
  O         3.1231226035        7.4298589186       17.3308030944
  O         3.5941325530       -0.2885178732       20.6369694765
  H         3.2214405019        0.5913631765       20.7456879236
  H        11.4268400464        9.1272531773       18.0790333435
  O         0.7445099811        5.4594107010       17.5315822706
  H         2.1920870494        7.1892604614       17.6596353305
  H         1.6160044582        4.7789944679       18.9853253775
  H         4.1776804629        6.6524951823       19.2598624556
  O         8.8364239491        5.1637601978       20.6060344493
  H         1.0135402647        4.7758284039       16.8485243997
  H         2.8996596888        4.9782152818       19.8598770376
  O         2.0088777213        4.6836359445       19.8891870701
  H         8.0013376825        5.6248185629       20.9942923955
  H         8.5245596332        2.4943563962       21.9470138323
  H         4.7322965299        5.2893497397       18.7283192284
  H         8.7900833975        4.2872035737       21.0377580077
  H        10.9874429819        5.1406456544       17.7209508156
  O         4.5357080858        5.7691443582       19.5748362578
  O        -2.8915489691       -1.6177745950       22.9252372509
  O         9.3157277134        2.7762778504       21.4490707779
  H         2.2293248999       -0.9813661974       19.6088908167
  H        10.4610857969        5.9769670376       20.9624425431
  H        -3.5815021879       -1.1614730659       22.2930460699
  O         6.3738918942        8.8141321744       21.2061136320
  H        -2.0700383740       -1.6124495330       22.3674596661
  H         6.3013802460        7.8403760248       21.0538075533
  O         1.3974003400       -1.3512305393       19.2428422208
  O        11.3701887988        6.2897867675       21.1764392100
  H         9.2418741704        2.2616567513       20.5739426109
  H         6.7830419886       -0.5281031764       20.4082747624
  H         5.8115525451        5.7565537533       20.8685743676
  H         2.2937536371        3.1031851053       20.7058495595
  H        11.9703880788        5.5172719067       20.8601534958
  O         6.3739963266        5.9906717572       21.6320182034
  H         1.0265687992        7.7012619066       19.8636781495
  H         3.5468095465        8.6027898377       22.3759014867
  H         5.9301135430        5.8031338260       22.4741764734
  O         2.5378815002        2.5716155249       21.4926359298
  O        10.4898625625        9.8802248806       24.3688832134
  O         3.2837504605        8.1894509754       23.2525009997
  O         7.1170514818        2.8434621059       22.8769991501
  H        11.2341077112        5.5909937839       24.0515151479
  H         1.6638139939        2.6741050084       22.0257113768
  H         3.6652383948        7.2919699999       23.4141822298
  H        10.9605602668        9.2034528759       23.8394587036
  H         6.1597206402        2.9551346518       22.6305582327
  H         7.2146928114        3.6109498911       23.5306567413
  H         3.6548218230        2.8934427358       22.4486977017
  H        10.9119478333        1.0389518077       24.0083728465
  H         4.2915095026        4.9744594661       23.6115926623
  O        11.7288040972        7.3428094688       23.5150545760
  H         1.5035523019        7.6397768250       23.6863920539
  O         4.8116138691        5.7898911861       23.6979099868
  O         4.4339029918        3.2229988504       23.0712349016
  O        10.7010357923        4.8402567952       24.4079424217
  O         0.2695758530        2.6448150237       22.9282783250
  O         8.2889290997        5.4978933779       23.7068494453
  H         7.6675438802        1.3223126256       23.6785184588
  H         4.2791052577        9.1981169067       23.8915648492
  H        10.6048168447        2.7669744140       22.3248660945
  H         7.9359373247        5.6568416809       24.6431837410
  H        11.7177004399        6.8985133957       22.6406371133
  H         9.7207925305        4.9068486203       24.0207810671
  H         5.8669669943        0.1091041058       24.1213329645
  H         8.1164226916        9.4061357933       23.7683168802
  H         4.2872602813        2.6503366395       23.8204066607
  H         5.1066646413        5.6784015583       24.6185705976
  O         7.5233967001       10.1073327935       24.1194327408
  O         4.9001954588        0.2382918410       24.3170318875
  H         0.2564751172        3.4596315069       23.4890222770
  H         8.5790947582        6.4230092944       23.4543728964
 Pt         2.3064400158        9.6060497485       26.7208775676
 Pt         5.0445659329        9.6083605754       26.6461436973
 Pt         7.8733508529        9.6752146022       26.5297029674
 Pt        10.7039584808        9.5817188214       26.5817704850
 Pt         7.8627004021        4.9851375532       26.8338156280
 Pt         3.6373968910        7.2079045956       26.7574278587
 Pt         9.2147165625        7.3387823519       26.7172521637
 Pt         6.5251830638        7.2029496719       26.6878737289
 Pt        10.6300650473        4.8030063103       26.6813238372
 Pt         0.8638186059        7.1778948728       26.8339284512
 Pt         9.1673662646        2.3922548704       26.7535595971
 Pt         6.3604773456        2.5649883656       26.6709087803
 Pt         2.2787162689        4.7993743166       26.8701102982
 Pt         5.0480406055        4.8792873634       26.7322240729
 Pt         0.9511933038        2.3560779358       26.8253251567
 Pt         3.6339395746        2.4846404757       26.7384511003
  H         8.3905400441        2.1414779422        9.3189372218
