   250
 Tv_1:  11.152900   0.000000   0.000000 Tv_2:   0.000000   9.658700   0.000000 Tv_3:   0.000000   0.000000  26.829700
Pt      5.49141901      7.82806602      2.69964499
Pt      6.86421564      0.69974002      2.49254152
Pt     11.05728886      7.73863325      2.45818394
Pt      8.26664707      7.79829246      2.51202273
Pt      8.31226942      3.04211566      2.74829396
Pt      2.74155167      7.78264393      2.70085377
Pt      9.75805653      5.33303245      2.65910402
Pt      6.94347945      5.35956429      2.68486996
Pt      5.36996057      2.91082451      2.78848203
Pt      4.14118240      5.42063655      2.62596362
Pt      9.56576153      0.53578391      2.55432167
Pt      1.40282770      5.40240646      2.79060460
Pt      1.20151098      0.49442156      2.69084030
Pt      2.65329576      2.99903769      2.75621785
Pt      4.03897641      0.51996484      2.63221933
Pt     11.10687333      3.04874081      2.68994713
Pt      5.92597823      6.47169670      5.03158246
Pt      8.53411345      6.47136817      4.88185313
Pt      7.27267018      8.80674892      4.82685295
Pt      7.13199902      4.00366374      5.04092843
Pt      8.67014136      1.57677040      5.04870500
Pt      5.99516601      1.55951411      4.98704188
Pt     10.06841010      4.03758869      5.08003455
Pt     10.06426318      8.92256460      4.93605544
Pt      1.60437764      8.76732988      5.04771388
Pt      0.10337506      6.49337747      4.93237155
Pt      3.06134430      1.53624662      4.98398776
Pt      3.17728525      6.48881646      4.99299024
Pt      4.57285164      8.83642254      5.05495861
Pt      4.29672097      4.00553633      5.06911837
Pt      0.26292246      1.54842100      5.02687941
Pt      1.65172334      3.96635507      5.01569590
Pt      7.70138620      2.73710752      7.28254932
Pt     10.51879815      7.52633391      7.35145870
Pt      8.96274127      5.18044189      7.35980987
Pt      9.07949536      0.34278150      7.47386610
Pt      6.34028486      0.28334214      7.43894227
Pt      3.55249715      5.07791952      7.41766562
Pt      3.53249011      0.27126018      7.29737627
Pt      7.68367108      7.56054554      7.22623223
Pt      4.93266880      2.61330529      7.27056398
Pt      2.10038205      2.69655937      7.41364384
Pt      0.57702708      5.06976290      7.28445660
Pt     10.45159913      2.74546785      7.52269000
Pt      6.35369304      5.03698258      7.37323979
Pt      0.76073411      0.40279525      7.34502902
Pt      2.11086121      7.37206412      7.29300365
Pt      4.93848716      7.50421560      7.38752392
O       6.59309396      4.94537314      9.59752648
O       2.12347416      7.47327051      9.23775960
O       0.33064178      5.20805164      9.48967754
H       2.58778459      3.95568235      9.79318046
H      10.31467107      2.75558071      9.12484098
O       0.81354654      0.33807833     10.44755937
H       3.00376599      8.55646429      9.57370295
O       8.95328217     -0.03006237      9.48545381
H      11.11664070      0.84307181     10.68426532
H      -0.12304555      4.39430037      9.93530234
H       4.11093200      2.07331258      9.77689820
H       1.40980907      2.38383096      9.99339423
H       9.49786166      8.70983379      9.58255865
C       7.19180250      3.91997634     10.11646500
H       2.50516457      6.58298142      9.46288852
O       7.68689943      2.93047390      9.53486037
H       4.85027299      9.30756637     12.25872625
O       5.00734394      2.39613232      9.50723818
O       2.21897357      2.66746145      9.49421748
H       0.84110882     -0.21756298     11.31681750
H      11.35182240      7.86033587      9.65226639
O      10.42877339      7.58996152      9.42556761
H       5.59977016      1.61293476      9.58369637
O       4.12857934      0.11045883     15.18872126
O       3.14361736      4.85775919      9.64287331
H       7.48565567      4.04589828     11.17619273
H       6.82726475      7.80821879     18.54562133
H       3.21917055     -0.14636214     14.97285012
H      10.94335029      6.03786018      9.59244153
H       4.90968128      9.90905077     13.71088611
H       4.35145332     -0.60325015     15.96199361
O       5.11570944     10.15953372     12.74691321
O       6.32308964      6.91602927     18.62458416
H       4.03161646      4.56917971      9.95723920
H       7.94556543      3.03083938     13.14152058
H       6.74188061      6.31325723     17.99224424
H       7.28788182      9.49332804     16.69971564
H      -5.15381144      7.04747064     12.78985083
H       7.30843278      4.41147614     13.48351317
O       6.94202131      6.80338125     12.89183936
O       6.97944663      0.10006099     15.72570187
O       8.12307363      3.89738412     13.56377124
Cl      3.79090665      7.12944703     12.25499800
H       2.90580311      2.62810735     12.90248226
O       9.91328181      6.01287487     12.50704868
H       9.31274934      6.77071024     12.44463797
Cl     -0.72289022      3.00140745     11.04560500
O       4.68089467      2.64285973     15.95198903
H       7.36521744      7.52778600     13.37275908
O       3.59996020      2.63045277     12.18195115
H       9.31433766      5.16451197     12.59055697
H       5.01723635      3.20469298     15.18022482
H       4.69649677      1.61406835     15.74591112
H       7.45393069     -0.51963987     15.14059618
H       1.60278849      4.51802932     13.34986263
O       5.26772404      4.07170310     13.73781656
H       4.95406609      5.02114947     13.63902229
H       2.68953712      0.31924858      9.82179436
H       4.06113715      1.71812492     12.36958183
H       4.96267199      7.08865223     17.36573733
H       1.53809191      2.61136029     16.75577210
H       4.61839665      3.56127611     13.08840208
H       8.57411997      2.88805620     15.05991483
H       3.69378901      6.69197188     16.48679962
O       1.97226378      4.01206154     14.03166059
H       1.21320244      3.45109880     14.39616934
O       2.37768780      2.36040802     17.30058121
O       3.48144846     -0.20374668      9.62679216
O       4.31978917      7.43299446     16.67244813
H       3.15188248      2.62173613     16.72810745
H       0.88543657      8.69674004     15.60565418
O       8.64640982      2.29129388     15.79580589
O       0.41274671      1.96993844     15.64907940
O       1.34964833      9.23488420     14.88412270
H      -0.56358051      1.94153749     15.49281545
H       8.65358583      2.84899094     17.68411874
O       8.56478270      3.62041413     18.31153582
H       5.91788249     -0.64917507      9.70295116
H       7.94038845      1.53183765     15.55515508
H       3.53204063     -1.02998241     18.06119611
H       2.97287563      0.55776149     18.13209897
H       0.68762632      1.10265055     15.21965482
H       7.63574298      3.51284094     18.59944557
H       8.72513303      5.13492356     17.20163219
O       3.26079556     -0.23490574     18.61210101
H       1.13515100      8.72609237     14.05242447
H       5.19597711      3.09873278     17.62040877
H       4.71085906      0.50999309     19.02593358
O       8.51178505      6.00220005     16.76340852
O       5.56914796      0.97658350     19.32899328
O       0.78645963      7.89556583     12.31797861
H       8.47241435      5.82136059     15.78413297
O       5.55281827      3.48635900     18.46854855
H       0.17793968      7.20467548     11.96906888
H       5.43258927      1.99612279     19.27992141
H       1.70944146      7.52463915     12.16656757
H       7.01439055      0.37759584     18.63678788
H      -0.78988354      7.74723648     16.57230242
H       4.59696461      7.84909471     20.83767065
O       7.56540558     -0.35209666     18.30464541
H       4.77164888      4.04119195     18.75431117
O       0.23040663      7.64770201     16.50869585
O       3.85851314      7.24452822     20.98418972
H       3.96303233      7.04218387     21.97919774
H       8.45808263     -0.18064171     18.61482783
O      10.49643131      3.88655262     20.23673387
H       0.48524254      7.70992938     17.50091867
H       2.08602742      2.68440541     19.09388632
H       1.50624038      6.08359493     16.06651035
O       7.56770486      6.54248318     21.20004924
H       9.76668115      3.73758004     19.52907793
H       2.42067824      4.01998850     19.68682560
O       1.97124132      3.17687608     19.88735371
H       7.10414307      6.75397239     22.06322951
H       6.72270717      0.04181254     22.11667296
H       2.50412923      5.02305060     15.58435168
H       6.92163055      6.54487031     20.48078272
H      11.39339160      3.56230480     19.88424537
O       2.33726291      5.65303367     16.32900601
O       9.93077248     10.15060930     19.33774875
O       5.76036483     -0.03478060     21.90129111
H       1.55598689      8.38870225     19.24327960
H       9.38291730      6.73674549     20.98394334
H      -0.43737403      9.55510437     19.18599806
O       8.84395191     10.02494753     22.18011775
H      10.22817086      1.43604165     19.24446292
H       9.28600351      9.97306198     21.28516876
O       0.66228646      8.06709311     19.07350863
O      -0.80196106      6.49598210     20.84343128
H       5.67178815      0.32678437     20.92505146
H       9.12957335     10.96318127     22.50715392
H       7.24130525      7.83170575     24.13762739
H       2.48978917      2.96322003     21.47078965
H      -0.73054019      5.48821213     20.72003607
O       6.96901323      6.92266781     23.67175164
H       0.37002961      7.50174184     19.86938502
H       5.03169629      6.39318926     23.67489252
H       7.61538637      6.25501062     23.93294569
O       2.54642232      2.98856144     22.46239905
O      10.82712788      9.25324477     24.58777813
O       4.22359181      6.97781232     23.77385557
O       6.86748200      1.90850253     24.46733060
H       9.86026383      3.26692368     22.02561523
H       1.72186329      2.48153074     22.75272073
H       3.47715845      6.30215850     23.93065673
H      11.00391861      8.40689010     24.04163053
H       5.87986253      2.08655279     24.04800408
H       7.38852100      2.64870828     24.11470531
H       4.90762418      0.92251392     22.88761930
H      11.18985378      0.42996734     24.17711739
H       2.24252727      4.50280421     23.36514096
O       0.01736272      6.83223642     23.36780450
H       0.89819710      6.31173224     23.50778948
O       2.13848206      5.29888839     23.97538090
O       4.66213355      1.54297440     23.62560534
O       9.45225893      2.93296489     22.85030220
O       0.49694554      2.13159341     24.13875369
O       9.16747949      5.29784085     24.13628921
H       7.65227712      0.49352828     24.28451202
H       4.65275918      8.31371527     24.72454600
H      10.74794101      2.63096681     23.93858667
H       9.07861979      5.11900386     25.07916146
H      -0.19372563      6.84042346     22.39909364
H       9.11613772      3.80242510     23.20837968
H       4.81549015      0.20381574     24.63351767
H       9.07934042      9.24507229     24.48948846
H       3.95703500      2.15398099     23.20001124
H       2.15304658      4.92600142     24.90626551
O       8.02768634      9.28401490     24.66540561
O       5.27133624      9.07971935     24.94461397
H       0.91246633      2.53419150     24.96076984
H       9.94622172      5.88152926     24.04413529
Pt      2.56974089      9.03051849      0.13605146
Pt      5.31214477      9.17451617     27.03286258
Pt      8.01701650      8.93685150      0.03705168
Pt     10.83025662      8.97489771      0.07735479
Pt      8.16523350      4.13328749      0.29591526
Pt      3.89192131      6.58545603      0.13825027
Pt      9.52916849      6.56047389      0.27278445
Pt      6.70807603      6.53550417      0.26932908
Pt     10.96597558      4.23177394      0.28383326
Pt      1.08300630      6.55793142      0.11912292
Pt      9.59073353      1.77106179      0.24866149
Pt      6.85005376      1.80135719      0.08383893
Pt      2.56568755      4.15645598      0.19884148
Pt      5.38670421      4.13086281      0.21535556
Pt      1.12025360      1.77603707      0.31345798
Pt      3.90022208      1.83258160      0.28613419
O       3.34465980      5.34284665     19.07889202
H       2.94618678      5.58861438     18.22243106
H       3.63380288      6.10882673     19.61455134
O       6.39593372      0.23819430      9.49727829
H       7.98819326      9.41493174      9.64652997
O       5.51610079      7.25004357      9.84402178
H       4.75444973      7.30231446     10.47240617
H       6.04929147      6.38882465      9.99142451
O       7.55960717      1.44633280     12.24002807
H       7.67384506      1.73508179     11.31585966
H       6.57883607      1.11367184     12.32778901
O       8.66217128     -0.76650498     13.72044709
H       8.56433435     -0.06271821     13.01370042
H       9.59055938     -0.91882575     13.79947376
