   250
 Tv_1:  11.152900   0.000000   0.000000 Tv_2:   0.000000   9.658700   0.000000 Tv_3:   0.000000   0.000000  26.829700
Pt      5.56694014      7.85625712      2.59150893
Pt      7.05273382      0.68789511      2.53749247
Pt     11.12962082      7.79807708      2.76397524
Pt      8.29321647      7.78758412      2.72381039
Pt      8.41296353      2.93055893      2.71993024
Pt      2.78553221      7.89162888      2.71621730
Pt      9.67126805      5.41859049      2.71796540
Pt      6.98621901      5.30320358      2.60926560
Pt      5.47479784      2.97143527      2.43640795
Pt      4.19932756      5.46103142      2.76960638
Pt      9.77280801      0.55693480      2.68276468
Pt      1.43366790      5.46463156      2.74520787
Pt      1.40788377      0.60747847      2.57875599
Pt      2.79366931      3.07163257      2.72269351
Pt      4.21792804      0.61865159      2.60102308
Pt     11.10700180      3.13733066      2.86806398
Pt      5.69905974      6.39047926      4.93425357
Pt      8.58792775      6.36328351      4.98026092
Pt      7.03525203      8.78352684      4.92616249
Pt      7.19352383      3.99694851      4.92659703
Pt      8.55154005      1.48395016      4.95379278
Pt      5.68152528      1.57343428      4.98663138
Pt      9.84561719      3.76628554      5.15262890
Pt      9.86302858      8.74173490      5.10875956
Pt      1.58519092      8.75752099      4.98333972
Pt      0.06385039      6.31000486      5.08422728
Pt      2.85292445      1.53108026      4.85924132
Pt      2.95692459      6.33671618      4.99672889
Pt      4.35309316      8.75289808      4.94633893
Pt      4.41516010      3.89076953      4.98503931
Pt      0.16713086      1.47735123      5.01370988
Pt      1.52510980      4.00212455      5.20792971
Pt      7.49222553      2.76660469      7.35049419
Pt     10.24006579      7.54124341      7.41967608
Pt      8.82998581      5.11826943      7.36650499
Pt      8.72076679      0.37135988      7.42194861
Pt      5.92107786      0.21006494      7.33691547
Pt      3.43254762      4.97492575      7.29179708
Pt      3.22666049      0.12114827      7.21511460
Pt      7.52366756      7.47216877      7.28143249
Pt      4.68316905      2.58860022      7.47586541
Pt      1.90732797      2.43880852      7.35014491
Pt      0.61249325      4.92765653      7.50719518
Pt     10.34154894      2.62644005      7.51590369
Pt      6.17985243      5.10129308      7.23894636
Pt      0.40226173      0.20395478      7.33947791
Pt      1.90418333      7.31652480      7.30195324
Pt      4.65169041      7.35010368      7.22272620
O       6.53122246      5.11715356      9.49561028
O       2.20893770      7.36316522      9.50772898
O       0.40521662      5.23446229      9.52297768
H       3.03796503      3.71872283      9.59727172
H       7.44392125      7.33673324      8.81876267
O       0.52099515     -0.27092894     10.81775251
H       2.48138726      8.77976339      9.66734368
O       8.45740628      0.07442352      9.59542738
H      11.13355169      0.54689176     10.72953368
H      -0.20520602      4.43593793      9.72099429
H       3.84821235      2.05558196      9.84380482
H       1.34259424      2.94984120      9.72680469
H       8.91876851      8.88145200      9.77924604
C       7.13764676      4.17579195     10.03151685
H       1.55625985      6.78507395      9.87669515
O       7.59055284      2.97891805      9.46374141
H       5.81378786      8.67615334     12.70750171
O       4.74503702      2.35023030      9.64455336
O       2.16285499      2.59313449      9.42645885
H       0.51921927     -0.32416806     11.76904536
H      10.82116207      8.14826721     10.30261337
O      10.08098309      7.59239166      9.88046177
H       5.33857501      1.50829131      9.77378508
O       4.21310020      0.20516799     15.79502344
O       3.60383978      4.64460652      9.43325119
H       7.28167274      4.13260804     11.14074624
H       7.16500956      7.89827795     17.51066084
H       3.24712616      0.20800685     15.46709531
H      10.37012843      6.65836616     10.01985124
H       5.40021118      9.67768708     13.80087381
H       4.59076572     -0.69581190     15.66129847
O       5.60120029      9.60539503     12.88481164
O       7.02454923      6.92043584     17.32670940
H       2.98190392      5.29478634      9.92478027
H       7.73821035      2.96537221     12.77497218
H       7.82028631      6.49897515     16.86088516
H       7.45118911      9.79023590     16.13911603
H      -5.29339549      6.88638414     14.04818095
H       6.80472645      3.93615886     13.57209130
O       6.21680286      6.83833828     13.12939777
O       7.53398154      0.38415319     15.15702170
O       7.77131880      3.77605753     13.41041488
Cl      3.07201808      6.13522537     12.46034558
H       2.60001151      0.75708679     12.87928969
O      10.08148913      5.72253670     13.51555666
H       9.47481641      5.36646371     12.84301629
Cl     -0.88722457      2.52682985     10.16930970
O       4.41598064      3.09593540     15.90563886
H       7.12710178      6.74140057     13.26642628
O       3.35648281      1.17710832     12.47220494
H      10.93338014      5.17020943     13.51866431
H       4.37973653      3.47971660     14.94675381
H       4.39254829      2.11507636     15.77139939
H       8.19508552     -0.26245006     14.79936025
H       1.90703509      4.61730438     13.13436883
O       4.67760932      3.75867068     13.13372630
H       4.21560805      4.61755684     12.88906746
H       2.27715718      0.76677089      9.56863071
H       4.14819372      0.59994510     12.55075727
H       5.70096044      6.83960735     16.47266354
H       1.58851911      2.75416425     17.49397015
H       4.20600187      3.10867492     12.56746681
H       8.55529846      2.98305958     14.57529295
H       4.21566705      6.58904426     15.63175704
O       1.16475535      4.37389367     13.76158457
H       1.29530808      3.50814020     14.20382142
O       2.44948259      2.95516207     17.95755080
O       2.97445930      0.05944802      9.45749455
O       5.11415466      7.06331815     15.63245126
H       2.98872015      3.44500657     17.24383562
H       1.25118288      8.94606959     15.94241915
O       9.02175823      2.61717987     15.35043429
O       0.57642416      2.30465574     15.74003015
O       1.51105130      9.60560370     15.26808928
H      -0.35015039      2.61148078     15.61102420
H       8.91448667      3.32522825     16.91358054
O       8.99800820      3.75968594     17.75876216
H       5.54165594     -0.82442537      9.57614753
H       8.62227875      1.72664002     15.35712653
H       4.13650742      0.36192027     18.10623414
H       3.17645648      1.65649484     18.43343253
H       0.75540794      1.36506743     15.54586831
H       8.15908572      3.98495328     18.05223684
H       9.49726622      5.44917901     16.88073503
O       3.56096637      0.84250912     18.75404439
H       1.26270351      8.95891942     14.46459771
H       5.43892626      3.81290243     17.21755883
H       5.24781888      1.50131550     19.29699740
O       9.23907681      6.11040767     16.23851336
O       6.16830211      1.82694246     19.45916651
O       0.95739563      8.02219053     13.17041593
H       9.59461391      5.82587918     15.29800941
O       5.82842886      4.19997496     18.09183346
H       0.27321368      7.29682321     13.15829613
H       6.02576978      2.78217291     18.99648708
H       1.80693780      7.54603023     12.87967675
H       6.72197000      0.60988872     18.22238609
H      -0.36304343      7.19719823     16.58979011
H       3.13463243      9.07650431     19.94997229
O       7.40558038      0.05270011     17.85140498
H       5.13599778      4.85887671     18.34694728
O       0.49654848      7.39202496     16.99794047
O       2.89289327      8.15815536     20.16880434
H       3.32676452      7.96886413     20.98537639
H       8.24859898      0.32942749     18.30009925
O      10.35429894      2.76521768     19.79965444
H       0.33422890      7.55329953     17.92516618
H       1.96254477      4.06485541     19.17030612
H       1.75570527      6.41932957     16.25084853
O       8.11164228      5.59382794     19.75506938
H       9.96077758      3.10413660     18.94361858
H       2.44911368      5.27664232     20.01125178
O       1.85309851      4.50002115     20.07504692
H       7.67915787      6.05299870     20.55121236
H       7.32591160      1.56789639     22.03489744
H       2.50568411      5.34744915     15.43590215
H       7.58733222      5.91536357     18.92474799
H       9.63965529      2.91198185     20.45506899
O       2.62749914      6.05536510     16.05318629
O       9.65823447     10.03215926     19.39283655
O       7.15143483      2.47356247     21.73029221
H       1.08544187      8.18878595     19.95275883
H      10.05599850      5.35195605     20.38332999
H      -0.93483407      9.26293676     19.52070027
O       8.25671004      9.55044758     21.77877593
H      10.16196862      1.25153450     19.59876496
H       8.61816042      9.78884653     20.83573653
O       0.20321346      7.90945159     19.56408303
O      -0.24389835      5.60992256     20.74125372
H       6.79697352      2.24920874     20.81905008
H       9.04475611      9.41188309     22.31362162
H       7.36037223      7.76474115     21.73867790
H       2.17643714      3.77986245     21.94645551
H       0.38444779      4.88033664     20.51274334
O       6.91893642      6.91127951     22.03420530
H      -0.07272244      7.06060921     20.03742541
H       5.22361371      7.48168533     22.46300609
H       7.52104491      6.54591716     22.75494240
O       2.30515250      3.58691464     22.92042433
O      10.25595993      9.50616589     23.39967817
O       4.26858490      7.63184418     22.72362348
O       7.14255110      2.26924000     25.02735549
H       8.27464073      3.12780401     22.64994156
H       1.51564062      3.01693890     23.21520138
H       4.04429433      6.76874128     23.05645962
H      10.79352536      8.67008026     23.62409911
H       6.24233993      2.65711792     24.88292253
H       7.86760479      2.70604777     24.43722226
H       5.05267102      2.45899182     22.82977209
H      10.78732094      0.70751294     23.51779025
H       2.55054744      4.89320308     23.78269595
O       0.08314067      6.83145098     23.36646971
H       0.86579812      6.38184711     23.76524433
O       2.72376567      5.84479092     23.94914505
O       4.69873971      2.25753158     23.69540564
O       8.93434737      3.38482157     23.36295548
O      -0.02219967      2.26653139     23.83326560
O       8.56074987      5.88104049     23.95097411
H       7.21896226     -0.46842181     24.51700659
H       4.72426269      8.75692647     24.27845469
H      10.26412202      2.75597690     23.69864498
H       8.10054697      6.07306115     24.83170235
H       0.05669258      6.56650238     22.37727519
H       8.86012670      4.40432087     23.50608960
H       5.15065921      0.61476812     24.34413257
H       8.84168821      9.24865884     24.46009029
H       3.80955097      2.62303313     23.62193847
H       3.14640253      6.06332103     24.80895905
O       8.04250425      8.78707911     24.83035388
O       5.39605771      9.36290251     24.70340509
H      -0.03193669      2.15491037     24.81338468
H       9.42279532      6.38672532     23.98134113
Pt      2.71631660      9.15729915      0.36750611
Pt      5.50722764      8.99003213     27.01883780
Pt      8.31443025      9.17932659      0.21511188
Pt     10.99584402      9.19792737      0.37550741
Pt      8.46994826      4.42581800      0.24351495
Pt      4.17819743      6.66260667      0.19554106
Pt      9.73454056      6.81755084      0.33312823
Pt      7.01952803      6.64271468      0.24991989
Pt     11.21797740      4.40482699      0.43188677
Pt      1.29503969      6.76267037      0.40440595
Pt      9.89077990      2.10662881      0.29289460
Pt      7.15096414      1.97797376      0.26320608
Pt      2.85741934      4.34465263      0.31674655
Pt      5.61402669      4.28582583      0.06472113
Pt      1.37199148      2.03320094      0.37858763
Pt      4.12186295      1.94116232      0.33117649
O       4.08914347      6.20692185     18.68693430
H       3.75666135      6.11561549     17.73211925
H       3.46410420      6.89435421     19.05861591
O       6.01003464      0.03385972      9.53632497
H       7.36428895      9.55095263      9.65702993
O       4.68839951      7.23250425      9.49733669
H       3.70842622      7.17953347      9.81052139
H       5.18292087      6.44672106      9.83460638
O       7.45231009      1.64012276     12.00540828
H       7.60993837      1.57023361     11.04569835
H       6.70020380      1.11341253     12.43122729
O       8.68102861     -0.99970179     12.60669447
H       8.40326887     -0.20091605     12.19427555
H       9.51661685     -1.08245184     12.18502321
