   250
 Tv_1:  11.152900   0.000000   0.000000 Tv_2:   0.000000   9.658700   0.000000 Tv_3:   0.000000   0.000000  26.829700
Pt      5.42450284      8.03476252      2.40942129
Pt      6.84406390      0.68566025      2.65441190
Pt     10.94318353      7.80480824      2.54683112
Pt      8.10858219      7.86872808      2.32001953
Pt      8.30900004      2.92257990      2.78835150
Pt      2.74134835      7.85369494      2.71569310
Pt      9.60509603      5.47230432      2.50199688
Pt      6.95848893      5.36622441      2.63712646
Pt      5.50150180      2.98620048      2.75915306
Pt      4.08544647      5.38052957      2.67354411
Pt      9.61603557      0.53653752      2.80260915
Pt      1.23722576      5.49730482      2.60100780
Pt      1.23760803      0.49815549      2.77506359
Pt      2.61418837      2.98641293      2.70710751
Pt      3.96642596      0.60439011      2.70579223
Pt     11.05265069      2.95805017      2.75221290
Pt      5.70888402      6.43467510      4.77006688
Pt      8.51281180      6.40047943      4.74193850
Pt      7.03995664      8.81072207      4.91969344
Pt      7.09952108      4.00932337      4.96113077
Pt      8.60010463      1.55551685      5.13440635
Pt      5.79217648      1.50484647      5.09369644
Pt      9.85047420      4.01908779      4.92745695
Pt      9.88968702      8.74125201      4.95247210
Pt      1.40005804      8.76933799      5.13037968
Pt      0.13980459      6.36743924      4.85383908
Pt      2.94115402      1.54530659      4.97482949
Pt      2.91663605      6.44353313      4.93041011
Pt      4.24669255      8.87789564      5.03176750
Pt      4.31630524      3.95921945      4.97559927
Pt      0.13159146      1.56658694      5.13953042
Pt      1.55599985      3.95178652      4.97949980
Pt      7.67550635      2.62162548      7.37325352
Pt     10.35367563      7.48829866      7.10112759
Pt      8.91730669      5.11139373      7.29317169
Pt      8.88486431      0.19793664      7.43117232
Pt      6.16321721      0.23955911      7.44119073
Pt      3.66325295      5.08863705      7.27106704
Pt      3.41916506      0.19476363      7.41067652
Pt      7.55815548      7.46289384      7.18965130
Pt      4.77676489      2.75364441      7.37525014
Pt      2.11033077      2.71143959      7.29581038
Pt      0.52330427      5.01074742      7.38913488
Pt     10.53988089      2.63691293      7.47997584
Pt      6.34345951      5.16256214      7.36114559
Pt      0.54980866      0.16117986      7.45627186
Pt      2.06509740      7.45402244      7.35618877
Pt      4.77415555      7.49117126      7.31151582
O       6.28810322      5.18607920      9.47152557
O       2.22820787      7.48728605      9.52361544
O       0.68646686      5.32977392      9.62100656
H       3.19567250      4.04101904      9.63556574
H       8.31802548      4.74866531      9.63132063
O       0.26872674     -0.02153344      9.64318136
H       2.82912889      8.19808111      9.83098480
O       8.92483790     -0.09327270      9.59915745
H      10.46793123      0.30698571      9.81955523
H       0.13145511      4.60107909      9.87173237
H       5.93216973      2.84701002      9.49184569
H       1.39946237      2.81518053      9.76154704
H       9.21180217      8.59203761      9.57092563
C       7.26120837      4.44449755     10.00762766
H       2.45804369      6.57807924      9.97068309
O       7.16957066      2.93860967      9.47480102
H       4.72698450      9.40242886     12.32936578
O       4.85654645      2.58100656      9.49920542
O       2.24051690      2.58784690      9.35972881
H       0.88195169      0.62085133     10.14825530
H      11.25687156      7.86154124      9.15467593
O      10.43477232      7.36792184      9.09809430
H       4.88701986      1.58312539      9.67356371
O       5.32336162      0.84475605     15.39274064
O       3.52797307      4.96843899      9.57139596
H       7.20263067      4.45966873     11.10421663
H       7.70767611      7.63132385     18.42456355
H       4.42397576      0.47462766     15.59734895
H      11.23224640      6.15669724      9.64572733
H       5.36585522     10.00741087     13.71330236
H       5.82767633      0.19079174     15.84514606
O       5.35987528     10.10966004     12.62981641
O       7.56903226      6.64075814     18.24985026
H       4.50043652      4.89910152      9.62512120
H       8.26776410      2.84640946     12.86939884
H       8.14058426      6.46093062     17.41002822
H       8.84628210      8.76957385     16.06458723
H      -4.20279900      6.95440162     13.18738509
H       8.04758467      3.80800980     14.16995143
O       7.29813067      7.63150459     13.82461077
O       9.51190669     -0.51659497     15.48350272
O       8.55035053      3.75582376     13.32099126
Cl      3.27248064      7.52011270     12.27755367
H       3.61072825      2.64957626     11.47430218
O      10.29338931      6.02734781     13.82853449
H       9.93229429      5.14078617     13.53005869
Cl     -0.97592757      2.96780471      9.73440239
O       6.56607597      3.69122678     15.19602208
H       7.88886804      8.19303857     13.23538960
O       3.78936657      2.57667578     12.43909682
H      11.17091779      5.75113818     14.16988388
H       6.06399436      4.29210214     14.47209773
H       6.03684995      2.83811706     15.22510864
H       9.30533739     -0.63599494     14.49116956
H       2.31584430      5.55658023     13.74188039
O       5.13212147      4.78868644     13.19464378
H       4.42957343      5.45081811     13.35662738
H       2.85057575      1.14723891      9.66097796
H       4.44202239      1.74415570     12.48024812
H       5.63853004      7.47808871     17.48425064
H       2.16366080      1.77897872     17.29917155
H       4.60472240      3.93334540     12.83781996
H       9.64517000      2.54217559     14.51458772
H       4.15225438      7.35419139     16.99964708
O       1.69320858      5.16273548     14.41894778
H       1.91787638      4.22433992     14.47789309
O       2.00953099      1.92154406     18.24004133
O       3.45526675      0.33709419      9.41260358
O       4.84323254      7.97726857     17.21344317
H       2.31658116      2.81729180     18.27184393
H       2.05758031      9.11555386     15.18424414
O      10.03086559      2.11435619     15.30050194
O       1.95743415      2.48588737     15.20558394
O       2.69110647      9.65529878     14.62733620
H       0.94348842      2.36770630     15.21756138
H       9.35344999      3.04166352     16.60899142
O       9.34363782      3.74087675     17.37565226
H       6.01879892     -0.77509377      9.87994879
H       9.78526494      1.15302392     15.29313138
H       4.33646548     -0.13779359     18.31385076
H       3.31122071      1.06280086     18.74867741
H       2.26057866      1.66552130     14.72307654
H       8.43754694      3.74507060     17.74755219
H       9.54808075      5.28999710     16.71148171
O       4.17073171      0.57600967     18.95590000
H       2.96874952      9.02032450     13.99140262
H       6.35515960      4.34747857     17.27201249
H       5.95065614      1.29979835     19.26470024
O       9.56823086      6.23405693     16.32939782
O       6.88145660      1.66174415     19.22883557
O       0.01864886      7.75721685     11.98485997
H       9.56178646      6.18659119     15.32050269
O       6.43485863      4.32077662     18.25580094
H      -0.36092230      7.16353455     12.74061985
H       6.68333175      2.52364235     18.80918390
H       1.00250141      7.75459221     12.16916978
H       7.81250685      0.44532201     18.26165265
H      -0.12359149      8.32060469     15.91839078
H       3.67246921      9.51742063     20.30262733
O       8.11201586     -0.45019636     18.07393976
H       6.66596886      5.27215682     18.49706553
O       0.78682104      8.53427531     16.26876861
O       3.22138509      9.05003484     21.13081824
H       3.98894503      8.61772559     21.65724100
H       9.02172408     -0.43076937     18.44627701
O      10.63119031      2.95289313     19.68555894
H       0.53849170      8.82315124     17.14314518
H       1.06039749      3.47181274     20.26096728
H       2.16747180      6.66089736     17.08857993
O       8.71318140      5.52418603     20.37738753
H      10.24117460      3.17306521     18.79766857
H       2.62837573      4.15084232     20.09725281
O       1.82372448      4.05922042     20.64098106
H       8.60670346      6.23935451     21.00300726
H       8.51065787      1.84565295     21.66814856
H       2.64426403      5.74263696     15.90128683
H       8.52972145      6.01063962     19.51673011
H       9.83645273      2.87047426     20.22886100
O       2.82492067      6.04287332     16.81548582
O      10.81845315      9.68666035     18.73694416
O       8.26761858      2.72856645     21.29203347
H       2.20478580      8.22303758     19.98111412
H      10.67910691      6.08151756     20.52104655
H       0.49379312      9.28416622     18.98989637
O      10.02176161      9.76044195     21.64458500
H      11.03327736      1.02839893     18.82676341
H      10.44312369      9.96829299     20.75229757
O       1.61316744      8.08320889     19.21051778
O       0.33834451      6.45447015     20.93166348
H       7.59063605      2.51023330     20.56052807
H      10.27612329     10.49840357     22.26350800
H       8.42069425      8.54212800     22.20153869
H       2.32647045      3.91397279     22.70229069
H       0.99402863      5.69091562     20.76221799
O       7.99412949      7.61214426     22.30820845
H       1.01705208      7.51840763     19.81838579
H       6.30662640      8.16626610     22.51368099
H       8.37614928      7.36620031     23.10439297
O       2.75801296      4.41309156     23.46880641
O      11.37973666      9.22956348     24.51301320
O       5.37668969      8.36297623     22.80401034
O       7.03571742      1.83635679     24.42746715
H       7.73666548      4.00288848     22.57519294
H       2.64195010      3.94715596     24.29644908
H       5.18792207      7.49748100     23.36883239
H      11.72170943      8.32355965     24.39241270
H       6.12506857      1.53836533     24.20557315
H       7.19523275      2.79931069     24.11519332
H       2.29722056      0.16092949     22.29440849
H      12.22195778      0.08648350     24.24072004
H       4.16512107      5.37738499     23.57897844
O       0.59598051      6.71543953     23.50490561
H       1.27531431      5.99251485     23.67032161
O       5.00811402      5.79445814     23.77484911
O       2.22630845      0.58868101     23.16545155
O       7.56015182      4.23655208     23.53372014
O      -0.54400339      2.39778232     23.49008958
O       9.40244275      6.38968466     24.55593444
H       7.93391704      0.72988154     24.50542460
H       5.16818431      9.24186350     23.89883060
H      10.45096872      3.27258261     23.02755972
H       8.89964522      5.54250311     24.40340345
H       0.47384438      6.78724028     22.48721164
H       6.66751889      4.65640914     23.51393886
H       3.94089707      0.60482377     24.58229775
H       9.35508486      9.57449679     24.60378536
H       1.75607956      1.45744126     22.99272793
H       5.02162373      5.85032994     24.72978304
O       8.37850406      9.47499545     24.66763205
O       4.95514414     10.00585146     24.67476649
H      -0.87786391      2.52183578     24.45893139
H      10.33808011      6.49676003     24.07458233
Pt      2.56275087      9.11388385      0.28760263
Pt      5.40082413      9.05514455     26.79750619
Pt      8.19921410      9.00267739     -0.06746995
Pt     10.97805665      9.02216693      0.12788614
Pt      8.06424638      4.09741965      0.24510573
Pt      3.90081635      6.65572380      0.22757014
Pt      9.62203637      6.47904658     -0.02265583
Pt      6.71910450      6.55414556      0.18246518
Pt     10.90731098      4.10748356      0.41966806
Pt      1.33047254      6.73795594      0.19209837
Pt      9.57310270      1.79124433      0.24217143
Pt      6.76406068      1.74717928      0.31335484
Pt      2.60846795      4.29204648      0.26149520
Pt      5.38435579      4.17332751      0.38043090
Pt      1.27518104      1.85911682      0.36263600
Pt      4.02992193      1.84541569      0.36504710
O       3.71242247      4.53047341     18.71705294
H       3.28890970      5.02962225     18.01610180
H       4.64087066      4.37791662     18.44403071
O       6.48500122      0.09132543      9.52912741
H       7.44723418      9.51686277      9.69921711
O       5.36211356      7.54173312     10.10303697
H       4.77490795      7.34262375     10.85039243
H       5.83733055      6.65013961      9.86478543
O       7.65424085      1.61248305     11.84486835
H       7.60458260      1.76959850     10.88587469
H       6.70291837      1.37803772     12.12860115
O       9.33372118     -0.33747205     12.90075685
H       8.72747283      0.24745966     12.24678146
H      10.08805096     -0.64511433     12.29919429
