   250
 Tv_1:  11.152900   0.000000   0.000000 Tv_2:   0.000000   9.658700   0.000000 Tv_3:   0.000000   0.000000  26.829700
Pt      5.53056466      7.74967016      2.50625945
Pt      6.82825381      0.47723955      2.34451121
Pt     10.99784419      7.75517012      2.62978143
Pt      8.28845594      7.86743501      2.47520445
Pt      8.29104907      2.83392246      2.51456599
Pt      2.78687207      7.72672158      2.67769504
Pt      9.75232809      5.34180698      2.70662355
Pt      6.96083488      5.31648539      2.49233825
Pt      5.50500867      2.87283547      2.53330627
Pt      4.21272986      5.29064946      2.71572902
Pt      9.73522272      0.47795318      2.62145098
Pt      1.41545414      5.34339142      2.73274501
Pt      1.24271653      0.62030906      2.57388738
Pt      2.78691030      2.94347788      2.86224400
Pt      4.11144053      0.56587173      2.68791782
Pt     11.12479298      3.00732128      2.78950710
Pt      5.74082541      6.30703845      4.88027722
Pt      8.44919592      6.38195239      4.82304240
Pt      7.07652673      8.77351577      4.76990703
Pt      7.08160428      3.85146242      4.85594072
Pt      8.58492457      1.51151852      4.87948080
Pt      5.77554877      1.37314056      4.97261009
Pt      9.82265219      3.93940909      5.00119302
Pt      9.89307979      8.77795263      5.01953157
Pt      1.62820287      8.67831965      4.92505308
Pt      0.11223899      6.31581170      4.97156925
Pt      2.95442678      1.44027200      5.04710195
Pt      2.95790782      6.23428757      4.96055550
Pt      4.36732877      8.64409397      4.81537580
Pt      4.51942712      3.90689812      5.04983374
Pt      0.19844327      1.52012927      5.00776969
Pt      1.57095882      3.75878861      5.07425225
Pt      7.47207057      2.69782250      7.26538078
Pt     10.41031990      7.39963323      7.38143740
Pt      8.99425805      5.10771289      7.18984727
Pt      8.86926126      0.23829539      7.21351510
Pt      6.20617903      0.23433633      7.27197958
Pt      3.53034398      5.01313398      7.31761311
Pt      3.43872947      0.16661233      7.23605501
Pt      7.56246398      7.51459861      7.19762679
Pt      4.68271954      2.60063146      7.30552511
Pt      2.00568421      2.54575555      7.43348681
Pt      0.65315010      4.92870935      7.34872467
Pt     10.29073430      2.70921815      7.33722888
Pt      6.27318475      5.13926958      7.17923897
Pt      0.49945699      0.10607254      7.32168951
Pt      2.09182967      7.35691731      7.32550612
Pt      4.78739483      7.49315002      7.32062348
O       6.36136012      4.96347143      9.39974464
O       1.74932886      7.78688610      9.29941413
O       0.62157292      5.13168304      9.48008270
H       4.01116351      4.08575331     10.01543235
H       8.42768356      4.57908042      9.39189184
O       0.26813509      0.28691644      9.54909000
H       2.60323994      8.97467942      9.68014574
O       8.77346077      0.03188653      9.21617918
H      10.58790182      0.83431607      9.77833305
H       0.16146695      4.31585973      9.91872005
H       6.33090257      2.75774118      9.29040373
H       1.96298927      2.89824294     10.10263627
H       8.85307521      8.70758980      9.36924766
C       7.45208742      4.40322816      9.88043782
H       2.17651043      7.14168950      9.96683220
O       7.32445334      2.67840807      9.38173432
H       4.10889525      8.38769238     12.38145741
O       4.85920933      2.58196012      9.41983454
O       1.99316227      2.10079993      9.53910003
H       0.99235869      1.02181686      9.68043459
H      11.20922323      7.85121615      9.76196805
O      10.37875103      7.25650442      9.44511044
H       4.76182178      1.67014691      9.80451296
O       3.25851952      1.49046205     13.61099181
O       3.55866012      4.93123107      9.63549094
H       7.44123573      4.33916973     10.94454350
H       7.47641432      9.16942769     17.08559374
H       2.52475208      1.12753636     14.22267324
H      11.10582198      5.99440066      9.54447875
H       5.46943202      9.04603817     12.95655510
H       3.71417205      0.62999936     13.30126988
O       4.65734107      9.26310711     12.42636574
O       6.85923415      8.60291214     16.52435059
H       2.59154800      4.95081844      9.90484680
H       6.29771868      4.61900227     14.23160925
H       7.28530444      7.71776121     16.47448103
H       7.12378005      9.22148266     14.99110336
H      -3.12022755      7.64744443     11.77494941
H       7.71670352      5.13550086     14.82383910
O       8.58546062      6.95309063     11.43918486
O       6.93451407     -0.25513804     14.05944110
O       6.92362726      4.60994021     15.04362782
Cl      2.72594074      6.70773457     12.12791717
H       1.12370925      3.17159046     11.79596348
O       9.44079996      6.25880229     14.00089674
H       9.00993972      6.25812476     13.12451597
Cl     -0.96156668      2.84197526     10.22238042
O       4.02963847      3.45388119     15.89302670
H       9.27847417      7.34794017     10.78312948
O       2.00834473      3.39518604     11.82251236
H      10.22890403      5.62890587     14.01651023
H       3.90224732      4.32602388     15.49331106
H       4.17375583      2.92518283     15.04880484
H       7.60973600      0.34899356     13.70317320
H       1.29606062      4.78317397     13.77419370
O       4.86735102      4.72528127     13.14584824
H       4.14117529      5.28295198     12.73916771
H       2.81156487      0.86745874      9.68584956
H       2.50211909      2.70171677     12.34261602
H       5.15178389      8.33556679     17.13503234
H       1.14112143      2.02935589     17.44559658
H       4.77825119      3.78369586     12.81233828
H       7.93188214      2.71558843     15.08692045
H       3.71123790      7.85596502     16.80341725
O       0.61748065      4.83705692     14.47577123
H       0.46222405      3.95097383     14.89163076
O       1.84477334      2.33271384     18.06531267
O       3.36964171     -0.00298043      9.41246011
O       4.24326208      8.34541341     17.46506058
H       2.57656701      2.64266047     17.47804609
H       0.87260065      9.16144533     15.84580794
O       8.63280912      2.23033982     15.59912367
O       0.20207427      2.52460660     15.48892370
O       1.19614411      9.78204412     15.10414890
H      -0.82788460      2.40927967     15.44980142
H       8.81310196      3.42063948     16.95724769
O       9.07126995      4.25557024     17.46537871
H       6.00628789     -0.88050436      9.72644169
H       8.32454639      1.70905105     16.43640198
H       4.05583137      0.15409882     18.38799188
H       3.09605091      1.41313370     18.79709831
H       0.52856924      1.62393661     15.22889307
H       8.29521163      4.40822636     18.06043124
H       9.23720216      5.92325464     16.91049704
O       3.98863045      0.92971141     19.03564153
H       0.81227908      9.40192330     14.28983143
H       5.98819403      4.18325544     16.93190051
H       5.53866679      1.72179938     19.29411448
O       9.18927261      6.90166274     16.60786078
O       6.35406209      2.25930909     19.48656206
O       0.25598989      8.41282219     13.07898232
H       9.38282678      6.86780240     15.61283956
O       6.08989416      4.38424134     17.85466580
H      -0.47662299      7.82668053     13.40376988
H       6.24147441      2.99409345     18.78042264
H       0.90358978      7.76973150     12.68964699
H       7.42495605      1.44844618     18.40577811
H      -0.62034039      7.53215365     17.11982517
H       3.97347096     10.13844068     20.65180972
O       8.03825519      0.98012701     17.79468371
H       5.23269731      4.86321471     18.12463892
O       0.32005192      7.90360352     17.19134272
O       3.64789473      9.88947487     21.53088087
H       3.95086701      8.97694520     21.75952146
H       8.98441860      0.92922761     18.18435197
O      10.39878653      3.17804521     19.57048822
H       0.65018951      7.80594023     18.09368147
H       1.69896768      3.50286127     19.59458183
H       1.33940955      6.90641805     16.67576162
O       8.65896398      5.72864734     20.17410759
H      10.09872319      3.68889911     18.77280050
H       2.59645614      4.79607836     19.75932823
O       1.93517515      4.22981837     20.27751278
H       7.95839789      6.12358648     20.75467983
H       8.52193117      1.65908165     21.54800674
H       1.74786359      5.71833511     15.69864576
H       8.49494528      4.75610380     20.35083391
H       9.65471089      3.03637429     20.20369927
O       2.13810584      6.44382834     16.27857582
O      10.32811594     10.22167974     19.15880488
O       8.11399636      2.60457487     21.41928379
H       1.90418494      9.03248272     20.37730462
H      10.56985411      6.05991888     20.61074877
H       0.09999210      9.75896030     18.96078460
O       9.00861095      9.69140794     21.44778031
H      10.45923409      1.56124447     19.26918244
H       9.43513004      9.73973224     20.51577242
O       1.24751569      8.54058704     19.82404626
O       0.36375264      6.22972784     20.75281151
H       7.48564742      2.51427083     20.67055945
H       9.66624092      9.50615285     22.16784443
H       8.09695819      8.18830274     21.81843583
H       2.10356995      3.81221639     22.19841428
H       0.89838615      5.46153881     20.32971299
O       7.48678484      7.49542862     22.17241791
H       1.07870994      7.68972415     20.28797201
H       5.83758229      7.48934567     22.43452654
H       8.00101448      7.12520865     22.98896169
O       2.23106042      3.71722547     23.16361468
O      10.59931409      9.50373911     23.62126841
O       4.90934659      7.71761742     22.82589917
O       6.83032175      2.23702258     24.74362818
H       8.32127583      3.49507969     22.75944228
H       1.28210005      3.45151107     23.41842648
H       4.34823640      6.92772235     23.05527682
H      11.14734799      8.69603606     23.75153973
H       5.98309658      2.32371536     24.26963909
H       7.48633875      3.00537393     24.43071250
H       4.32251081      1.14832497     22.78603133
H      11.05231737      0.70871937     23.84400862
H       2.61527595      5.12955168     23.48229059
O       0.25750086      6.89702629     23.37940363
H       1.07742845      6.61622122     23.86737825
O       2.91181224      6.01994141     23.83510156
O       4.35589342      1.69952168     23.67635967
O       8.62208455      3.66479370     23.68674080
O       0.15482565      2.40042750     24.02608746
O       9.00190957      6.27015568     24.02012982
H       8.03672414      0.67843298     24.66678445
H       5.21682688      8.49806561     24.24365171
H      10.35422069      2.82338463     24.13538502
H       8.71307529      6.30226217     25.03540415
H       0.39744742      6.67737198     22.39353293
H       8.59870288      4.63887725     23.80211779
H       4.84147254      0.54713626     24.55184919
H       9.20957926      9.33198311     24.46631122
H       3.47684166      2.13805238     23.78269731
H       3.49208049      5.84134723     24.61310104
O       8.22162218      9.36993845     24.75600705
O       5.32132890      9.36451839     24.87172670
H       0.58376173      2.35023750     24.91608157
H       9.97578947      6.31251877     24.06155526
Pt      2.68190630      9.17752061      0.40331210
Pt      5.48828652      9.09674769     26.95162341
Pt      8.33936154      9.07411006      0.12116389
Pt     11.08028607      9.07920204      0.15355990
Pt      8.28661337      4.27095651      0.23395001
Pt      4.13373404      6.72073074      0.32401698
Pt      9.74358226      6.73867525      0.32942401
Pt      6.92883063      6.66490748      0.07289354
Pt     10.93055871      4.31406797      0.32612579
Pt      1.36151998      6.82794504      0.42396588
Pt      9.66042889      1.85396817      0.36477050
Pt      6.68501434      1.97569782      0.06018304
Pt      2.68460739      4.30379133      0.39950549
Pt      5.45929682      4.34107837      0.15347036
Pt      1.18698713      2.03833444      0.31870140
Pt      3.84056304      1.97176422      0.35834595
O       3.48943178      5.71512404     18.46888614
H       3.03812262      5.70798251     17.56482225
H       3.51837912      6.69387815     18.60709954
O       6.33365889      0.05865855      9.41930489
H       7.39541426      9.82984028      9.59746822
O       5.11386742      7.45397119      9.74159795
H       4.33626487      7.27876741     10.37386603
H       5.61869197      6.61013133      9.82255736
O       5.97223459      2.16123030     12.59928787
H       6.26436541      1.71149484     11.81137474
H       5.89777614      1.41479856     13.23341875
O       9.17745300      0.35450153     12.43724886
H       9.31455686      1.05470462     11.75190620
H      10.05189080     -0.19147440     12.43270545
