   250
 Tv_1:  11.152900   0.000000   0.000000 Tv_2:   0.000000   9.658700   0.000000 Tv_3:   0.000000   0.000000  26.829700
Pt      5.46518742      7.82342627      2.51156499
Pt      6.82789891      0.62446019      2.36018879
Pt     10.98978259      7.78138707      2.61183076
Pt      8.32504677      7.95094553      2.34334225
Pt      8.33647027      2.86273681      2.67251211
Pt      2.56815793      7.75049746      2.60249687
Pt      9.73644180      5.33946562      2.47009074
Pt      6.93436247      5.28349696      2.66657856
Pt      5.37447293      2.91638567      2.59400068
Pt      4.10287382      5.31918483      2.66972460
Pt      9.61448533      0.61870427      2.71424141
Pt      1.33198119      5.29989474      2.65072545
Pt      1.35363440      0.52092967      2.61906267
Pt      2.62421951      2.96248847      2.65088322
Pt      4.06293895      0.56375486      2.57387002
Pt     11.12055071      2.91440013      2.68719665
Pt      5.79864237      6.35941459      4.91338626
Pt      8.47832080      6.35667253      4.64327316
Pt      7.05940332      8.77487846      4.67018902
Pt      7.13454912      3.90754028      4.93505577
Pt      8.42402640      1.54913111      5.03668185
Pt      5.70967083      1.44911268      4.82964307
Pt      9.86705074      3.97538498      4.82610296
Pt      9.80040742      8.80553183      5.01632867
Pt      1.56793500      8.80648086      4.99638174
Pt      0.18053565      6.42352525      4.90568025
Pt      2.91805885      1.56121926      4.99102565
Pt      2.98379851      6.39228461      4.97529581
Pt      4.34600696      8.75742334      4.84895475
Pt      4.36629208      3.87345255      5.01902405
Pt      0.16847117      1.51217093      4.99176900
Pt      1.61140432      3.95930805      5.11146509
Pt      7.58723589      2.80883860      7.30628807
Pt     10.44970510      7.39202846      7.14703579
Pt      8.96155193      5.08875547      7.25932668
Pt      8.79972061      0.37534137      7.25985004
Pt      5.94284529      0.09796458      7.13304563
Pt      3.58133936      4.97610783      7.34281136
Pt      3.03506085      0.08909559      7.16384751
Pt      7.67798821      7.44377953      7.02503985
Pt      4.73501927      2.47774599      7.28401095
Pt      1.94446106      2.62012114      7.38830550
Pt      0.55967446      4.89144288      7.42632149
Pt     10.34223019      2.67019362      7.27695661
Pt      6.30565546      5.11353037      7.34971342
Pt      0.38061560      0.19504171      7.24745299
Pt      1.97413162      7.13877765      7.27553236
Pt      4.61082207      7.42203378      7.11352787
O       6.34115507      5.05334099      9.60987667
O       1.85940937      7.35946173      9.39820428
O      -0.22763962      4.92743363      9.49905417
H       3.98718548      4.27916269      9.76685929
H       8.40158133      4.81604739      9.71540832
O       0.12746297      0.24213613      9.39916551
H       2.85781707      8.46791676      9.53422459
O       8.60681665     -0.20815250      9.25725882
H      10.23018909      0.21895482      9.51549402
H       0.38133672      4.62556279     10.29611084
H       6.40949465      2.65170758      9.64050459
H       1.90925169      2.89775880      9.96898390
H       8.87692631      8.52081849      9.44929014
C       7.40943116      4.58696650     10.16701492
H       2.09600710      6.44709316      9.82526586
O       7.45851594      2.69446431      9.52201404
H       5.94460828      8.80203793     13.14130237
O       4.86239085      2.66042203      9.30108571
O       1.77241974      2.11737288      9.37123320
H       0.63194326      1.14858196      9.63476569
H      10.98168431      7.94279497      9.36492345
O      10.17678687      7.40410831      9.25739126
H       4.32462665      1.96717310      9.76707895
O       4.60771642      0.75056115     15.12924261
O       3.53786975      5.10936992      9.43736600
H       7.26028702      4.54180032     11.24730183
H       6.77375994      7.65525847     17.84890759
H       3.67778112      0.39870700     15.23012280
H      10.75654251      5.91679792      9.64731439
H       7.46435657      8.70051647     13.77915025
H       5.14889471      0.16503134     14.50936204
O       6.88716224      9.16303907     13.11605982
O       7.57035978      7.87766468     18.48379605
H       4.08920777      5.88849694      9.84354932
H       7.89652404      2.86832405     12.89640266
H       8.26614254      7.67904282     17.79061199
H       8.61018251      9.90824623     15.35423847
H      -3.68330997      8.14763405     11.64757921
H       6.95398417      3.68430911     13.71965658
O       7.70378304      7.35513023     11.06122808
O       9.00714466     -0.51632149     14.77265345
O       7.91333296      3.54234517     13.58203814
Cl      4.27297803      7.48154139     13.41696218
H       2.77386413      2.21035736     11.77490640
O       9.56425604      5.55270303     12.08605380
H       9.06594428      4.97760992     12.68588262
Cl      1.22196594      3.78870315     11.92197168
O       5.49309300      3.61350686     14.97582035
H       8.10646148      6.74405287     11.76256012
O       3.67729520      1.88255919     11.45830220
H      10.09675474      6.09933337     12.69906330
H       4.53752235      3.88783855     14.97798558
H       5.30313141      2.65631546     15.14911421
H       9.50237781     -0.03252122     14.05752145
H       2.65271080      4.79880936     14.12315231
O       5.07748595      4.31053524     12.15045651
H       4.68296711      5.10496171     12.57849552
H       2.88623772      0.54114397      9.71157608
H       3.93767396      1.33599807     12.21779451
H       4.74580615      7.64779797     16.22395682
H       1.41600273      2.42393340     17.42532354
H       4.45950925      3.57367321     12.20286022
H       9.11621819      3.06141018     14.71181313
H       4.33588282      6.73291838     17.44328545
O       2.99828265      4.31849713     14.88462838
H       2.44149536      3.55158531     15.00028407
O       1.90633860      2.99075301     18.11464800
O       3.37313592     -0.32439134      9.30544584
O       4.90717101      7.52746023     17.22004073
H       2.06547369      3.84964462     17.71191604
H       1.50819119      8.76475763     16.11107032
O       9.69111650      2.87396992     15.57073356
O       1.07968785      2.28234096     15.48710855
O       1.82702298      9.25405102     15.30907746
H       0.06189431      2.55836956     15.49112494
H       9.10734519      4.17659020     16.44886465
O       8.80390119      4.87729124     17.12008028
H       5.72819902     -0.91460155      9.80307760
H       9.09359087      2.20034682     16.09935852
H       3.63552971      0.40231858     17.81562020
H       3.14586732      1.74753895     18.46381177
H       1.01748283      1.31697118     15.45262396
H       7.80145957      4.89439512     17.05327579
H       9.52492068      6.31958545     16.86183297
O       3.73980178      0.98962474     18.58792592
H       1.57129172      8.61637466     14.63060724
H       5.70114904      4.36671566     16.52064975
H       5.39565322      1.86862359     18.83716806
O       9.81583245      7.28343366     16.84026454
O       6.28397006      2.35943532     18.76547930
O       0.52372921      7.67131651     12.22805125
H       9.57373302      7.71996468     15.99143933
O       6.23880317      4.86559243     17.20303556
H       0.50679712      8.61521759     11.85222754
H       6.07500705      3.16068888     18.33267837
H       1.46364150      7.46886242     12.07191996
H       7.25513220      1.46465714     17.09851538
H       0.40089840      7.26910726     17.32285976
H       3.73464873      9.63165921     20.23853966
O       8.16301569      1.11978705     16.79931951
H       6.01919558      5.83398846     17.07373313
O       1.27030371      7.73866853     17.35362846
O       3.41174325      9.36870882     21.11572011
H       3.70332737      8.40640016     21.21851003
H       8.69181042      0.77797261     17.54988417
O      10.00844140      3.70353541     19.90063530
H       1.23952379      8.34105841     18.19923055
H       0.38072791      3.91158107     20.39812460
H       2.31610780      6.41208132     17.40317962
O       8.07023407      6.17074941     20.31694760
H       9.58434265      4.19881831     19.16366984
H       2.09542071      4.31367050     20.27864322
O       1.16999152      4.49761172     20.69388748
H       7.50375634      5.37657179     20.51866875
H       7.83357674      1.75288459     21.31918902
H       2.96123507      5.27642321     16.47849452
H       7.63688328      6.72537605     19.51375024
H       9.22306062      3.23040916     20.39207249
O       3.02083909      5.67853594     17.43191106
O       9.73145128     10.54442005     18.96796679
O       7.57748990      2.70564783     20.98584757
H       1.56282674      9.16166828     20.38003394
H       9.77886904      6.50937521     20.59802152
H      -0.81549358      9.87240169     19.30487606
O       7.75175595      9.39562384     21.38514422
H      10.09037584      1.78739809     19.24081381
H       7.90382240      9.06334089     20.42296336
O       0.71859918      9.05841792     19.85762887
O      -0.39234074      6.70876536     20.78918918
H       6.86200421      2.59564696     20.31482718
H       8.67422842      9.34790103     21.71189779
H       6.91784165      8.37290845     22.16423223
H       1.80808166      4.04850255     22.14658705
H       0.13852212      5.87400243     20.65403489
O       6.34699979      7.85383474     22.83859563
H       0.25480322      8.19926070     20.14706108
H       5.09766318      6.67367192     21.82360078
H       7.07133179      7.45742630     23.44336428
O       2.20059244      3.70403292     23.02679660
O      10.27460876      9.48672063     23.28184963
O       4.22374146      6.56461912     21.47449970
O       6.61018287      1.95060715     24.35182961
H       7.99422879      3.43459399     22.45542480
H       1.37442167      3.40210635     23.52641275
H       3.58779480      6.57734782     22.18125946
H      10.81291588      8.64055497     23.38342880
H       5.72131832      2.08100619     24.02966349
H       7.17453592      2.80458225     24.03984609
H       4.01982891      0.95193404     22.30919287
H      10.86781816      0.59431207     23.51373459
H       2.39258148      5.24185771     23.43230926
O      -0.00568833      7.17071553     23.38935076
H       0.84797435      6.83071340     23.63379104
O       2.52816016      6.26964696     23.66750289
O       4.27195519      1.52302387     23.10324282
O       8.38278784      3.60072202     23.36236850
O      -0.22169238      2.90439978     23.75289437
O       8.43319198      6.31801685     23.88565071
H       7.69873814      0.45631314     24.52175352
H       5.35239569      8.43820244     23.83277326
H       9.94218873      3.20282404     23.74784613
H       8.40468053      6.39101971     24.87839802
H      -0.16069179      6.95596206     22.37837875
H       8.23191081      4.59003430     23.46979620
H       4.47759667      0.05321151     24.14584028
H       9.05176326      9.35905734     24.18862213
H       3.73689244      2.37077115     23.02204393
H       3.09768095      6.21383315     24.46570856
O       8.19432975      9.22331315     24.71181989
O       4.75346566      8.81862161     24.51888784
H       0.01252863      2.69718945     24.69859144
H       9.33371606      6.45830909     23.66371155
Pt      2.56771191      9.20529587      0.28599499
Pt      5.40133442      9.01408664     26.80435225
Pt      8.21457596      9.15150046     -0.01943420
Pt     10.87091078      9.24157315      0.37324029
Pt      8.12402711      4.25100059      0.21183792
Pt      3.92751148      6.77415553      0.32788234
Pt      9.54509437      6.70082840      0.19351643
Pt      6.79013239      6.63022232      0.31527336
Pt     10.89307227      4.28230157      0.13553586
Pt      1.16519997      6.78615001      0.11982232
Pt      9.51539290      1.84083773      0.22035158
Pt      6.62950486      1.87866826     -0.01266390
Pt      2.57502161      4.38091718      0.22743884
Pt      5.42754060      4.34295743      0.22570597
Pt      1.15165243      1.92232995      0.29357459
Pt      3.93340615      1.93361653      0.20118043
O       4.16813400      4.40850069     19.93798108
H       3.97368826      4.76407595     19.04138328
H       3.96455072      5.10975485     20.57816234
O       6.18184005     -0.26055167      9.22468963
H       7.18631613      9.30569072      9.35551115
O       4.81420455      7.19259394     10.57111144
H       4.68028487      7.39438730     11.55232596
H       5.77347049      6.90407931     10.56140730
O       7.98340909      1.57355047     11.76832568
H       7.91958505      1.66400666     10.74622400
H       7.33431044      0.93258091     12.10985830
O      10.39821323      0.74250683     12.69265609
H       9.69041025      1.17791529     12.17796987
H      11.04612697      1.43232793     12.97347915
