   250
 Tv_1:  11.152900   0.000000   0.000000 Tv_2:   0.000000   9.658700   0.000000 Tv_3:   0.000000   0.000000  26.829700
Pt      5.43765049      7.91332973      2.48757913
Pt      6.68758051      0.66428249      2.53062730
Pt     11.01184106      7.81803956      2.44168642
Pt      8.13495383      7.84146795      2.40648088
Pt      8.20994144      2.85844695      2.66119775
Pt      2.58981076      7.84113970      2.59781703
Pt      9.69861700      5.29644493      2.51503960
Pt      6.94390231      5.28038972      2.69927437
Pt      5.31859595      2.98726157      2.70797398
Pt      4.06025716      5.52738768      2.68661750
Pt      9.65622960      0.52951011      2.63165367
Pt      1.19315378      5.41496019      2.58875777
Pt      1.16035209      0.62667987      2.60832873
Pt      2.64597527      3.15409359      2.67419328
Pt      3.92794909      0.67622188      2.53376025
Pt     11.10548936      2.99715560      2.55879598
Pt      5.70831172      6.35383979      4.86408577
Pt      8.51507402      6.29651249      4.71564208
Pt      7.05311685      8.83297144      4.84284672
Pt      7.15833620      3.81959665      4.87774023
Pt      8.56005568      1.51450317      5.04639740
Pt      5.70926766      1.49949344      4.96466975
Pt      9.98415680      3.94442402      4.90450687
Pt      9.71296071      8.71123074      4.90325335
Pt      1.48018642      8.86132781      4.99742157
Pt      0.12350002      6.44786746      4.90110795
Pt      2.95838063      1.65704509      4.87250449
Pt      2.96246870      6.52088123      4.96113752
Pt      4.26266379      8.84777172      4.76293457
Pt      4.38906606      4.04285065      5.04483573
Pt      0.15471875      1.59331513      4.95096278
Pt      1.58401702      4.02200199      5.00944217
Pt      7.53991693      2.55645711      7.28268832
Pt     10.36520970      7.40649916      7.23693449
Pt      8.93297513      5.01095010      7.06841592
Pt      8.73721403      0.17220265      7.38533151
Pt      5.99754680      0.06634029      7.31428407
Pt      3.53716160      5.04596288      7.36325387
Pt      3.18476260      0.08289017      7.15886259
Pt      7.62536503      7.38628640      7.11978651
Pt      4.77702870      2.46209428      7.33391245
Pt      2.03681735      2.63154511      7.34653313
Pt      0.59305594      4.91994356      7.27321620
Pt     10.19684865      2.67179494      7.27782509
Pt      6.24757098      5.05820558      7.28575147
Pt      0.46730672      0.26722978      7.23620114
Pt      1.91810996      7.22088450      7.31210529
Pt      4.63547344      7.39385518      7.12641613
O       6.52024056      5.09608641      9.43911835
O       1.85324024      7.52545120      9.41719799
O       0.04222397      4.90536829      9.45621326
H       4.25355207      4.18901547      9.71673139
H       8.49447772      4.66599027      9.76381057
O       0.12054191      0.34264848      9.42597825
H       2.65191123      8.87023144      9.41320590
O       8.73043348     -0.18027373      9.36776422
H      10.26877861      0.34905563      9.63211430
H       0.72569400      4.80945908     10.16102447
H       6.40619234      2.60049268      9.32308262
H       2.17526203      2.95047163      9.99789256
H       9.26837151      8.59884909      9.59830783
C       7.46089515      4.66175845     10.14385456
H       2.21813637      6.72075404      9.82922687
O       7.42116555      2.61971068      9.32625903
H       5.39223949      9.34209045     12.86361371
O       4.81524958      2.59188496      9.32551081
O       1.80892592      2.28858794      9.38496189
H       0.57612127      1.27257459      9.39028506
H      11.21252908      7.81025521      9.58287434
O      10.31382638      7.36872859      9.32206828
H       4.54388692      1.79617877      9.76687087
O       4.50119241      2.01195296     14.51817207
O       3.78982098      5.05120955      9.65874068
H       7.26057827      4.56575754     11.22691674
H       6.62020768      7.94990125     17.10257724
H       3.67345467      1.49353613     14.51757684
H      10.82937011      5.84911148      9.55417105
H       6.76688416      9.57717853     13.69028074
H       5.24361238      1.41145898     14.08855544
O       6.06877903     10.06947048     13.16246503
O       7.47603316      7.50319354     17.35260659
H       4.39760690      5.78921917      9.91278875
H       7.67633505      3.50561239     13.82737857
H       7.98600901      7.18755075     16.56330716
H       8.09710173      8.77791346     15.31203357
H      -3.45554900      6.92166426     12.53472041
H       7.19798939      5.01888649     13.82379243
O       7.95872543      7.03539367     11.60796056
O       7.81957659     -1.00373702     14.38095234
O       8.03094366      4.38712712     13.87906669
Cl      4.02514911      8.09907196     13.72644066
H       3.48799349      4.25886555     12.53090369
O      10.64424049      6.36420845     13.76157584
H       9.80409464      6.27284423     13.26576105
Cl      1.51916442      5.06316146     12.05632937
O       4.50695779      4.10908405     16.28614371
H       8.46359452      7.88305072     11.59842756
O       4.42740049      3.96071679     12.71621854
H      11.23345379      5.68624188     13.23943909
H       3.89229216      4.66976229     15.79301189
H       4.86814185      3.44735938     15.65851135
H       8.69103377     -0.91143849     13.82599777
H       2.62209953      5.92844008     14.35845421
O       5.92819581      5.87013409     13.36020138
H       5.44088159      6.58754199     13.70708789
H       2.53805964      0.89635660      9.53270965
H       4.35811945      3.12052178     13.27230134
H       4.94736767      8.92414558     15.53933453
H       1.87648229      3.09339566     17.82338170
H       5.24072464      5.07061040     13.06010747
H       8.87355646      4.29604711     15.41457299
H       4.42265288      8.15581799     16.65947832
O       2.63201276      5.54615885     15.28378001
H       1.78035601      4.94683349     15.27240260
O       2.72225786      3.07006730     18.30856218
O       3.13845408      0.11077209      9.31900834
O       5.10272459      8.83246903     16.54611972
H       3.39146142      3.54385399     17.74971469
H       1.36993059     10.19383035     15.69312707
O       9.28669782      3.89743215     16.27828457
O       0.81407277      3.84256949     15.93006807
O       1.53821722     10.75996176     14.90965802
H      -0.17144444      4.00612223     15.91642242
H       9.93271636      4.73327604     17.93478585
O      10.49592624      5.17448602     18.52524373
H       5.66221761     -1.04013275      9.84355748
H       9.06468221      2.95157984     16.24505856
H       4.67207069      0.31757477     17.67345778
H       3.61658285      1.32631806     18.39079303
H       0.92509955      2.99570650     15.42648913
H       9.93548756      5.78222592     19.15175288
H      10.36899511      6.67675062     17.22441766
O       4.54545173      0.90757391     18.43279787
H       1.47255349     10.08983587     14.12749375
H       5.51053578      4.86059927     17.26684377
H       6.25223624      1.93913901     18.38419153
O      10.09622694      7.41493331     16.62326617
O       7.11343152      2.50450419     18.40328316
O       1.02739612      8.49726623     13.12498324
H      10.26306664      7.05964940     15.74124319
O       6.10843583      5.11820352     18.11073032
H       0.41291589      7.80109857     13.48547824
H       6.94904506      3.44454617     18.03440107
H       1.93823501      8.26435903     13.15593056
H       8.11581179      1.56315223     17.37308253
H       0.19528545      8.53219084     16.85729280
H       4.88251336     10.16478247     20.37760197
O       8.73108122      1.21036889     16.70944531
H       6.76660532      5.88380968     17.85335457
O       0.95461285      9.11414983     17.11586224
O       4.88506858      9.87892519     21.28567505
H       4.94729164      8.92219086     21.23514094
H       9.44504029      0.76734826     17.19122178
O      10.97493734      3.11841408     20.27799191
H       0.64968265      9.77592357     17.79920040
H       2.11055495      4.14695883     20.17451097
H       2.34051857      7.98236368     17.12601152
O       9.14282772      7.08569623     19.47503617
H      11.00697364      3.84494846     19.63576322
H       3.21685777      5.02876779     20.73792782
O       2.33851833      4.57921275     20.97699326
H       8.75309001      7.15388151     20.37898517
H       8.56083052      1.08668235     20.88594791
H       2.76682206      6.69308261     16.52460461
H       8.42428839      7.33198442     18.84729180
H      10.06885436      2.92102821     20.49972949
O       2.88534296      7.25001235     17.37266986
O      11.41762705     10.25186407     19.53788546
O       8.44811890      2.10595852     20.84101013
H       2.87661553      9.69261288     21.68267903
H      11.68438039      6.80792753     20.07209098
H       0.96888077     10.10063939     20.28089688
O       9.44827715      9.30504382     21.46166045
H      11.22955073      1.56789846     19.78034441
H      10.12379758      9.30174576     20.69072112
O       1.88800470      9.57260619     21.63176063
O       1.15530017      7.04443316     20.86363312
H       7.88537154      2.37762020     20.06548495
H      10.01784501      9.52691165     22.21998769
H       7.82453685      7.80815379     21.95305380
H       2.88507118      3.66165956     22.42764140
H       1.63802374      6.24940708     20.87960234
O       7.33133964      6.95018898     21.89422402
H       1.74405771      8.64922084     21.26886877
H       5.45468533      6.93866886     22.75068116
H       7.91994102      6.44075452     22.58249315
O       2.90770733      3.34083465     23.34816452
O      11.01553958      9.31000983     24.42407378
O       4.60960449      7.47261083     22.94367990
O       7.20897440      2.09211570     24.62845388
H       8.67501313      2.94247456     22.35958214
H       2.06511023      2.83909905     23.63947707
H       3.80224848      6.90436998     22.86495541
H      11.26200372      8.35216732     24.11970431
H       6.47919287      2.13177365     23.92817942
H       7.84928069      2.74803678     24.21578396
H       4.80350190      1.35467742     22.54089311
H      11.64856806      0.40985856     24.34590155
H       2.66520366      4.88574045     23.93138757
O       0.11444277      7.00741679     23.38532284
H       0.93163852      6.55860312     23.72245675
O       2.32578668      5.80500394     24.02366587
O       4.95488655      1.81691618     23.37042036
O       9.03746941      3.31913453     23.29715488
O       0.57742060      2.16206182     23.40863248
O       8.80432863      5.83003689     23.90537528
H       7.91730644      0.61317736     24.43514681
H       4.85155604      8.51886782     24.37658296
H      11.87613802      2.07954808     22.41799629
H       8.61314216      5.91598606     24.91591145
H       0.28034302      7.09582353     22.43898247
H       8.91207415      4.30940474     23.32298882
H       4.86487583      0.44495476     24.35884948
H       9.34779295      9.51018301     24.56532601
H       4.08221142      2.40787412     23.42560307
H       2.75532905      6.13189636     24.85599852
O       8.38621357      9.40868885     24.66419556
O       5.37249384      9.35122945     24.71041003
H      -0.21264475      2.69200284     23.57370732
H       9.68189399      6.34584064     23.76089203
Pt      2.53609487      9.08785829      0.16145401
Pt      5.23533291      9.00912885     26.87700876
Pt      8.17035921      8.98262131      0.10075120
Pt     10.93174428      8.96168134     -0.05294292
Pt      8.29511867      4.23353369      0.20294646
Pt      3.97732972      6.60093802      0.26435120
Pt      9.68208195      6.56438029      0.22645552
Pt      6.87707197      6.51314196      0.27091712
Pt     10.97239067      4.19734628      0.12750987
Pt      1.29815238      6.63444415      0.22436540
Pt      9.59485047      1.70481680      0.21345973
Pt      6.83486825      1.84623384      0.22162895
Pt      2.69481023      4.14056426      0.24201077
Pt      5.49050316      4.15011573      0.25020482
Pt      1.14658763      1.85698298      0.15493799
Pt      3.87213287      1.74185045      0.18850489
O       4.01202601      6.28771830     19.74576954
H       3.35171733      6.63638996     19.12038631
H       4.70552877      5.99330921     19.11919970
O       6.01081410     -0.16749153      9.52269345
H       7.06303637      9.43355727      9.61146635
O       5.04798443      7.30420261     10.56336454
H       4.65607330      7.40748357     11.47935678
H       5.96767962      6.87175046     10.67257568
O       8.01867454      1.95705308     12.15951600
H       8.06151299      2.11889417     11.19505577
H       7.12571399      1.53770616     12.22580685
O       9.78588613     -0.39451576     12.26327139
H       9.38672352      0.47367948     12.25411231
H      10.76675604     -0.27961894     12.37155256
