   250
 Tv_1:  11.152900   0.000000   0.000000 Tv_2:   0.000000   9.658700   0.000000 Tv_3:   0.000000   0.000000  26.829700
Pt      5.27919090      7.81225297      2.56501877
Pt      6.73513897      0.52034733      2.46781837
Pt     10.84723409      7.74757331      2.56993204
Pt      8.01900295      7.80547063      2.44564383
Pt      7.99765683      2.84406784      2.68361621
Pt      2.59800837      7.74548586      2.53647330
Pt      9.60734063      5.27423222      2.54546276
Pt      6.76583835      5.27604467      2.66248217
Pt      5.24516826      2.99213091      2.62413903
Pt      3.91746634      5.32450711      2.58336802
Pt      9.41469410      0.50371193      2.69578980
Pt      1.08706118      5.28503484      2.58782580
Pt      1.02895634      0.45410941      2.72837635
Pt      2.49300633      2.95480833      2.68840609
Pt      3.80256691      0.50806350      2.59414902
Pt     10.93581185      2.80526698      2.63868316
Pt      5.67337777      6.30816292      4.87049274
Pt      8.50167430      6.46521408      4.71157638
Pt      7.08344593      8.81564909      4.72457706
Pt      7.15477698      3.99809374      4.99211179
Pt      8.43457187      1.46651059      5.03638772
Pt      5.77689812      1.63724732      4.82525254
Pt      9.84279374      3.91936529      4.87645488
Pt      9.89220920      8.76352944      5.03744136
Pt      1.60411981      8.74509930      4.96079854
Pt      0.09868655      6.32890213      4.88274422
Pt      2.92276433      1.59938514      4.98528355
Pt      2.90708945      6.35372940      4.97092175
Pt      4.34668956      8.81896289      4.77237645
Pt      4.37073955      3.94968289      5.00366821
Pt      0.00594940      1.52461864      5.00134965
Pt      1.49020132      3.94269618      5.02838779
Pt      7.75717906      2.76961763      7.38709648
Pt     10.50549032      7.55442642      7.27141789
Pt      9.29686050      5.17438032      7.16639286
Pt      9.13901382      0.23349590      7.35800439
Pt      6.34730038      0.24614746      7.20152562
Pt      3.54933620      5.22424544      7.31298133
Pt      3.43458967      0.28797030      7.32407507
Pt      7.75938496      7.55874452      7.10628759
Pt      4.87116707      2.74781572      7.33145618
Pt      2.07545089      2.69748614      7.36438293
Pt      0.65676530      5.07911697      7.35622895
Pt     10.51469445      2.69265086      7.30166662
Pt      6.43545709      5.24348028      7.21567072
Pt      0.68862511      0.31269817      7.33731947
Pt      2.16071306      7.49476618      7.28626780
Pt      5.03866718      7.56619923      7.18416090
O       6.44183483      5.28762088      9.32808934
O       2.15565814      7.55474370      9.37946052
O       0.31907314      5.18435999      9.43584166
H       4.28902390      3.77249082      9.77084796
H       8.55239865      5.16895660      9.31386037
O       0.49586753      0.37491133      9.50243732
H       2.87914995      8.49529112      9.46131492
O       8.99365355      0.04379073      9.43735910
H      10.68482350      0.59452011      9.71735407
H      -0.17805787      4.48364010     10.08868674
H       6.88266865      2.65191450      9.60907585
H       1.80564734      2.84562670     10.00135808
H       9.24989157      8.64349868      9.55967039
C       7.56546989      5.11493457      9.85819305
H       2.69320987      6.72439079      9.67695132
O       7.84474888      2.77204964      9.41899791
H       5.18912535      9.08315273     13.06674151
O       4.75332026      2.85423707      9.55260135
O       2.26853649      2.24884354      9.43978587
H       1.18893618      1.15031146      9.66932408
H      11.30588431      7.84736209      9.69720214
O      10.48605731      7.46428286      9.32467918
H       3.93314564      2.32673190      9.72336725
O       4.60238237      1.98164021     15.12827988
O       3.71356920      5.25856028      9.35891733
H       7.68483054      4.72622787     10.87381225
H       7.05733274      9.46678715     18.11381555
H       4.26589595      1.36267729     15.75119027
H      10.93143958      6.15826345      9.55347287
H       6.52354358      9.14771446     13.87458147
H       5.11049135      1.45281822     14.55643810
O       6.05420039      9.55457995     13.13048861
O       6.65474914      8.83067440     17.46444152
H       4.47563775      5.80279545      9.53994377
H       7.60302850      2.73679139     13.12357707
H       7.27698674      9.00202920     16.69675955
H       8.88901024      8.43352003     15.24724302
H      -2.63173751      6.59569340     12.07125727
H       6.60781020      3.99433963     13.04815695
O       8.25423699      7.48564860     11.65122717
O       8.40060733     -0.40807450     15.46026427
O       7.32951459      3.51297665     13.59450728
Cl      3.75954766      7.40186309     12.91561238
H       2.38700177      3.40901469     12.56644870
O       9.26853944      5.28599547     12.92633089
H       8.67406420      4.53880098     13.04568467
Cl     -0.16362072      3.11737917     11.37896911
O       4.13476321      4.65540913     15.72760767
H       8.92913978      8.19056071     11.82527173
O       3.05610966      2.66928996     12.60544106
H      10.01715881      4.76818986     12.36780323
H       3.49913110      4.79315400     14.96858342
H       4.57242070      3.73476773     15.46658636
H       8.98055644      0.38026693     15.46635189
H       1.76955029      5.86872257     14.00819206
O       5.40001762      4.58367272     12.13545172
H       4.95144282      5.40054849     12.51167141
H       3.02904806      0.60587954      9.79308880
H       3.34178477      2.79268364     13.50663181
H       5.27697529      9.48375803     17.28379506
H       1.60384616      3.53471326     17.05815120
H       4.64541573      3.93489721     12.21206435
H       8.28474038      3.09584489     15.25207410
H       3.79554290      8.87671450     16.78911670
O       2.20276152      5.06792808     14.30001644
H       1.50732247      4.49862672     14.57640959
O       2.45758028      3.66680337     17.60129893
O       3.54138129     -0.13174238      9.34912818
O       4.30711555      9.69588555     17.04611227
H       3.02799105      4.26066995     17.00324970
H       1.31691646      9.57759957     15.31880280
O       9.03656768      2.98034084     15.86606667
O       0.63064457      3.12822692     15.59276436
O       1.76071245     10.45213524     15.33549556
H      -0.36706563      3.06202479     15.50892591
H       8.90554060      4.33455923     16.90452634
O       8.78865191      5.19269269     17.46050366
H       5.95169101     -0.76912924     10.01468834
H       8.82767335      2.15295616     16.42470246
H       4.03183940      1.12779146     18.14111620
H       3.59761618      2.54547093     18.53787718
H       0.79051982      2.14016539     15.56454704
H       7.80369843      5.22236939     17.55005490
H       9.66284742      6.20393704     16.14941105
O       4.04586360      1.77932592     18.90541285
H       1.80151370     10.67977565     14.39960177
H       5.51968220      5.12575483     16.86758801
H       5.59485486      2.31255589     18.90063316
O       9.87103127      6.71369092     15.32947052
O       6.58328360      2.49465510     18.60539967
O       1.76949762      9.88888402     11.92052922
H       9.82382100      6.13708087     14.53563007
O       6.17190520      5.13665994     17.65959967
H       2.15815647     10.78329266     12.09289859
H       6.53374851      3.37023135     18.14617559
H       2.54667727      9.28283725     12.12151194
H       7.95776102      1.65131229     18.41925495
H       0.22770830      7.37352385     15.75348337
H       3.12054849     10.18277316     20.00707975
O       8.71611853      1.20212526     17.94287218
H       5.77262635      5.94885618     18.12240177
O       0.92338595      7.92263662     16.19768310
O       2.68775332      9.42343517     20.44992408
H       2.50060383      9.70976396     21.32301968
H       9.57403238      1.26994385     18.43866452
O      10.01950044      4.33281549     19.59023744
H       0.55963351      8.14697741     17.13145826
H       2.25165452      4.33761288     19.08370784
H       2.60808506      7.40879724     16.52546173
O       8.28408150      8.41624657     20.92783125
H       9.45242534      4.72558946     18.84189094
H       3.30129336      5.31709680     19.87992720
O       2.40406387      4.80952837     20.00561586
H       7.59205626      7.88216770     21.45851635
H       8.80768383      2.05523978     20.53847485
H       3.68428252      6.24961120     16.48088462
H       8.13434934      8.21955278     19.97283083
H       9.35764737      3.85424617     20.19490019
O       3.53923312      7.12995637     16.88454729
O      11.35713673     11.74135922     18.51852988
O       8.14495125      2.75007069     20.78502615
H       1.40586426      8.97129747     19.14973770
H      10.82094374      5.62355590     20.35057021
H       0.66717071     11.70665090     17.69553260
O      10.10924408     10.42413705     20.95870321
H      10.94492341      2.99285484     18.67582071
H       9.44977448      9.71942442     21.25313338
O       0.55810139      8.51888159     18.83075138
O       0.24734851      6.36786825     20.68852126
H       7.59765112      2.90803432     20.00111512
H      10.46453076     10.21796616     20.12434605
H       7.11389913      7.95808895     23.57096529
H       2.26989134      3.62957121     21.38518396
H       1.05362356      5.78693654     20.84909788
O       6.92782459      7.17074605     23.04051124
H       0.38624304      7.75394639     19.44888697
H       5.10150205      7.04790246     23.25005274
H       7.69495869      6.58262616     23.33202986
O       2.34950241      3.27596224     22.29227185
O      10.41553484      9.25689346     24.71826894
O       4.21126127      7.40196082     23.38316078
O       6.73733635      2.03043481     24.73709477
H       8.44150164      2.79005615     22.45278242
H       1.54526971      2.69871474     22.34682930
H       3.56382437      6.63431183     23.44238289
H      10.84772834      8.48022471     24.22845393
H       5.80857207      2.28925939     24.40678797
H       7.54939421      2.49860177     24.28975859
H       3.61886759      2.56881895     23.22205739
H      10.84567542      0.45756578     24.41174738
H       2.15637447      4.68503689     23.31735918
O       0.12983058      6.96430615     23.37680164
H       0.96327262      6.40849438     23.51013776
O       2.00776923      5.47466973     23.76669312
O       4.14978018      2.30493432     24.07728121
O       8.69896155      2.85284955     23.39040215
O      -0.01717526      1.97059688     23.89809324
O       8.91864824      5.48172213     23.88630879
H       7.27379939      0.51174815     24.62935803
H       4.44422851      8.49522032     24.35782833
H      10.32680789      2.31097607     23.48945824
H       8.73239096      5.66483657     24.81846398
H       0.15298347      6.93489493     22.32929956
H       8.69137768      3.80010369     23.64122600
H       4.42143966      0.51648991     24.70231195
H       8.75712606      9.33632391     24.50499131
H       4.04130165      3.16757112     24.52558312
H       1.69797341      5.09603836     24.65935932
O       7.83120391      9.35503284     24.83379531
O       4.88310965      9.31907820     24.78313121
H       0.15889113      2.33289511     24.78571531
H       9.78702690      5.89522837     23.64775003
Pt      2.43090102      8.99064791      0.09327449
Pt      5.14347812      8.91885883     26.92123452
Pt      7.92421167      9.01864582      0.09313006
Pt     10.75319793      8.99128191      0.15079249
Pt      8.00542998      4.30388293      0.36063292
Pt      3.81374933      6.47946809      0.13890575
Pt      9.46316924      6.59307462      0.18723666
Pt      6.62355232      6.58049073      0.28812877
Pt     10.96634371      4.17484345      0.13213732
Pt      1.07599592      6.64293907      0.27528400
Pt      9.46071070      1.83663072      0.45760931
Pt      6.81464088      1.85496965      0.19574827
Pt      2.53429291      4.12337039      0.00092774
Pt      5.20392687      4.15566803      0.08840669
Pt      1.03208641      1.77031940      0.35701821
Pt      3.69658017      1.67002067      0.24973358
O       4.47810881      6.94857310     19.17571408
H       4.06654018      7.11144620     18.18237576
H       4.15340689      7.73594796     19.71371759
O       6.34818831      0.08381929      9.39148936
H       7.33455690      9.67175046      9.56715939
O       5.81375372      7.77133655     10.64570077
H       5.06070535      7.69184857     11.28755856
H       6.69542344      7.68226004     11.17302433
O       8.09363987      1.53940027     12.15433876
H       8.48186864      1.94786552     11.36706903
H       7.33131013      0.98122222     12.03518275
O      10.23765013     -0.34459523     12.71902974
H       9.63582813      0.41423800     12.70420681
H      11.11393186     -0.10697637     12.36222022
