   250
 Tv_1:  11.152900   0.000000   0.000000 Tv_2:   0.000000   9.658700   0.000000 Tv_3:   0.000000   0.000000  26.829700
Pt      5.20196159      7.87149426      2.26864004
Pt      6.66932429      0.49003490      2.56772394
Pt     10.76619366      7.68290154      2.47297498
Pt      7.97673525      7.85386498      2.42728503
Pt      7.98947378      2.83233868      2.52948571
Pt      2.48319681      7.67408794      2.54958908
Pt      9.58005300      5.17875260      2.58203523
Pt      6.85215736      5.30690499      2.57802432
Pt      5.21291268      2.95725091      2.64407955
Pt      3.92825916      5.30778132      2.59535669
Pt      9.53792805      0.46815037      2.58944532
Pt      1.15562717      5.21880700      2.58445576
Pt      1.05160398      0.36805228      2.67519776
Pt      2.50239500      2.83196833      2.56484881
Pt      3.80597168      0.48033533      2.57867218
Pt     10.89603658      2.76104374      2.57081314
Pt      5.58952127      6.54778131      4.65680717
Pt      8.51212915      6.43720961      4.69332626
Pt      7.14627729      8.86312140      4.99581843
Pt      7.15730589      3.91811622      4.94188259
Pt      8.54377995      1.52580189      4.99951437
Pt      5.72202613      1.48316781      5.03645243
Pt      9.92701494      3.89235174      4.86190984
Pt      9.95369134      8.69639517      4.95048434
Pt      1.64083421      8.68026605      4.91145394
Pt      0.19466622      6.36545174      4.85606720
Pt      3.04778945      1.53361521      4.90955341
Pt      2.98710435      6.32515628      5.01793504
Pt      4.39846951      8.85654551      4.94484070
Pt      4.55180020      3.99099801      5.05493146
Pt      0.21224738      1.40300020      4.94800792
Pt      1.54007591      3.97191304      4.89040537
Pt      7.74376021      2.89503568      7.37378947
Pt     10.66476687      7.44816058      7.25783018
Pt      9.14174673      5.21763619      7.19490902
Pt      9.04937960      0.30632455      7.28957310
Pt      6.43501632      0.41055480      7.40530469
Pt      3.60583915      5.08811017      7.34209485
Pt      3.55386390      0.34911966      7.30315319
Pt      7.90876255      7.52169855      7.22903708
Pt      4.85320492      2.72641147      7.41323274
Pt      2.08169475      2.68010214      7.24615465
Pt      0.76293240      4.99572461      7.21141572
Pt     10.42599826      2.73405357      7.27956412
Pt      6.35002983      5.20400294      7.09120137
Pt      0.75148274      0.24758840      7.36458517
Pt      2.21200265      7.55832367      7.33717523
Pt      5.05920103      7.47889283      7.06890478
O       7.75967167      7.11868053      9.50770698
O       2.13932138      7.91478705      9.42459452
O       0.53037552      4.84674845      9.30480548
H       4.37683583      4.11050288      9.41928309
H       9.01280765      5.63871290     10.09809812
O       0.64766121      0.46444946      9.40662661
H       3.11834564      8.86259187      9.56851429
O       9.08101504     -0.06568377      9.39218531
H      10.81446779      0.59845579      9.54557624
H       1.41951152      5.19736952      9.64775748
H       6.58292127      3.34481408      9.52115059
H       1.02634862      3.37577962      9.40373328
H       9.37787781      8.66043405      9.66278613
C       7.99486071      6.06211660     10.15856533
H       2.36461683      7.00285207      9.79239009
O       7.52943795      3.54339795      9.30449388
H       7.32533072      9.52589708     12.56778920
O       4.89841460      3.15903602      9.67186117
O       1.71038347      2.66889479      9.27591677
H       1.22920769      1.68436549      9.43118918
H      11.48330052      7.84131906      9.68631442
O      10.69127870      7.20441171      9.33913410
H       4.26247214      2.77307508     10.36063066
O       4.29764823      2.00524820     13.74354444
O       3.53073164      5.15026006      9.36800599
H       7.21139907      5.66398068     10.87137102
H       7.91535504      8.73735337     17.69281433
H       3.75369579      1.42019438     14.39615684
H      11.00296789      6.22028608      9.47839528
H       8.79268983      9.34335762     13.06896526
H       5.16197020      1.57433272     13.90697126
O       8.16021842      9.97314761     12.85717893
O       7.46849260      7.89735889     17.79302575
H       4.12501752      5.96131961      9.60957154
H       8.50862496      3.44673827     12.52210078
H       8.11345861      7.28735823     17.33045506
H       7.37074350     10.71063968     14.48085374
H      -0.94843260      7.31294302     13.11557758
H       7.57138530      4.56607031     12.98613101
O      10.02837293      8.12631572     13.65675983
O       6.98311721      1.53665061     15.22444082
O       8.44601553      4.18146054     13.19134040
Cl      5.38626719      8.90190034     11.91095362
H       2.21804158      2.49756761     11.58677828
O      10.52398599      6.06052710     12.23751547
H       9.75864553      5.41703654     12.34617414
Cl      2.58611275      6.05444828     12.30507381
O       4.77029509      3.63129379     16.18970713
H      10.94327080      8.53472053     13.63985349
O       2.92297727      1.80493400     11.49999634
H      11.31365680      5.51913895     12.32591894
H       4.04187159      4.17314282     15.80037166
H       5.05351745      3.06852618     15.41034857
H       6.43942875      0.82841366     15.76237150
H       2.85513691      5.08715990     14.26025573
O       5.92385764      5.82564914     12.76641529
H       5.75257016      6.74714207     12.49924943
H       3.52515018      0.79590922      9.93346406
H       3.45185483      1.88778140     12.31021417
H       5.77476445      8.51764146     16.82514366
H       2.17835772      2.38622528     17.52075380
H       5.00476043      5.44133781     12.75266505
H       8.84634946      2.99877256     14.56848326
H       4.42929190      8.67160618     16.15871381
O       2.62702070      4.79365176     15.16588620
H       2.02690423      3.99561933     15.05057977
O       2.90790512      2.92902333     18.03819011
O       3.85409327      0.07625892      9.40326426
O       5.09409761      9.25529091     16.50664166
H       3.48200021      3.33100591     17.33584154
H       1.47249997      9.43123503     15.41309989
O       9.47246887      2.70964030     15.26863055
O       0.93782325      2.68987266     14.85384339
O       2.15851248      9.77560597     14.79663804
H      -0.04018354      2.59219300     14.97105967
H       9.19675270      3.82581422     16.61573841
O       9.30799301      4.63838571     17.22171390
H       6.10128145      0.00731060     10.33997216
H       8.94792391      1.99125956     15.76156545
H       4.83742801      0.69987700     17.99278703
H       4.00958335      1.75263431     18.71986744
H       1.43158680      1.89526950     15.05249691
H       8.44813069      4.78754900     17.62364867
H       9.62375150      6.05255062     16.03439052
O       4.62192855      0.98192855     18.88852211
H       1.93630449      9.39126847     13.93976674
H       5.90833547      4.52098318     17.21189408
H       5.98182060      1.86336053     19.16876674
O       9.86305729      7.01361877     15.94442672
O       6.90806350      2.29554319     19.09350020
O       1.52622545      9.03457583     12.12524461
H       9.72227754      7.36876434     14.98232260
O       6.43908051      4.87176874     17.98117244
H       2.02601860      9.77329576     11.65940886
H       6.72776987      3.25874233     18.97785183
H       2.03743543      8.25911902     11.89193546
H       8.26636372      1.53045201     18.04232535
H       0.01450057      7.82299838     16.82823447
H       3.99277528      9.25726528     20.28782303
O       8.93504600      0.88894490     17.82641502
H       5.85562835      5.31395478     18.60380482
O       0.78471754      8.47493275     17.02365443
O       3.49194234      8.54359933     20.75837536
H       3.90069464      8.24122963     21.60697597
H       9.84869988      1.22255880     17.91565828
O      10.75777162      3.98497125     19.37924528
H       1.05623879      8.39787411     17.96760511
H       2.36425351      3.91924475     19.50933448
H       2.30512747      7.40485077     17.04892642
O       7.90314578      7.80503278     20.43417943
H      10.18057615      4.18802791     18.53832176
H       3.02928678      5.17338976     20.22231342
O       2.38520662      4.36529503     20.41396304
H       7.34952500      7.52210650     21.16626227
H       9.26742371      1.43858235     21.07593527
H       2.97128904      6.16897605     16.46854477
H       7.49529538      7.74191235     19.53191849
H      10.16531191      3.43310905     19.98844673
O       3.14671444      6.88427597     17.07370247
O      11.64922520     11.44645405     18.07977801
O       8.93965295      2.32758205     20.81101304
H       1.87399475      8.53217953     20.23493629
H       9.72767773      6.88360589     20.43345110
H       0.78561875     10.72074113     18.67712850
O       9.79571810      9.56884687     21.50853078
H      11.52739641      2.74080190     18.61962875
H       9.23968378      8.93966127     20.90981491
O       0.94347696      8.76890119     19.90213108
O      -0.51420459      6.56884744     20.67544253
H       8.22251693      2.19850401     20.15897150
H      10.72839387      9.47802506     21.14141382
H       7.10011285      8.13496472     23.49027834
H       2.54552739      3.69809261     21.54587178
H      -0.33310498      5.74165116     20.15058697
O       6.90452747      7.42572867     22.86695909
H       0.39442181      7.98534848     20.17012031
H       5.35200532      7.33361668     23.19172581
H       7.73359566      6.87783004     23.08779854
O       2.56039334      3.50539969     22.62772524
O      10.74633251      9.43202148     24.72790894
O       4.33862520      7.53514030     23.19925378
O       7.27870926      1.83562485     23.89001937
H       9.05499199      3.26969882     22.12069189
H       1.82470705      2.95424098     22.94362812
H       3.73804287      6.77911851     23.42242866
H      11.18404743      8.74544952     24.18610552
H       6.48004872      2.37284124     23.55426958
H       8.12026304      2.23997371     23.50640018
H       3.84434700      2.96465640     23.37574526
H      10.98975212      0.75502926     24.39915898
H       2.45529989      4.73847673     23.26777462
O       0.40895293      7.24447624     23.22473431
H       1.15214568      6.61343372     23.36017277
O       2.44585998      5.61113484     23.80686771
O       4.59946873      2.58712920     23.89994062
O       9.42990638      3.41056445     23.05884716
O       0.49556249      2.25874512     23.95762701
O       9.14008316      5.83701868     23.98412944
H       7.61920872      0.47418213     24.29496264
H       4.66907989      8.88175700     24.02648284
H      10.78556733      2.68028899     23.62178332
H       9.22484508      5.65953102     24.98430625
H       0.04126587      7.04344921     22.28528134
H       9.37215874      4.35083608     23.29135357
H       4.60274625      0.93348870     24.15394703
H       8.97986696      9.17257441     24.37383177
H       4.68581825      2.87648254     24.84764389
H       2.47218154      5.43843079     24.75501109
O       7.99642052      9.20502080     24.65047073
O       5.03382536      9.70007677     24.50625932
H       0.58065686      2.47482292     24.90291615
H      10.03816520      6.14639050     23.65187332
Pt      2.35436635      9.02338196      0.12150648
Pt      4.99771060      9.01429912     26.61615868
Pt      7.89791640      8.85643277      0.02918122
Pt     10.72217281      8.88193751      0.04773081
Pt      7.84066885      4.09021597      0.03243100
Pt      3.67350407      6.47727070      0.25188993
Pt      9.37747381      6.49993449      0.27234703
Pt      6.51658647      6.56826177      0.26787410
Pt     10.59800070      4.12853986      0.13679949
Pt      0.97093566      6.55979857      0.21805783
Pt      9.25543187      1.68417803      0.32713127
Pt      6.55474685      1.69493891      0.17418705
Pt      2.28159195      4.20220192      0.26928321
Pt      5.11624004      4.19738709      0.13471060
Pt      0.84240324      1.80154539      0.32284668
Pt      3.60502208      1.91562876      0.17020606
O       4.20068798      6.11371433     19.33485592
H       3.85519584      6.10637976     18.42866235
H       4.17358007      7.09086795     19.55268048
O       6.60249600      0.53030147      9.60998539
H       7.68823560      9.88406026      9.76831088
O       5.22829784      7.25051839      9.40306484
H       5.05039204      8.06724268      9.92647641
H       6.24303153      7.29936502      9.43989890
O       9.40903038      2.34078416     11.11131680
H       8.89268799      2.61758112     10.33740240
H       8.97241246      1.46640405     11.29379695
O      11.73418868      3.27355602     11.97869416
H      10.87313199      2.84254468     11.62686592
H      11.83097280      3.02191444     12.91701882
