   250
 Tv_1:  11.152900   0.000000   0.000000 Tv_2:   0.000000   9.658700   0.000000 Tv_3:   0.000000   0.000000  26.829700
Pt      5.33111096      7.99629283      2.40707226
Pt      6.76874356      0.78484123      2.46948073
Pt     10.92848286      7.94349925      2.32879236
Pt      8.02168199      8.00704499      2.33412093
Pt      8.23679055      3.06659711      2.72515733
Pt      2.68616070      7.92793392      2.50091315
Pt      9.57248331      5.51020974      2.60055411
Pt      6.70166146      5.29105562      2.46905084
Pt      5.15734181      3.02786211      2.62343442
Pt      3.90007312      5.39957517      2.55946415
Pt      9.43894333      0.58939256      2.62592720
Pt      1.23934319      5.45634016      2.69352134
Pt      1.07274173      0.63445142      2.69110530
Pt      2.45054742      3.07132144      2.74024057
Pt      3.89036963      0.70552464      2.56299397
Pt     10.92339904      2.96892226      2.70627693
Pt      5.66971776      6.52257497      4.69212018
Pt      8.42832844      6.59455227      4.70386694
Pt      7.22769289      8.92485977      4.82484601
Pt      7.07678300      4.13450411      4.89575113
Pt      8.40179293      1.62367164      5.00634304
Pt      5.69552920      1.54851806      5.05097105
Pt      9.88794487      4.10670094      4.92038820
Pt      9.93648837      8.79960388      4.80808849
Pt      1.51699926      8.96970499      4.87131758
Pt      0.17447047      6.52196554      4.82636678
Pt      2.88847397      1.66265745      5.01383863
Pt      2.91558920      6.59164153      4.85611475
Pt      4.30326345      8.91558895      4.80164401
Pt      4.35094490      4.09778966      4.92996636
Pt      0.07706638      1.64673729      4.96301650
Pt      1.42811981      4.05105685      5.00106822
Pt      7.49651329      2.63431431      7.34310729
Pt     10.34308253      7.35484342      7.24695619
Pt      9.01836177      5.01326461      7.22434020
Pt      8.87846295      0.26171040      7.29241263
Pt      6.09900321      0.19844712      7.26778123
Pt      3.38583486      5.13835135      7.16780976
Pt      3.28789100      0.19199280      7.27293401
Pt      7.61556134      7.42973562      7.09589331
Pt      4.83521041      2.69246936      7.34404742
Pt      1.97011726      2.61310057      7.38971301
Pt      0.61763450      4.88272640      7.36226831
Pt     10.27882188      2.52694839      7.30879195
Pt      6.12222712      5.19704469      7.16370629
Pt      0.47827844      0.15657976      7.28817814
Pt      1.88207105      7.40777512      7.20729320
Pt      4.84299958      7.48849627      7.11457297
O       7.68684410      5.71145755      9.87701321
O       2.09505875      7.56104555      9.18480399
O      -0.03563018      4.89855863      9.48641867
H       4.12798048      3.80261454      9.64551219
H       9.04857389      4.51368640     10.76968755
O       0.47522680      0.28697456      9.57514448
H       3.00158332      8.76912699      9.41011594
O       8.74919633     -0.27877931      9.44866987
H      10.94541487      0.85781020     10.03896395
H       0.59938973      4.77928649     10.26283800
H       6.72578476      3.00366451      9.64792544
H       2.31826778      3.42459205      9.66489243
H       9.20221066      8.47812504      9.44657980
C       8.28326779      5.29564455     10.89597820
H       2.45773277      6.73212675      9.54290288
O       7.61063972      2.83600326      9.31555541
H       7.48467412      8.41596854     13.39283996
O       4.75970345      2.93962704      9.48843380
O       1.84511264      2.63081763      9.38148897
H       1.34386804      0.72596617      9.65116781
H      10.95053216      7.70861190      9.73235740
O      10.23469548      7.21260701      9.31728295
H       4.53453900      2.22359780     10.19487310
O       5.69759751      0.97422443     14.99437590
O       3.52515159      5.09491937      9.33682759
H       8.15533317      5.75371768     11.90428926
H       8.45787297      8.55515204     17.89746398
H       5.75765682      0.13159890     15.49731247
H      10.57869365      5.80078690      9.53963433
H       8.84057495      9.24839739     13.44335969
H       6.48696142      0.99114995     14.40957226
O       7.85055771      9.33657840     13.46575946
O       7.94636724      7.69639542     17.79085762
H       4.24427761      5.68917240      9.68793824
H       9.33176874      2.73914448     12.91210490
H       8.47592591      7.33937603     17.08288428
H      11.37775812      9.53402648     13.96835292
H       1.84083103      8.07570822     12.00887124
H       7.85610878      3.16470876     13.60251704
O      12.17113920      7.57696594     11.82506747
O      10.73654803     -0.13478039     13.24984432
O       8.81893874      3.28049796     13.53955019
Cl      5.90216917      7.00881786     13.59648575
H       4.26734894      2.07582112     12.19216373
O      10.11108665      5.94030681     13.72823524
H       9.57601307      5.13811628     13.89423354
Cl      1.34480778      4.50975094     12.07096112
O       5.42657776      2.89367550     16.67833567
H      12.27404772      6.72579649     12.27376685
O       4.73056921      1.54263654     11.46386329
H      10.55981742      5.57129460     12.93829526
H       5.20373825      3.67441816     16.17544902
H       5.56777363      2.11348703     15.99478346
H      11.12949722     -0.86185281     12.67351855
H       2.92108729      3.53577700     13.10618358
O       6.23990324      4.06958035     14.02989492
H       6.27385620      5.08154262     13.83090594
H       4.38756649      0.17306371      9.53007050
H       5.70595978      1.64347581     11.58976197
H       6.15793583      8.03925937     17.25508303
H       2.64192418      1.92078759     17.06373349
H       5.34263677      3.80805086     13.76476892
H       9.30825132      2.40877257     15.30867270
H       4.82036294      7.57356509     16.69770317
O       3.56717252      3.04314615     13.57162842
H       3.15068244      2.63518530     14.38974404
O       3.11056197      2.20113967     17.94656457
O       3.32788938      0.04695103      9.43785657
O       5.32916167      8.41273644     16.83380259
H       3.97958015      2.58509384     17.61097430
H       2.04374281      8.40121534     15.32248658
O       9.97510941      2.20130831     16.08869643
O       1.61981132      1.90237598     15.64368351
O       2.04111008      9.07827801     14.64908326
H       0.62767659      2.07879914     15.92696752
H       9.77606866      3.44597038     17.17497436
O       9.56006267      4.01687802     17.89967768
H       5.77872239     -1.09045308      9.71215687
H       9.46185298      1.59867587     16.67011670
H       4.81385642     -0.23310005     18.07177021
H       4.13922607      0.97357405     18.72507293
H       1.69377478      0.94420678     15.22941225
H       8.67165711      3.78683211     18.28393127
H       9.82859939      5.69486875     16.73975162
O       4.70414886      0.19098018     18.98201256
H       2.82006077      8.98633134     13.97623729
H       6.48961216      3.38059222     17.82926982
H       6.36401284      0.72253277     19.35773960
O       9.92208748      6.57517306     16.32282136
O       7.12215979      1.23345005     19.72035543
O       3.67942514      8.74887189     12.51105938
H       9.98988284      6.39532315     15.32287117
O       6.99345594      3.66792227     18.72362376
H       4.04959736      9.60027138     12.14887310
H       6.95022884      2.19427152     19.46503009
H       4.44039598      8.22333292     12.96888291
H       8.36549527      0.75512502     18.50018354
H       0.66300814      6.87140548     16.26636787
H       4.33617421      8.48271529     20.00016846
O       9.13212447      0.47990172     17.94280521
H       6.56306881      4.54877099     18.78743835
O       1.67041979      6.94545662     16.37021114
O       4.25322727      7.53452066     20.32781823
H       4.15186728      7.56123191     21.33536275
H       9.92332217      0.33613883     18.54352003
O      11.33604692      3.40997716     20.04694477
H       1.81003204      7.22537510     17.30579503
H       2.62728070      3.97786809     19.06287141
H       3.33403367      6.12237391     15.74118019
O       8.65545370      7.51640339     20.45960746
H      10.77152160      3.58111517     19.21242910
H       3.85575106      4.84086954     19.28342093
O       2.93641919      4.68721842     19.59300073
H       8.14599463      7.13720675     21.21868584
H       9.73883215      1.15148334     21.50835129
H       4.69330208      6.12070727     15.06309038
H       8.20697836      7.36596008     19.57290469
H      10.61317461      3.15000530     20.71798702
O       4.27975605      5.87422482     15.96293269
O      11.50786174      9.55954197     18.97774227
O       9.33595272      2.09922871     21.48245083
H       2.82634540      7.25683764     19.65967948
H      10.36169653      6.50496667     20.30098068
H       1.03267935      8.78151456     18.80497002
O      10.43346265      9.55106031     21.41875055
H      12.10227985      0.61484366     18.80228670
H       9.68160679      8.82746596     21.26419890
O       2.07316152      7.35134322     19.04296551
O       0.06694740      6.15815007     20.54669732
H       8.43960658      1.78967635     21.13454112
H      10.93456010      9.65663880     20.52398732
H       7.06058525      7.44560492     23.82299562
H       2.72535189      3.87076528     21.06256602
H       0.12798114      5.21244759     20.36077392
O       6.78270708      6.50854551     23.73234840
H       1.28624732      6.97626628     19.54617683
H       4.89668755      6.90575019     23.51081787
H       7.18546410      6.02741198     24.47067625
O       2.55451823      3.40128101     21.98375270
O      10.56836615      9.49754170     24.64448184
O       4.02123580      7.31425826     23.35975142
O       7.00087114      2.33203737     24.72972448
H       9.12947131      2.87958661     22.88341270
H       1.81637260      2.86371615     21.63466815
H       3.36972563      6.62013922     23.46499981
H      11.14318639      8.80639314     24.20092981
H       6.20202110      2.58778563     24.16393938
H       7.97252753      2.73846627     24.40246608
H       3.92713459      2.66180595     23.03325023
H      11.08035298      0.78471668     24.45315771
H       2.39529690      4.63860497     23.21676312
O       0.57372553      7.54074725     23.12464985
H       1.03367550      6.81334061     23.59674949
O       2.29035410      5.45891522     23.90489293
O       4.57056318      2.21312715     23.72803846
O       9.21260037      3.07965137     23.90023665
O       0.68836221      2.08212226     23.96023417
O       9.54777579      5.64786592     24.18944724
H       7.55776829      0.67040669     24.59641256
H       4.31223333      8.66616207     24.23322328
H      11.03703234      2.76445702     24.12721037
H       9.82933764      5.79387355     25.09883312
H       0.62304972      7.19201504     22.19415608
H       9.29848014      4.07571097     23.94008476
H       4.36545211      0.59864808     24.44063687
H       8.96314163      9.39478633     24.50919365
H       4.15768993      2.54028762     24.61835720
H       2.52600576      5.01998248     24.77131748
O       7.94878449      9.33287782     24.61237970
O       4.79407635      9.40087005     24.68219529
H       1.23768912      2.35302810     24.76771974
H      10.08201766      6.43028028     23.75520386
Pt      2.42177697      9.21958100      0.09728307
Pt      5.15996924      9.20156960     26.85860716
Pt      7.79699837      9.15070861      0.02051086
Pt     10.80004538      9.01639595     -0.07489738
Pt      7.90370947      4.25883979      0.20614641
Pt      3.91031293      6.74193100      0.12563125
Pt      9.35932312      6.65544912      0.22478431
Pt      6.66481452      6.70946512      0.20943381
Pt     10.81033196      4.28718244      0.27636549
Pt      1.07928282      6.57743825      0.31450253
Pt      9.38057268      1.97485142      0.28102407
Pt      6.55614205      1.92539303      0.03516021
Pt      2.48335732      4.23972106      0.18320456
Pt      5.21304189      4.34016076      0.12528781
Pt      0.93544708      1.86698919      0.28080322
Pt      3.76024061      1.87285554      0.09189966
O       5.16292673      5.66527038     18.68943343
H       4.71873659      5.71817332     17.82965238
H       5.06961787      6.51093309     19.18870535
O       6.13221355     -0.18460245      9.32199303
H       7.77308832      9.19755940      9.62323481
O       5.53817540      6.98061236     10.28766543
H       5.35723374      7.10792170     11.26551897
H       6.42667846      6.52370195     10.12184083
O       7.38476472      1.74918895     11.72385715
H       7.73383522      1.90794064     10.78735102
H       7.51024906      0.81192417     12.04912190
O      10.54638679      2.10190060     11.54629638
H      10.84930891      1.27928682     12.09539040
H      11.34992288      2.69747107     11.73558058
