   246
 Tv_1:  11.152900   0.000000   0.000000 Tv_2:   0.000000   9.658700   0.000000 Tv_3:   0.000000   0.000000  26.829700
Pt      5.76951557      7.71912698      2.17771178
Pt      7.07843899      0.44463031      2.27368737
Pt     11.30622801      7.75402678      2.26816544
Pt      8.49850076      7.71496848      2.17723505
Pt      8.54138547      2.80317131      2.23647053
Pt      2.99607764      7.70891225      2.26672835
Pt     10.12455844      5.19639065      2.20902588
Pt      7.10667163      5.34074519      2.27906105
Pt      5.77663490      2.94637214      2.22379393
Pt      4.41154292      5.42097339      2.29456350
Pt      9.91009880      0.43932919      2.26595392
Pt      1.64539944      5.34115500      2.24217940
Pt      1.62092257      0.47627225      2.26008918
Pt      3.09198967      2.95776048      2.34367339
Pt      4.26774929      0.55937195      2.24211529
Pt     11.37255095      2.82029396      2.17779670
Pt      5.92765947      6.33264401      4.60080859
Pt      8.82400635      6.31280211      4.42665681
Pt      7.41454052      8.70097107      4.55098562
Pt      7.35540185      3.95489990      4.55967616
Pt      8.68600673      1.51525037      4.48201122
Pt      5.94279971      1.45783269      4.62210143
Pt     10.11069295      3.90529231      4.46275948
Pt     10.09191504      8.72375496      4.63744488
Pt      1.77517396      8.59173261      4.70020018
Pt      0.36870416      6.25741832      4.56778288
Pt      3.23762935      1.43327074      4.58613893
Pt      3.21770084      6.18828557      4.62299646
Pt      4.63343621      8.62974389      4.50612611
Pt      4.53982298      3.75525898      4.57723860
Pt      0.47668581      1.39217071      4.56874568
Pt      1.68050163      3.85234695      4.60194662
Pt      7.37097651      2.36028563      6.87134982
Pt     10.35239438      7.24874691      6.89207286
Pt      8.93743790      4.84002061      6.88487521
Pt      8.84373884      0.04736641      6.92909672
Pt      6.05192875      0.00678609      6.74582707
Pt      3.32808819      4.67242784      6.98599994
Pt      3.33227909     -0.03302841      6.92451365
Pt      7.59780619      7.23797692      6.82499622
Pt      4.71043657      2.40592952      7.02787052
Pt      2.00484875      2.40787729      6.92606416
Pt      0.47419873      4.88999054      6.93300352
Pt     10.29637049      2.37368945      6.73667089
Pt      6.13106018      4.79028306      6.92487046
Pt      0.60182914      0.01520913      6.95625892
Pt      2.11035948      7.16820984      6.95080877
Pt      4.81661993      7.30286911      6.86977398
O       5.87650503      4.90610038      9.04055066
H       9.48791425      2.98316541      9.12512632
O       2.20936535      7.48357553     10.42028817
O       0.90974422      4.94501465      9.55515499
H       4.72265585      2.00241725     10.45004007
H       5.29912448      8.17506810      9.42808943
H       6.66940692      6.58527893     10.01179136
O       0.49724005     -0.18063726      9.33708754
H       1.55469360      8.18138558     10.25782891
H       4.94498350      5.11877028      9.49179009
O       8.80245136      0.01218137      9.13858100
H      10.70914347      9.53444685      9.64938725
H      11.20491859      5.28866131      9.94586382
H       0.85997125      0.70188836      9.56429259
H       1.49903569      5.65751575      9.89306545
H       6.49125045      2.52918817      9.31506552
H       1.51380544      3.36291023      9.30224498
H       8.81570997      0.91636739      9.50897706
C       6.94101975      5.53774834      9.86465551
H       2.65160839      7.47191346     11.30081326
H       9.10471634      2.79448183     10.70833509
O       8.95244630      2.48669027      9.81269706
H       3.75981609      7.61313426      9.50874609
H       8.12608474      9.18760204      9.62200640
H       7.87071767      5.66381387      9.27267599
O       4.66557958      7.49509990      9.07104495
O       3.78853742      2.30944845     10.60462594
O       1.79953868      2.44155052      9.07862510
H       2.75659525      2.33119956      9.55891734
H       9.27076650      6.60505738     10.02727536
O       9.79926103      6.33388989     10.79376472
H       3.34411980      1.63689946     11.20676824
O       6.32779489      1.98949080     10.13824744
O       3.79387472      5.11761352     10.60212759
H       3.71188712      4.17339337     10.83763967
H       6.95262979      4.88508521     10.84371882
H       6.08805930      8.70413027     13.84364151
H       6.30322221      2.70853982     10.86780597
H      10.11589410      7.16203928     11.16389881
H       6.48465126      8.76039617     11.34496792
H       6.46563249     10.05025849     10.33399233
O       6.53368409      9.07151369     10.39812635
O       6.17104195      7.99325505     13.10501823
H       3.95311940      5.65763191     11.41224029
H       9.61138208      4.54771420     11.80259124
H       6.82260616      7.30392483     13.42478993
H       7.60424916      9.23059230     12.69016614
H       9.78642623      9.24707794     12.33816500
H       9.84689525      3.25543047     12.84424919
O      -0.63679528      8.64515759     12.01063027
O       8.21743946      0.34004679     12.71134310
O       9.25086432      3.72460169     12.17253269
Cl      1.94108989      0.57307874     12.44937044
H       0.67192246      1.92908787     13.29286828
O      10.56495949      7.01524567     14.34716632
H      10.67605430      7.55981845     13.52093052
O       3.64440255      6.96937921     12.66691110
H       4.58544915      7.19884294     12.88689852
O       6.66850594      3.89295943     11.89996793
H       0.19354064      9.16222525     11.92049930
O      -0.05188082      2.49635883     13.79717040
H      10.91614522      7.66189078     15.04853465
H       6.27124919      4.07554307     12.79912950
H       7.62078527      3.67238553     12.10457565
H       8.11536869      0.81735870     13.55349560
H       6.78985471      0.13568129     15.59156331
O       5.83999146      4.35312520     14.55104124
H       3.39568583      6.55408890     13.46711532
H       4.90202194      4.54649778     14.71937675
H       3.74933693      8.59646810     16.07104748
H      -0.48663535      1.87720939     14.43062443
H       8.77635941      6.96580183     14.13997114
H       3.96087943      6.41225266     15.37463058
H       6.20287275      4.07278192     15.40590320
H       8.17392586      5.47443624     13.96636996
O       5.92216323     -0.10731507     15.16583068
H       5.60963011     -0.74148984     15.83267865
O       3.54140655      5.57609419     15.10394047
O       4.25518189      7.86311424     16.46665495
O       7.97059516      6.36187627     14.34299232
H       2.52187106      5.54661655     15.17205216
H      11.63028173      8.38661012     17.19573464
Cl     -2.26581005      0.92445961     15.72145651
O       2.55675841      9.77335281     15.43871929
O      11.52784558      8.67024949     16.20984906
H       2.52851909      9.91889717     14.44652172
H       0.67050141      4.30988880     14.79006008
O       0.90001728      5.08506147     15.31379477
H       3.92328595      7.95729833     17.46747717
H       1.81504381      1.70823649     16.50300964
H       1.01349160      1.83439960     17.80924632
H       1.65882483      9.37213725     15.70358745
H       0.40940840      5.84106373     14.90221429
H       0.77676865      5.07686642     16.97647786
O       1.59633413      2.39676639     17.20865278
H      10.67522891      9.19335282     16.23398906
H       8.47017347      6.08571218     16.17415030
H       7.90890794      4.17916633     17.03445563
O       0.22597806      5.29618473     17.84409831
O       7.25897798      3.43543947     16.95612288
O       3.33630576     -1.43842956     19.01688427
H      10.46988598      5.48201387     17.41460273
O       8.92510499      5.68431353     16.96296943
H       3.62407773     -0.63022653     19.52316869
H       7.73195295      2.68081807     16.59003072
H       2.37644845      8.18290833     19.11904945
H       6.11092269      2.70389476     18.07704873
H       0.51699031      6.71802734     18.59040152
H       4.50827382      1.64938855     20.11273747
O       5.32242257      2.21933129     18.49162041
H       8.31614763      5.95681620     17.72229902
O       0.46885620      7.72910584     18.64249947
O       3.80906734      1.30421667     20.72880143
H       3.10743672      2.02599030     20.66097546
H       4.55471713      2.56203804     17.95720595
O      -0.32935744      3.68515545     19.73426691
H      -0.03065605      8.04230710     19.40557056
H       1.13487792      3.35537404     20.44005384
H       4.14664306      6.54690844     19.43021814
O       7.35389087      6.43102365     18.91497606
H      11.03121862      4.15428800     18.95533890
H       2.41340166      4.20507765     20.91155177
O       1.98181412      3.32656837     20.94443233
H       7.03218566      7.41877063     18.81840725
H       3.58739646      4.88922571     16.94644063
H       4.08468954      4.98930547     18.77964091
H       6.47692574      5.96715611     19.15943977
H      10.17725768      4.28719429     20.21644829
O       4.57637173      5.61633424     19.48097070
O      -0.96939892      1.15563520     18.71994998
O       3.32679724      4.40866214     17.77695794
H       4.26483187      0.03987528     22.03194317
H       8.46873758      5.86820290     20.41554147
H      -1.53614928      1.07988909     17.89467956
O       8.28253399     10.02128288     20.77791435
H      -1.07443414     11.77544866     18.86690888
H       8.99448047     10.36337855     20.19258287
O       4.29118057     -0.36326711     22.93097238
O       9.21650425      5.62144013     21.00572890
H       2.67759439      3.64942082     17.55522000
H       8.08187604      1.04995258     21.42797099
H       7.19170025      9.99697971     19.32208456
H       1.47257778      2.45262882     22.41215396
H       9.68262339      6.52237955     21.11040341
O       6.49042194      9.43743801     18.91706679
H       4.00580495      0.42841753     23.39189117
H       4.16721836      5.55397054     21.16365969
H       5.88413755     10.15054464     18.65452878
O       1.32039795      2.06329662     23.32398217
O      11.66571762      8.98955570     23.35774990
O       3.81739408      5.20909989     22.04742577
O       7.66422197      2.31040616     22.95949764
H       8.82484724      5.36757790     22.61765256
H       0.82415800      1.15020276     23.21256620
H       3.29303357      5.98497460     22.51632797
H      11.27468670      9.04392583     24.28026772
H       6.69367498      2.60310118     22.95854444
H       8.03339652      3.03435722     23.44175678
H       2.79576918      2.03763667     24.04016277
H      12.43580788     -1.35486590     23.38738452
H       2.78134803      6.98394277     24.36267153
O      -0.81442605      8.05237223     21.35745665
H      -0.32804533      8.18306275     22.20364371
O       2.63164866      7.34247689     23.48674808
O       3.75531020      1.94230156     24.36959904
O       8.87876860      5.07997865     23.54449212
O      11.47726410      4.41714018     24.36780847
O       5.36291096      3.73161813     23.46834186
H       7.55241202      8.94583513     24.16964864
H       6.59843312      7.42708965     24.51126570
H      11.77506040      3.46837581     24.21932452
H       4.66181991      4.31699832     22.90086781
H       9.56041779      8.66220777     21.37814261
H       8.54065882      5.77123814     24.18922873
H       5.95907230     -1.50682762     23.22269329
H       7.86255304     10.55642335     24.32176889
H       4.24875676      2.78600701     24.14916189
H       3.36016815      7.98319697     23.19835424
O       8.28354771      9.68265968     24.46333760
O       6.82370258     -1.73044684     23.67555004
H      -0.56099365      4.47019316     23.92922762
H       5.63554042      4.47732900     24.10339989
Pt      2.87498140      9.12007351     26.78937850
Pt      5.60133733      9.22181248     26.74572766
Pt      8.39126373      9.23017662     26.60985112
Pt     11.06575172      9.13857108     26.69847765
Pt      8.35076584      4.27170057     26.77447071
Pt      4.30476284      6.76160268     26.66452894
Pt      9.84253896      6.70688861     26.85600879
Pt      7.14571399      6.78632627     26.61680071
Pt     11.30346270      4.40045116     26.59023036
Pt      1.56395109      6.82260419     26.70206621
Pt      9.72120010      1.93333743     26.84092463
Pt      6.99474028      1.93293585     26.76551287
Pt      2.97829887      4.33246185     26.79187528
Pt      5.71411806      4.41820771     26.85709004
Pt      1.45967735      1.92796522     26.70969251
Pt      4.08513236      1.77777391     26.67408772
