   246
 Tv_1:  11.152900   0.000000   0.000000 Tv_2:   0.000000   9.658700   0.000000 Tv_3:   0.000000   0.000000  26.829700
Pt      5.44633009      7.83902585      2.24950207
Pt      6.84562086      0.49752658      2.23158621
Pt     11.16959631      7.75416544      2.24289481
Pt      8.28812934      7.86715539      2.23011886
Pt      8.10511409      2.91731628      2.18932433
Pt      2.74244057      7.80171458      2.21432657
Pt      9.71546310      5.34941000      2.08952150
Pt      6.87625992      5.51248755      2.17501740
Pt      5.47501622      2.92052840      2.06968452
Pt      4.08240368      5.35319356      2.08335103
Pt      9.67742524      0.61481462      2.25343288
Pt      1.32160121      5.43030924      2.15922853
Pt      1.26320279      0.59453121      2.21871271
Pt      2.66801744      2.92028007      2.10611280
Pt      3.99670547      0.56699265      2.33411328
Pt     11.06286147      3.00338775      2.14379602
Pt      5.92739345      6.44094409      4.54514634
Pt      8.73011131      6.37257966      4.46481532
Pt      7.30520681      8.94104010      4.57081587
Pt      7.18629448      4.08493923      4.45811390
Pt      8.78069703      1.64097132      4.54133318
Pt      6.01944651      1.61060670      4.45244373
Pt     10.09056208      3.96840185      4.39196395
Pt      9.97507163      8.80547130      4.39983613
Pt      1.78371465      8.83128298      4.46136819
Pt      0.34572403      6.31178599      4.54512925
Pt      3.11892681      1.68460887      4.58247590
Pt      3.15565286      6.41206059      4.51259290
Pt      4.56974883      8.89191327      4.61696832
Pt      4.49738769      3.91658393      4.39171547
Pt      0.35568310      1.62574911      4.59588545
Pt      1.80122312      4.06883504      4.54820843
Pt      7.53888715      2.56083271      6.70750641
Pt     10.41424639      7.46422614      6.77477132
Pt      8.97859164      5.08358598      6.82820998
Pt      9.01181013      0.18343563      6.83967413
Pt      6.14208185      0.31883592      6.79239121
Pt      3.51750053      4.96754362      6.67948777
Pt      3.29646013      0.35198285      6.82649013
Pt      7.48903731      7.39346826      6.78466521
Pt      4.76203291      2.52504696      6.90226758
Pt      1.99238971      2.70117532      6.93895014
Pt      0.70316658      5.14008654      6.99778917
Pt     10.41690597      2.79961708      6.78695135
Pt      6.25893338      5.00350874      6.90324501
Pt      0.56639993      0.43164531      6.86481443
Pt      2.09419160      7.44394238      6.85394362
Pt      4.79993839      7.61050755      7.01412943
O       6.26030501      4.52203079      9.09728973
H       9.28910657      3.04950610      9.13126675
O       2.49937590      7.37482822     10.31864805
O       0.61285297      4.88935455      9.10839175
H       4.76546525      1.84889524     11.13437773
H       5.28372571      7.92392865      9.58979644
H       7.07091705      6.23540705      9.97429105
O       0.91479607     -0.20238053      9.06952033
H       1.95617730      7.98231723      9.81174247
H       5.34876368      4.75959022      9.52958358
O       8.95132199      0.02726273      9.09423599
H      11.08210226      9.37423560      9.16869815
H      11.28884926      5.66778606      9.52708629
H       1.16318219      0.66302139      9.54288105
H       1.50254198      4.95428329      9.49070282
H       5.99036855      2.13558405      9.03237682
H       0.86630141      2.64729917     10.54125995
H       9.00904007      1.00419343      9.31596928
C       7.27150895      5.14634203      9.96811095
H       2.77159832      7.80920179     11.19462024
H       9.62206139      2.67821681     10.62600980
O       9.00888201      2.48673677      9.83802871
H       3.82272405      7.33156318      9.30649409
H       8.12141672      9.28008138      9.43646097
H       8.22993880      5.03208832      9.45031135
O       4.84940772      7.21762575      9.09697494
O       3.86660661      1.98311728     11.55108499
O       1.57967298      2.23298549     10.01192417
H       2.29107969      2.02583880     10.66530853
H       9.66140331      7.36872093      9.79281399
O      10.30871903      6.90155033     10.33491842
H       3.70002125      1.13632153     12.04426932
O       6.12142702      1.81384518      9.94690943
O       3.63525890      4.81635524      9.78006708
H       3.59293886      3.83813693      9.69752915
H       7.30102448      4.64400504     10.99028049
H       6.67740813      8.32495615     13.28429221
H       6.88848644      2.38378356     10.20271784
H      10.72875589      7.63535718     10.86931723
H       6.89791574      8.57493278     10.93831473
H       6.45193828      9.93779459     10.21013469
O       6.59737598      8.94624817     10.07785359
O       7.25839084      7.92738571     12.55326822
H       3.65607596      5.05245476     10.75480356
H      10.55082841      2.51844515     12.75610464
H       7.78435171      7.26004978     12.95031222
H       8.56371421      9.40232889     12.38061547
H      10.56708891      9.62453336     11.82649531
H      10.96010846      3.90894364     12.14453568
O       0.11915621      8.94636469     11.69985139
O       9.09915385      0.58212285     12.26575419
O      10.55673229      3.03951018     11.91033639
Cl      2.96143797     -0.55530738     12.82770827
H       4.35821470     -0.12211669     17.25837330
O      11.49044094      5.33629680     12.58493723
H      11.15424232      5.86641001     11.80634263
O       3.17208210      4.43597537     12.38232213
H       3.52906551      4.47201387     13.30458338
O       7.18813730      3.26324777     12.04194221
H       1.01485628      9.11352369     12.10945883
O       3.92967307      0.70814473     17.55578520
H      12.47650081      5.25315077     12.49286700
H       6.84481586      2.62945664     12.71842457
H       8.04138915      2.84606783     11.78729874
H       9.40928674      0.71248498     13.18614085
H       5.65041770      0.39624094     14.47382037
O       6.37510386      2.17990236     14.55575440
H       3.39707324      3.43962064     12.23625329
H       5.56135824      2.62817404     14.74841127
H       3.90896847      5.58060478     17.82321431
H       3.31962373      0.95480623     16.79154436
H       9.42354959      5.55511477     13.61193720
H       4.26991469      4.41896392     15.75978609
H       7.04905605      2.40191890     15.33318044
H       8.14731954      4.75487942     13.41337522
O       5.53769631     -0.54847368     14.14939679
H       4.58180631     -0.68956927     13.86840175
O       4.03800706      3.82645817     14.98167467
O       4.71914772      5.29945981     17.30669659
O       8.48066048      5.61898392     13.75882940
H       3.44388223      3.00633988     15.15574163
H       5.42441995      8.17417994     15.71544164
Cl     -0.69975132      1.32120375     15.03780136
O      -0.61273266      7.76923623     15.16078299
O       5.38399834      8.00337240     16.71742619
H      -0.20328484      7.01102754     15.54149321
H       2.73912001      1.01182382     14.44403529
O       2.52173969      1.55399026     15.25685078
H       5.19888742      6.16565743     17.14202973
H       5.41499643      1.87096190     18.04981354
H       6.86706295      2.51668809     17.71004632
H      -0.16869782      8.05194254     14.31046638
H       1.52315485      1.62464541     15.09720627
H      -0.24272862      5.16109459     16.34965968
O       6.23734626      2.19987410     18.45906624
H       6.29013016      8.23934116     16.99568642
H       8.44027579      5.45335358     15.80013910
H       8.36475278      3.64843704     16.76760429
O       0.64805280      5.18704778     16.70187455
O       8.04923385      2.63732105     16.38206244
O       2.66876906     -3.23620542     19.16146743
H      11.75554239      5.84692683     17.39768114
O       8.77308342      5.17007002     16.66041627
H       2.86818665     -2.30742012     19.24183800
H       8.89218120      2.22901653     16.09159034
H       1.69187713      6.34960183     19.10144394
H       8.68447508     -0.39266404     18.19182889
H       0.07281450      7.88776269     18.29353293
H       2.91255911      0.33021382     19.32574794
O       7.68315226     -0.48522994     18.29096402
H       8.26929000      5.61283486     17.34767465
O      -0.00594002      6.94088129     18.63379924
O       2.94502351      0.10769371     20.31590338
H       2.38123008      0.84214413     20.59579736
H       7.44314446      0.47921299     18.42439558
O      -0.56661392      2.99524650     18.52726070
H      -0.54246482      7.04146883     19.43268252
H       0.78690015      2.59178088     19.64085202
H       3.27979325      4.85656995     20.08093811
O       7.36050061      5.36281062     18.97580061
H      10.89489133      3.53596966     17.76770302
H       1.84117121      3.26462301     20.67583820
O       1.31930058      2.44936586     20.48436148
H       7.12705722      6.19844039     19.48598821
H       5.88493037      2.75402478     19.81742405
H       4.23626953      3.79191500     20.85228354
H       6.57935878      5.05850479     18.49621816
H      10.01892132      3.39877238     19.21997572
O       3.30612246      4.28137873     20.93107146
O      -0.77374640     -0.06555204     17.88397467
O       5.65027261      3.14598683     20.72613219
H       4.07717179     -0.83965364     21.22786679
H       8.35416667      4.19179267     19.97036277
H      -0.57404260     -0.25129745     16.87855590
O       9.70978569      7.88418321     20.67708627
H      -0.69466769     10.55931961     17.96473722
H       9.93704164      8.82314320     20.55675273
O       4.80199702     -1.43747689     21.63042091
O       9.00930730      3.61818757     20.43457333
H       5.69773404      2.33038115     21.27801003
H       8.66636014     -1.83201613     20.62936883
H       6.46921764      7.90689956     20.89672970
H       0.95027399      2.11826345     22.18255441
H       9.42925893      4.30676729     21.07600538
O       7.23280054      7.74548189     20.32074681
H       4.33276078     -2.30237573     21.83545627
H       3.73399774      5.30531158     22.01625661
H       7.19426001      8.40073880     19.51087393
O       0.91649392      2.08485890     23.20557661
O      11.12657397      8.89093006     23.33032137
O       3.89997524      5.91928788     22.77931015
O       8.78485991      0.92372776     21.02089241
H      10.34198290      2.23028067     23.68739492
H       0.69797838      1.14064013     23.38966606
H       3.07858327      5.84485131     23.25804300
H      10.16414576      8.95117780     23.05497451
H       7.96882855      0.98193500     21.54601602
H       8.93972769      1.86403903     20.89644228
H       2.89352947      1.93231425     23.86718109
H      11.18727914     -1.47459425     24.01738698
H       1.16526532      4.10271828     23.67537200
O      -0.99929564      5.53188146     21.93153201
H      -0.10624583      5.43708807     22.31939866
O       1.11953495      5.06244990     23.48080162
O       3.88932382      1.99218731     24.10444010
O       9.37211925      2.06159735     23.82531679
O       8.00218328      4.65216003     23.72777399
O       5.47670836      4.32075453     24.28240407
H       7.07339322      9.62550471     24.04133521
H       5.41912711      9.32370396     22.81281145
H       8.47544952      5.11624009     24.44916122
H       5.05065911      5.08364765     23.76918389
H      10.18561523      6.41337880     21.42532917
H       8.89247703      2.93682890     23.78362143
H       4.97007676      0.79463314     23.81692594
H       8.50784280     10.21912587     24.13934828
H       4.32985724      2.86052427     23.89361084
H       0.55511657      5.47286403     24.15096163
O       7.99778659      9.38818822     24.41540680
O       5.79332578      0.35576298     23.42753107
H      -2.59238365      4.93784550     22.98404384
H       6.44768560      4.27819546     24.07075102
Pt      2.39220124      9.23471031     26.66117295
Pt      5.29517856      9.18510530     26.78383043
Pt      7.97028857      9.18385616     26.61798811
Pt     10.81315609      9.12962973     26.80209085
Pt      8.12229639      4.35827290     26.63527711
Pt      3.69236972      6.75608691     26.62198434
Pt      9.45797499      6.67966462     26.55049483
Pt      6.58039191      6.78299546     26.78594654
Pt     10.94779451      4.42620920     26.46952087
Pt      1.03898781      6.75942688     26.58043622
Pt      9.53585944      2.00238091     26.79272715
Pt      6.63706159      1.87204274     26.74318919
Pt      2.47601587      4.26536548     26.38490130
Pt      5.37047692      4.29012165     26.60999159
Pt      1.00666653      2.00682233     26.62368370
Pt      3.84838497      1.83048551     26.61874687
