   246
 Tv_1:  11.152900   0.000000   0.000000 Tv_2:   0.000000   9.658700   0.000000 Tv_3:   0.000000   0.000000  26.829700
Pt      5.51128661      7.70566993      2.13198349
Pt      6.90665409      0.50225146      1.90872358
Pt     11.01582024      7.71488764      2.12968444
Pt      8.29860807      7.69294794      2.03698450
Pt      8.27223662      2.86804552      2.03661552
Pt      2.63074389      7.74998686      2.10423925
Pt      9.60954752      5.25141499      2.10539300
Pt      6.90884113      5.35765072      2.27972067
Pt      5.54766691      2.85301118      2.00929842
Pt      4.12985617      5.30601637      2.18349093
Pt      9.61940382      0.40826000      2.12052040
Pt      1.24752925      5.28604759      1.99583114
Pt      1.40782631      0.55609240      2.06942390
Pt      2.77772663      2.97217094      2.19349172
Pt      4.20511704      0.50560731      2.15726189
Pt     11.04842047      2.87888181      1.92987122
Pt      5.88446925      6.40095382      4.51693048
Pt      8.66510300      6.50071394      4.44622241
Pt      7.19135620      8.76165392      4.39492826
Pt      7.33261897      3.95076219      4.43256695
Pt      8.51825231      1.45648139      4.45394906
Pt      5.82762799      1.53425409      4.36129167
Pt     10.00989374      3.90165656      4.24743375
Pt     10.07100750      8.80534738      4.46098272
Pt      1.69001378      8.82044502      4.37409717
Pt      0.27370350      6.36243931      4.32409147
Pt      3.12723352      1.62459820      4.47475966
Pt      3.13698772      6.35431661      4.43309930
Pt      4.48716077      8.81821882      4.43896469
Pt      4.60974541      3.92867847      4.45962767
Pt      0.36527027      1.63137912      4.54428572
Pt      1.66750832      4.06274647      4.43637608
Pt      7.64875850      2.66702501      6.80007668
Pt     10.34323414      7.54048782      6.78913942
Pt      9.18946842      5.19313348      6.75931258
Pt      8.98977716      0.31907101      6.84552982
Pt      6.26135067      0.28179894      6.69200392
Pt      3.52659611      5.13418966      6.80505489
Pt      3.44612662      0.25826656      6.83949009
Pt      7.74751241      7.55111168      6.86516920
Pt      4.80303587      2.63008063      6.85657192
Pt      2.06984602      2.73570949      6.78569942
Pt      0.64896259      5.05658638      6.83089702
Pt     10.22878452      2.69785289      6.70128219
Pt      6.31600096      5.12308419      6.87884138
Pt      0.74328258      0.16527335      6.79502382
Pt      2.02379277      7.41298214      6.68825825
Pt      4.74860610      7.58506632      6.85352070
O       6.36949434      4.76679759      9.09465693
H       9.13717609      2.93211679      9.17186600
O       2.80163068      8.16040982     10.41077540
O       0.64738154      4.96687412      9.14823731
H       4.35655525      2.35427096     10.59361624
H       5.43221481      8.26320178      9.26756394
H       7.45638190      6.46251339      9.77716630
O       0.82446762      0.09880050      9.04832026
H       2.12485166      8.78566066      9.98468734
H       5.49140843      5.22176872      9.27699023
O       9.16812031     -0.12795972      9.12065828
H      11.11652427      9.44941254      9.33497454
H      11.23113201      5.65503026      9.65373067
H       0.97351108      1.10540721      9.22554600
H       1.62001375      5.20742633      9.38725576
H       6.13317858      2.84606475      9.53955248
H       1.02108723      3.46347888      9.34304395
H       9.11329217      0.84621659      9.47991395
C       7.46515561      5.38287640      9.78690312
H       3.23062603      8.59923682     11.16920135
H       9.76779545      2.43504022     10.58809846
O       9.07693373      2.28006981      9.88211407
H       3.91724564      7.51185553      9.41865017
H       8.31898925      9.21112975      9.43104347
H       8.34271873      5.28704793      9.19088466
O       4.86388785      7.43483843      8.99559532
O       3.48128162      2.78268512     10.89118894
O       1.56348243      2.63736504      9.03527983
H       2.33995609      2.67992420      9.65578621
H      10.34488436      7.46672276     10.44006493
O      10.28807328      6.55203195     10.55690728
H       3.25769159      2.30382649     11.71234441
O       5.88394297      2.17590490     10.18905029
O       3.09890954      5.26233203      9.92884195
H       3.21398420      4.47567137     10.49686899
H       7.55721910      4.81162676     10.75436068
H       4.91943314      8.89035178     12.79302439
H       6.28619944      2.64181326     11.01535300
H      10.36102742      6.22372376     11.52176433
H       6.27432325      8.78603092     10.76028439
H       6.38820263     10.19699716      9.94059856
O       6.58033277      9.18860689      9.91194794
O       5.44669014      8.29152318     12.19142582
H       2.89888201      5.84473119     10.65534896
H      10.64209856      2.57251844     12.60066497
H       6.19113974      7.86498399     12.66879170
H       7.81073956      8.94003763     13.30536131
H       9.77212111      9.28767480     12.14375579
H      11.07289737      1.19611112     11.98653424
O      -0.51049565      9.04681801     11.76143806
O       8.34464852     -0.00593435     12.91078873
O      10.89114352      2.15837670     11.76348257
Cl      3.03013049      0.55351794     13.06017788
H       0.49729006      2.11675666     15.10016074
O      10.24729066      5.79169717     13.27998340
H      10.24378585      4.95434102     13.81705562
O       3.64223421      6.20909834     14.39146972
H       3.55506269      7.14781034     14.70638446
O       7.17634202      3.54473804     12.29053135
H       0.04442491      8.57328050     12.46255647
O       1.42289028      2.06703854     15.47964716
H      11.10584440      6.28161373     13.50594630
H       6.74012175      3.99006392     13.03475538
H       7.94435935      3.01700646     12.65781832
H       8.55953244      0.65615401     13.63978083
H       4.69809900      0.54854091     14.47132474
O       6.09919223      5.19150978     14.17183121
H       2.95762520      5.69392726     14.85117753
H       5.17149198      5.55263052     14.23953731
H       4.40606348      8.69468925     17.14295350
H       2.06803035      1.82149449     14.79250328
H       8.61161662      6.69469351     13.61474792
H       4.29871739      6.53420602     17.60921349
H       6.16360208      4.82489342     15.12960546
H       7.25827306      6.63870657     14.25389269
O       5.53633735      0.41296300     14.92686935
H       5.33051607     -0.31675999     15.55929335
O       3.77152492      5.77600463     18.04662101
O       5.11934033      8.03773767     16.89073142
O       7.94876158      7.25083358     14.05880658
H       3.08059214      5.68358718     17.29977459
H       8.76281736      8.16418648     15.63877406
Cl     -1.51335495      2.71961735     14.32205652
O       0.95153881      8.08442425     13.93113611
O       9.19762051      8.57794670     16.44104964
H       1.71738755      8.64317262     13.90609502
H       2.09055782      3.96916429     15.84824129
O       1.85611807      4.90032332     15.89422920
H       5.78205134      7.99990866     17.58995065
H       4.99055909      4.52319484     18.13250672
H       5.91314753      3.47369772     17.45483799
H       0.35748765      8.42222462     14.67890080
H       1.00294173      4.88779880     16.33046872
H      -1.26877686      4.00823868     16.22417260
O       5.48533983      3.69079849     18.22763028
H       8.65891434      9.24108332     16.84604385
H       8.66485138      7.07190449     17.45474643
H       7.57681269      3.06615347     15.45979978
O      -0.96641810      4.61628231     16.88084717
O       6.71579403      2.78332564     15.85386125
O       3.37657958     -0.02305955     17.36567669
H       9.39270804      5.19121679     17.15706443
O       8.33028222      6.19661491     17.64089217
H       3.54989777      0.91519446     17.67145913
H       6.48114580      1.88314354     15.40458951
H       2.43231063      9.45044756     17.55458432
H       8.56746156      1.22966400     18.23988608
H       0.03028746      9.02539029     17.18274891
H       4.42614032      2.50902298     18.90242483
O       7.85363728      0.76895921     17.70809274
H       8.04273209      6.21705696     18.57767254
O       0.72016569      8.87272377     17.85289910
O       3.55677167      2.00656918     18.92237436
H       2.85005273      2.64371856     19.16092718
H       7.45208160      1.44857912     17.15692268
O      -0.56721747      4.36816995     19.50502877
H       0.36067439      8.29684789     18.61249783
H       1.05131105      4.14805510     19.43542591
H       3.30979288      6.50598518     20.14185980
O       7.59123020      6.48313727     20.21979978
H      10.44205483      4.44440112     18.46152193
H       2.43313073      4.79417325     19.16104229
O       2.03787577      4.01513719     19.56832274
H       7.25737985      7.43707930     20.17417292
H       5.85393684      3.97472789     20.03197922
H       3.19116730      6.66719684     21.72508224
H       6.83951156      5.92458231     20.45036511
H      10.51984905      5.36427143     19.72846279
O       2.74438563      6.92154567     20.84450519
O      -1.24840120      1.52468356     19.36221309
O       5.46529807      4.65240007     20.67920141
H       3.64608102      0.76010858     20.14367800
H       8.89665156      5.79872995     21.35608023
H      -0.37878534      1.29711252     18.98551287
O       9.27521877      9.09268442     20.96197808
H      -1.06987446     12.03714705     19.73937888
H       9.50022093      9.87580797     20.32547888
O       4.09038974      0.02552599     20.60985147
O       9.03532348      5.48094353     22.31152792
H       5.73149724      4.15311566     21.52911014
H       8.32492983     -0.51422925     20.89968024
H       5.69301686      9.15646626     20.13633155
H       2.30087765      4.19114015     21.63214738
H       9.88876536      5.68591602     22.73227603
O       6.57784723      8.90384454     19.65127192
H       3.54911585     -0.77207111     20.46272276
H       5.06182050      6.98792408     23.77478785
H       6.81820120      9.69288108     19.17368842
O       2.23230044      4.16634397     22.61312829
O      11.06571544      9.10152494     23.26676732
O       4.14943271      6.89486050     23.43660917
O       7.37256878      0.93038383     22.29325022
H       9.28077719      3.38276528     22.85203922
H       1.82411204      3.34908825     22.89226237
H       3.72985225      6.70889124     24.29079809
H      10.46237873      8.95288168     22.54308463
H       6.43083716      1.14554682     22.32196592
H       7.86195119      1.67646876     22.76686894
H       3.98697215      2.95033824     23.16673158
H      11.57844783     -1.32646513     23.57346722
H       1.23805071      5.43026800     23.18025948
O      -0.36134431      6.99286869     20.13329088
H       0.34567529      6.93167530     20.74789418
O       0.42501860      6.05617066     23.30686929
O       4.65708425      2.30314665     23.44110260
O       9.07420642      2.64896392     23.51654881
O      12.20909935      2.09305484     23.98247877
O       6.61325224      4.67965715     23.35000513
H       7.84163225      9.59967243     23.61663644
H       4.46379718      8.76199491     23.93411327
H      12.27789010      1.16217209     23.65689527
H       6.67328143      4.75942133     24.30669101
H      10.09398702      7.68679790     20.46757054
H       8.76526321      2.96750321     24.40261339
H       4.80933996      0.63839685     23.87538238
H       9.28671718      8.94907378     23.92386626
H       5.48850936      2.88841712     23.63876612
H       0.18290973      5.87271579     24.25293145
O       8.30369545      8.88920632     24.12391150
O       5.16897432     -0.21692667     24.23980381
H       0.05068450      2.28674710     24.02231144
H       7.47585813      4.93567737     23.05202298
Pt      2.46427448      9.07080620     26.61463490
Pt      5.17486987      9.10816229     26.59014788
Pt      8.09236217      9.32313438     26.32752523
Pt     10.76838528      9.07299611     26.51745727
Pt      8.21413960      4.37101440     26.47375490
Pt      3.85041428      6.58333891     26.56728996
Pt      9.36844446      6.71786874     26.63322356
Pt      6.69249182      6.80484291     26.68095404
Pt     10.91686213      4.37765916     26.37729898
Pt      1.06012033      6.72243398     26.45859747
Pt      9.38757491      1.92231808     26.56541101
Pt      6.71970973      2.07050022     26.53021083
Pt      2.48781991      4.32129170     26.54536135
Pt      5.29045088      4.34900233     26.64483650
Pt      1.18776427      1.76819026     26.49223273
Pt      3.94040591      1.91438348     26.50543592
