   246
 Tv_1:  11.152900   0.000000   0.000000 Tv_2:   0.000000   9.658700   0.000000 Tv_3:   0.000000   0.000000  26.829700
Pt      5.52426790      7.82131852      2.23328124
Pt      7.02744406      0.51126922      2.31178818
Pt     11.18339554      7.87689222      2.32511685
Pt      8.33067213      7.77952909      2.17261675
Pt      8.24441763      2.95942239      2.26318486
Pt      2.65323977      7.77792250      2.16111094
Pt      9.71950595      5.39979111      2.27898905
Pt      6.93063158      5.33730696      2.32634555
Pt      5.56600892      2.94828667      2.28991572
Pt      4.08375814      5.38912354      2.27729834
Pt      9.76493862      0.55100599      2.42638388
Pt      1.29217065      5.35156367      2.24933868
Pt      1.30298430      0.69989441      2.25963639
Pt      2.70072176      2.93895888      2.28745658
Pt      4.19244859      0.48602875      2.29228350
Pt     11.10722641      3.03221200      2.17429735
Pt      5.85049735      6.37364304      4.61986209
Pt      8.65071226      6.29744865      4.52590560
Pt      7.23575001      8.73126599      4.58682261
Pt      7.17913784      3.91113206      4.68860126
Pt      8.57413300      1.55472401      4.53923870
Pt      5.75195199      1.55180301      4.49934297
Pt      9.93947299      3.97140954      4.57146298
Pt     10.03279450      8.75479051      4.68018121
Pt      1.73888686      8.81553959      4.46898933
Pt      0.32527161      6.34047480      4.54566468
Pt      2.91037227      1.54106896      4.50823847
Pt      3.14664296      6.41716283      4.53833042
Pt      4.47430488      8.73882670      4.63318148
Pt      4.35733389      4.01216883      4.43169114
Pt      0.19688810      1.59669554      4.62137233
Pt      1.53993701      3.98640151      4.60432577
Pt      7.66855024      2.62322969      6.88953344
Pt     10.16169710      7.34440911      6.91349767
Pt      8.84005059      4.86026259      6.99087785
Pt      8.93544809      0.20135111      7.00981977
Pt      6.19051189      0.28049662      6.86504290
Pt      3.31322093      5.06322378      6.81457116
Pt      3.31582711      0.30773234      6.80702569
Pt      7.48579724      7.44259274      6.97491061
Pt      4.67303503      2.73968583      6.86376168
Pt      1.98252978      2.67405404      7.00161353
Pt      0.54610760      4.92012048      6.98687861
Pt     10.33794298      2.60792528      7.02839238
Pt      6.09212378      5.04915132      6.94760629
Pt      0.58290285      0.23012062      6.96813061
Pt      1.67675792      7.35188441      6.74280229
Pt      4.49702570      7.62323933      7.01825413
O       5.71792254      4.79376943      9.28287030
H      10.94943299      3.24478175      9.90063862
O       1.95769866      7.59573329     10.21540943
O       0.08779928      4.96706133      9.16972730
H       5.12267207      1.46505689     10.33863346
H       4.95027382      7.67568979      9.66508714
H       7.21226523      6.06360298      9.91001285
O       0.97243791      0.21431702      9.14992712
H       1.58683998      8.25948231      9.57562590
H       5.20542228      5.63426344      9.33889230
O       8.83303735      0.40898936      9.30073022
H      11.32609697      9.70609216      9.79781449
H      10.44096856      5.61888283      9.67547426
H       1.37320959      1.10330246      9.34634141
H       0.83272404      5.14166064      9.82356917
H       6.17871723      2.57062775      9.45904100
H       2.33865380      2.86728260     10.02113752
H       9.46282870      1.15166014      9.46133649
C       6.92366507      5.05550015     10.14426396
H       1.92513258      7.94826411     11.13855700
H      11.07707906      2.13469348     11.06295275
O      10.48340037      2.41534854     10.35562832
H       3.34426583      7.30321047      9.53752122
H       8.02340595     10.60922284      9.67462196
H       7.73357487      4.35915341      9.80732637
O       4.23722440      7.15390531      9.13899322
O       4.34249712      0.93481426     10.62838939
O       2.45168163      2.18153132      9.36228820
H       3.21230754      1.73265579      9.84315331
H       9.75161312      7.27112918     10.43301859
O       9.52299407      6.34423291     10.35480036
H       4.07430698      1.16452421     11.60880413
O       6.61309755      2.00661664     10.13117330
O       1.98549257      4.55248841     10.83452925
H       2.60458424      5.29180113     10.82485026
H       6.61037208      4.79912198     11.14218074
H       3.50160157      6.93118284     13.37980131
H       6.79181279      2.56302238     10.92478669
H       9.47424695      5.92871753     11.26301540
H       5.07624239      7.61365711     11.83887098
H       4.94775818      9.07567396     11.06531883
O       5.52843665      8.30999805     11.20875631
O       3.95236845      6.45286886     12.63420220
H       1.30926218      4.64747438     11.60598951
H      12.24342672      0.80846117     12.71702980
H       4.21273536      5.60402310     12.97156438
H       7.18267982      8.74355240     11.79388670
H       9.49016497      8.95622124     11.39903921
H      11.63619678      1.83625650     13.65068778
O      -0.71108673      8.77283729     11.06630484
O       8.04223800     -0.62503444     12.30602463
O      12.01194419      1.74843723     12.77976285
Cl      1.82543283     -1.29657513     13.36095417
H       4.39226241      0.41549390     13.66947471
O       9.11918973      5.15001357     12.72738319
H       8.83838739      5.74475828     13.41419216
O       0.59815745      5.31793061     13.06959088
H       1.02160856      6.22638702     13.18684302
O       7.36135775      3.06277607     12.40922940
H      -0.21539343      8.62626076     11.93313931
O       3.97103061      1.24776940     13.36944055
H      10.12202528      5.11563978     12.94480241
H       7.88762957      2.26782590     12.45948674
H       8.10450518      3.75240825     12.33486484
H       8.10605023     -1.45323673     12.86808459
H       4.80204889     -1.23454040     15.42696361
O       4.92730127      4.20104845     14.11250990
H       0.79935505      4.91141280     13.93901113
H       4.62474927      3.32750342     13.83147743
H       3.36044609      7.79134075     17.35512972
H       3.01485413      1.07360829     13.62106996
H       7.95597035      3.80916222     15.05798071
H       3.84020932      5.79450289     16.54938641
H       4.29343753      4.39931522     14.85877528
H       6.55864214      4.32525771     15.05912778
O       5.27424321     -0.64507446     14.80012924
H       5.98603373     -1.29217125     14.58787911
O       3.59568627      4.88472822     16.19026096
O       4.12466237      7.22320368     16.91225843
O       7.40520492      4.57867733     15.44056227
H       2.61672061      4.75999046     16.15341140
H       7.60481946      6.16855522     14.85855674
Cl     -1.50484866      2.27411149     15.18074035
O      -0.81912517      8.12677415     15.27449547
O       7.79631261      7.01266995     14.37032542
H      -0.02075659      8.39694760     14.77950374
H       0.31901668      3.55881332     15.69969715
O       0.94561073      4.32087125     15.61945321
H       4.82300038      7.34323916     17.59788890
H       4.60213650      3.66555037     17.01610915
H       5.71499587      2.63838840     17.31985432
H      -0.94928049      8.87398723     15.88173505
H       0.71642578      4.97536013     16.35414513
H      -0.19149847      6.89870708     16.52552499
O       5.02893191      3.16963760     17.76216097
H       8.62579106      7.38674572     14.77872290
H       8.53630093      4.54254449     17.11202287
H       7.63854278      1.70591080     15.75572631
O      -0.01955608      6.14934734     17.16342394
O       6.76229610      1.37887424     16.11173651
O       2.12104177     -0.78961197     17.69838808
H      10.27444497      5.67534291     17.50535426
O       8.92452130      4.84662731     17.95184656
H       2.54724470     -0.09443941     18.18804150
H       6.31149406      0.81144752     15.41538760
H       1.56075825      8.32554140     18.40222619
H       8.69902990      0.12111118     17.94115277
H       0.55191019      6.60053140     18.67698737
H       3.91523815      1.97761546     18.53568402
O       7.74221973      0.18886107     18.14313801
H       8.13813908      5.11178525     18.58810624
O       1.18328266      6.95432815     19.40561093
O       3.27269280      1.44348100     19.09217814
H       2.68760965      2.15645802     19.43071151
H       7.37003432      0.52586816     17.23508684
O      -0.68242003      3.87395292     19.66007743
H       0.65876777      6.94298983     20.23812651
H       1.10190436      3.68472185     20.14920427
H       2.90753392      6.53268700     20.13262266
O       7.17337732      5.75972108     19.68270655
H       9.92210078      4.08251270     18.84425211
H       2.25134249      4.54635850     20.73024554
O       1.92816543      3.62402083     20.70415815
H       6.89458194      6.72363447     19.51447199
H       4.99006400      3.87468920     19.47820581
H       3.13383407      6.66070153     21.68790874
H       6.36092254      5.23469839     20.13895183
H      10.01432027      4.46213671     20.33788643
O       3.47785000      6.22202960     20.89704543
O      -0.46886538      0.23410360     17.16793077
O       5.18486388      4.12476177     20.43585577
H       4.32212931      0.82260482     20.29025944
H       8.33674911      5.81039801     20.93110985
H       0.51451388      0.10234037     17.35313211
O       8.87831045     11.67597959     21.04433168
H      -0.58510121     10.79384238     16.72257002
H       9.46616076     12.32108462     20.54526323
O       4.90645711      0.28589557     20.85868188
O       9.07236015      5.38749424     21.43995971
H       4.52502506      4.80162394     20.68952647
H       9.16759877      1.12056729     20.68956319
H       5.45954602      8.73261240     19.40115144
H       1.91045622      3.04720478     22.49632649
H       9.70635054      6.10925179     21.69756153
O       6.01923120      8.11929824     18.80580326
H       4.34729576     -0.17027074     21.52886631
H       5.10065655      6.88141177     23.95792979
H       6.74106140      8.68324869     18.35627034
O       1.86767916      2.76872242     23.42139436
O      10.29624629      9.18293159     23.81054712
O       4.13902172      6.75740559     24.37388426
O       6.26473477      1.55703085     23.05232108
H       8.62029583      4.18082090     23.20183669
H       0.91692495      2.54917015     23.54170763
H       3.88941683      5.87964355     24.13943469
H      10.48907103     10.16688591     23.90865583
H       5.85482878      1.47817272     22.20325162
H       6.83892321      2.37285316     23.15349182
H       3.38244664      2.52196606     24.29804869
H      10.78047623     -0.81367325     24.62383547
H       1.67448938      4.77743978     23.61189514
O      -0.01183838      7.05836018     21.90464999
H       0.70260660      6.64365428     22.49362597
O       1.73557849      5.73157491     23.49345151
O       3.97664329      1.80852851     24.60099093
O       7.96909621      3.69708781     23.69313011
O      10.40704986      2.12993313     23.56383090
O       6.37964427      7.15916985     23.39309356
H       7.39303684     10.05604595     23.97858438
H       3.19678578      8.80525338     23.65304568
H       9.77102772      2.35777985     22.86103050
H       6.91608368      6.63563466     22.79512961
H      10.89153971      7.77004498     22.56960438
H       7.70513962      4.20965311     24.51338970
H       2.33584860      0.13143959     22.90669703
H       8.76501246      9.05673151     24.03870609
H       4.84981864      1.85666717     24.12992180
H       1.76342901      6.16149500     24.42899797
O       7.73577650      9.17780549     24.38581678
O       2.82317669     -0.73705581     22.75289942
H      -1.14680423      2.61074784     24.27919914
H       6.92286643      7.94323435     23.65013400
Pt      2.63419139      9.37587153     26.78339485
Pt      5.51910524      9.29403094     26.74846422
Pt      8.33377667      9.11060124     26.77540120
Pt     11.05169109      9.21000744     26.87697604
Pt      8.17325666      4.38158512     26.76056517
Pt      4.01416316      6.91199412     26.70329741
Pt      9.62132065      6.66291535     26.72585265
Pt      6.81175341      6.77725346     26.79731719
Pt     10.98011902      4.36154422     26.57641089
Pt      1.08842272      6.81115369     26.72411967
Pt      9.50810300      1.96880716     26.93011522
Pt      6.74835593      2.02975822     26.87437426
Pt      2.62139501      4.43390196     26.91627855
Pt      5.34152897      4.54320450     26.83758746
Pt      1.04755169      1.98873957     26.64114028
Pt      4.05081921      2.08578991     26.75364730
