   246
 Tv_1:  11.152900   0.000000   0.000000 Tv_2:   0.000000   9.658700   0.000000 Tv_3:   0.000000   0.000000  26.829700
Pt      5.41512834      7.87018462      2.08577611
Pt      6.87514489      0.47330228      2.21352651
Pt     11.05188382      7.72004221      2.10211491
Pt      8.25751721      7.76454296      2.18283728
Pt      8.34045639      3.01412143      2.16565550
Pt      2.63907108      7.81785933      2.19760946
Pt      9.69598218      5.28226502      2.08222377
Pt      6.90780887      5.46760344      2.11086287
Pt      5.65856790      3.01017740      2.20199930
Pt      4.08971706      5.38111144      2.09897938
Pt      9.71568341      0.45136733      2.22065701
Pt      1.35487570      5.28475439      2.13765883
Pt      1.31995128      0.49604329      2.28717955
Pt      2.73240281      2.90639613      2.18651302
Pt      4.18782618      0.62377093      2.18440051
Pt     11.13268353      2.90237770      2.20814285
Pt      5.59275312      6.46659556      4.38569111
Pt      8.49247972      6.33962389      4.35180645
Pt      7.19537226      8.83301232      4.43378999
Pt      7.09807680      4.04434734      4.46395620
Pt      8.48419822      1.51843974      4.48281460
Pt      5.66836844      1.61156676      4.45515074
Pt      9.96783338      3.90409496      4.45941013
Pt      9.89854770      8.75338889      4.46518329
Pt      1.47533792      8.88290454      4.58699723
Pt      0.18245422      6.31141625      4.30355958
Pt      2.95684793      1.60433907      4.59129899
Pt      2.92829234      6.50225727      4.40951369
Pt      4.38779839      8.86732839      4.50635257
Pt      4.36682356      4.05459471      4.36121980
Pt      0.12654493      1.54019401      4.54095539
Pt      1.58355597      4.02247898      4.47605965
Pt      7.39874976      2.56003202      6.75672018
Pt     10.08692356      7.41322993      6.75141053
Pt      8.72814892      4.99144872      6.79942178
Pt      8.70451818      0.12823129      6.89339966
Pt      5.98586221      0.29789926      6.94346646
Pt      3.14626007      5.08790453      6.67319110
Pt      3.11125295      0.15362688      6.83295420
Pt      7.25035656      7.41526125      6.71663206
Pt      4.56733254      2.60881515      6.77690739
Pt      1.78254263      2.65689985      6.82959416
Pt      0.48208023      5.12607212      6.91518729
Pt     10.17486907      2.63634206      6.74629762
Pt      5.97429704      5.04447504      6.66391278
Pt      0.39907523      0.20351815      6.83797304
Pt      1.74070925      7.44253015      6.74766896
Pt      4.63763612      7.46217522      6.78440817
O       5.99423499      5.01376246      9.26002273
H       8.97647419      2.59314897     10.62353075
O       2.56270791      6.55624321     10.24966017
O       0.57917691      4.98968394      9.22737713
H       4.68657755      1.96975334     10.15305368
H       5.15452991      7.98345587      9.42253023
H       7.64467395      6.40543824      9.58340222
O       0.82578772      0.07606560      8.97247411
H       2.02016591      7.25277847     10.57348820
H       5.42264523      5.79693907      9.30495460
O       8.66476802     -0.28743327      9.18449481
H      11.43438124      9.19237777      9.68268784
H      10.97014384      5.24187777      9.86580508
H       1.00966803      1.08263944      9.20552332
H       1.41903028      5.50429075      9.54913915
H       6.49687535      2.77905168      9.19525474
H       1.08013256      3.39499084      9.29708353
H       8.94667711      0.68094348      9.54155204
C       7.30672259      5.35486035      9.73026539
H       2.70102642      6.06667693     11.11146769
H      10.38834264      2.01656531     10.74051599
O       9.60149803      1.96481053     10.17720321
H       3.76896722      6.88082591      9.42313850
H       7.70666309      9.20318985      9.43187084
H       8.00242272      4.71062200      9.23239314
O       4.64071997      7.19234785      8.95649698
O       3.70070870      1.87920557     10.33034351
O       1.43842415      2.41173733      9.09659928
H       2.39200580      2.29378855      9.48979038
H      10.27563695      6.69782674     10.82689559
O      10.00936339      5.73498273     10.74778947
H       3.58301646      1.11925334     10.94253054
O       6.28347037      2.24093849      9.96075708
O       2.69984535      4.76210979     12.38557525
H       2.16407570      4.07080249     12.01371240
H       7.43225105      5.25970483     10.82327721
H       5.57488888      8.70151281     13.32199191
H       6.65230748      2.69204463     10.75849517
H       9.97790222      5.42479548     11.66908308
H       6.14576454      8.66554657     11.18528419
H       5.80885646      9.85308763     10.07952553
O       6.06871454      8.90812211     10.16486098
O       6.23485641      8.31920609     12.66828541
H       2.02961167      5.20285314     12.97222331
H      12.39479653      1.56475661     11.87244711
H       6.48172731      7.51085606     13.20354702
H       7.82916510      9.41432919     12.36816929
H      10.06404476      8.89613314     11.50178489
H      11.48857311      2.54793499     12.65757564
O      -0.28582769      8.44327409     11.06705270
O       8.61895164      0.32550500     12.27573056
O      12.00472558      2.46354742     11.83399845
Cl      2.27226667     -0.14301341     12.26766823
H       2.59156827      2.18868755     15.58752454
O       9.80679221      5.37608422     13.41915388
H      10.03242598      4.45323073     13.59414146
O       1.10127264      6.14854150     14.10078645
H       1.38014596      7.06097901     14.19172812
O       7.63980474      3.02170620     12.13883034
H       0.45227379      8.84276563     11.61884279
O       3.59192922      2.23032236     15.61084770
H      10.68433138      5.83341191     13.79857029
H       6.96801930      3.35869559     12.83004985
H       7.80970073      2.07605513     12.29134557
H       9.00449156      0.24816185     13.26865609
H       3.41522254     -0.37479385     13.89615994
O       5.34682263      4.06686987     13.51140919
H       1.39861120      5.68697527     14.97544121
H       4.47903461      4.48204549     13.19340512
H       4.10009555      6.80345190     17.55790629
H       3.87898391      1.37092221     15.27514456
H       7.87544765      5.85647738     13.69623199
H       4.40240570      4.90406548     16.33357806
H       5.23157208      3.82209257     14.42136330
H       6.45792104      5.41784323     13.99494365
O       4.15582709     -0.39633427     14.57229252
H       3.99015102     -1.23895170     15.06847990
O       4.99907263      4.10972233     16.23386452
O       4.49180097      7.19452877     16.70303470
O       7.09045843      6.21843814     14.19137749
H       4.37279304      3.37489595     16.09242222
H       9.15496344      9.14339435     15.34384254
Cl     -0.27498834      2.82264263     14.85643127
O       1.36817185      8.57793962     15.68760043
O       9.50763976      9.78081109     14.70175396
H       1.03302166      9.51669360     15.35670748
H       0.99371302      4.03762034     15.86690334
O       1.50352903      4.83577175     16.19860972
H       5.36086420      7.48360055     17.03560041
H       5.82035319      3.54066491     17.72665513
H       6.82514253      2.45565338     18.33107851
H       1.80073629      8.86547321     16.55143440
H       0.85519268      5.36270643     16.73361394
H       0.34332614      7.41405090     16.74888469
O       6.04479954      3.01147334     18.52499523
H      10.02369218     10.59308148     15.05450510
H       8.10587723      6.95749894     15.77825507
H       7.43210817      3.80647675     15.55662321
O       0.11148126      6.65315069     17.32383556
O       7.68845137      2.88564035     15.22247948
O       1.94126518     -0.21460245     18.36806722
H      10.31187368      6.77827629     17.28199496
O       8.54441145      7.60798111     16.33785924
H       2.79553563      0.26777339     18.61737128
H       8.57512574      3.08226343     14.91122863
H       1.73471220      8.72384453     18.97552912
H       9.12596495      1.35002895     18.12480130
H       0.48528974      6.97684395     19.09743390
H       4.69248702      1.93908648     19.09740094
O       8.17533096      1.51760254     17.85350045
H       7.91111198      7.77601604     17.08292557
O       1.07647394      7.23456800     19.78551391
O       3.92504551      1.46754694     19.51964160
H       3.26157617      2.19995416     19.72018061
H       8.23977133      1.81563498     16.95330711
O      -0.60138685      4.08895067     20.00437669
H       0.71140865      6.89077334     20.65082738
H       1.07878378      3.86281783     20.04762287
H       2.74684307      6.53912961     19.34900868
O       8.94867553      6.29431640     19.33342540
H      10.17847992      4.93442402     19.58308348
H       2.58530271      4.34389341     19.82821309
O       2.02945479      3.58280402     20.12222094
H       9.30992305      6.80877796     20.03970691
H       6.59674074      4.14292632     19.69133307
H       4.24788483      6.37699000     19.93621671
H       8.14615481      5.85482874     19.70593804
H      10.03046242      3.97567961     20.79872138
O       3.66676519      6.14528587     19.18433725
O      -0.25906408      1.62798317     19.14436778
O       6.90005214      4.94353723     20.21002922
H       5.08863379      0.36746190     20.63883614
H       7.99808361      4.39883305     21.71067404
H       0.50957676      1.22083515     18.76319169
O      10.34788136     11.01308199     21.80319200
H      -0.12714303     12.23305520     19.22394443
H      10.62907776     10.92223881     20.85847145
O       5.97866470      0.04737095     20.74375849
O       8.52101066      4.17305218     22.49241114
H       6.21981577      5.32766307     20.73151966
H       9.39163383      1.58875416     21.99283351
H       6.53423377      8.57204928     18.64459931
H       2.21994053      4.00798553     21.97575656
H       8.44619318      5.06310403     22.95988321
O       6.74395101      8.85415840     17.74973881
H       5.80695013     -0.80717160     21.19092810
H       6.05398160      6.70645352     22.37278959
H       7.27807290      9.70611684     17.79503454
O       2.18521492      4.57906897     22.77403966
O      11.29861394      8.65351238     23.24714137
O       5.51010210      6.96790312     21.52815987
O       7.65468087      0.86535338     22.60079485
H       6.72812101      3.41645618     23.37939135
H       1.87099125      4.02662746     23.53360240
H       4.59561611      6.88933649     22.01089356
H      11.11457652      9.42491409     22.55903769
H       6.93989173      0.59287317     21.84896867
H       7.16118630      1.61375575     23.02125774
H       2.50527975      1.68225618     24.02418826
H      11.54384618     -0.58214004     24.11266761
H       3.03545543      5.96042872     23.04859556
O      -0.18863817      6.47871707     22.07659418
H       0.26583637      5.63337086     22.39879190
O       3.49207783      6.87917139     23.20028093
O       3.43403646      1.52691939     23.75620436
O       5.82550852      2.96767981     23.45292691
O      11.72679296      2.38380722     23.79350010
O       7.10595132      6.52535109     23.52604079
H       8.01301247      9.55511695     23.58533867
H       4.62530752      8.23477971     24.00010728
H      11.39112934      1.98700035     22.95212843
H       7.46540603      7.40423077     23.69963494
H      11.13764124      7.21112431     22.74335942
H       5.79374675      2.71937705     24.43128232
H       4.46268086      0.15870149     23.92951747
H       9.26701426      8.54870219     23.97848591
H       3.67712184      2.18056543     23.01395587
H       2.71176855      7.48644389     23.13738849
O       8.36027924      8.78008504     24.24259905
O       5.05936100     -0.57956727     24.17482117
H      -0.20681437      2.82374214     24.19888079
H       6.60216932      6.17920238     24.31692566
Pt      2.53947320      9.02039443     26.62420705
Pt      5.36163357      9.04376226     26.62097757
Pt      8.21193418      9.14709232     26.64997381
Pt     10.93084440      9.04212630     26.64758118
Pt      8.11952389      4.15709213     26.50974935
Pt      3.95006325      6.60675913     26.56235770
Pt      9.41265040      6.57770004     26.65495963
Pt      6.66585710      6.61414137     26.61464817
Pt     11.04042274      4.04155560     26.45408198
Pt      1.22871498      6.56656411     26.59572502
Pt      9.57028975      1.85288403     26.74850668
Pt      6.76224971      1.75125165     26.62066027
Pt      2.64146651      4.22847961     26.64844203
Pt      5.28042893      4.21212096     26.63500897
Pt      1.26628061      1.68515779     26.63729734
Pt      4.00392516      1.88408408     26.45737654
