   246
 Tv_1:  11.152900   0.000000   0.000000 Tv_2:   0.000000   9.658700   0.000000 Tv_3:   0.000000   0.000000  26.829700
Pt      5.65917116      7.75202845      2.18217532
Pt      7.15891312      0.42492155      2.14692990
Pt     11.29153375      7.70602545      2.15621189
Pt      8.52351845      7.74172993      2.13915129
Pt      8.49260014      2.84375931      2.08850067
Pt      2.93859236      7.77826836      2.10783955
Pt      9.90355395      5.29924390      2.10084748
Pt      7.16109797      5.29995043      2.21976543
Pt      5.74635414      2.95693231      2.05709628
Pt      4.43832014      5.32116613      2.14236146
Pt      9.93098441      0.46938642      2.24589507
Pt      1.53026967      5.34678437      2.16653199
Pt      1.55663475      0.47293912      2.21264443
Pt      2.84625983      2.90963731      2.07579425
Pt      4.37830232      0.51408203      2.06604672
Pt     11.30948163      2.88755022      2.07365743
Pt      6.06703105      6.36279923      4.46443190
Pt      8.96965156      6.23874767      4.43529150
Pt      7.66903426      8.71357304      4.47053778
Pt      7.62158194      3.93507570      4.38966300
Pt      9.01015245      1.56856714      4.42489802
Pt      6.10587780      1.56365470      4.41917800
Pt     10.31627753      3.83214930      4.39617683
Pt     10.23266237      8.70505848      4.54626938
Pt      1.91673928      8.81570684      4.53656872
Pt      0.53896167      6.24160620      4.41728491
Pt      3.39210670      1.54680642      4.33948933
Pt      3.28482150      6.32958443      4.34323972
Pt      4.74409126      8.80201961      4.46129280
Pt      4.77013283      3.88836380      4.49330856
Pt      0.53725265      1.43731026      4.42323204
Pt      1.94341377      3.78709102      4.41195931
Pt      7.84618660      2.50071017      6.78537945
Pt     10.61591219      7.25561500      6.80758927
Pt      9.23703692      4.88201448      6.88011396
Pt      9.05606756      0.10262066      6.94423967
Pt      6.41773183      0.13521981      6.82581026
Pt      3.66082197      5.07468463      6.66141445
Pt      3.59479566      0.14180480      6.76480293
Pt      7.96570562      7.29114933      6.69728618
Pt      4.86154457      2.49372067      6.69551472
Pt      2.19829266      2.47559945      6.86503101
Pt      0.79350229      4.89912833      6.83030968
Pt     10.53447239      2.46584016      6.77510005
Pt      6.47799369      4.98785460      6.68012648
Pt      0.90928242     -0.10664524      6.95768408
Pt      2.19415918      7.28766536      6.84163074
Pt      4.97121877      7.41351110      6.83521671
O       6.45730516      5.08737597      9.06693597
H       9.83422728      3.08591513      9.46540415
O       2.84653980      7.59301851     10.21937276
O       1.16336196      4.93537205     10.26768951
H       4.87944733      2.08939979     10.64581753
H       5.73644776      8.01477840      9.35538941
H       7.75134787      6.72041822      9.05917788
O       0.88342450     -0.08053174      9.27978329
H       2.10586687      8.19634635      9.86423928
H       5.78273758      5.81792183      9.27101739
O       9.19816274      0.08577346      9.21612899
H      11.01977616      9.49516517      9.39609468
H      11.58974513      5.66611589     10.03852362
H       1.11375700      0.92750103      9.33100540
H       2.01519900      5.43741595     10.33088827
H       6.65929851      2.29740221      8.91942308
H       1.57586343      3.47835944      9.40325625
H       9.37019481      1.00725825      9.59043717
C       7.64696128      5.64621644      9.41568635
H       2.94517405      7.71602757     11.18337162
H       9.75043904      3.01175080     11.01321489
O       9.43079149      2.51065811     10.19900382
H       4.13423051      7.58345868      9.37708114
H       8.30443527      9.37925432      9.59489212
H       8.59097907      5.00640330      9.09040228
O       5.08682103      7.34657176      9.05777733
O       4.06727940      2.51672439     10.86191649
O       1.91506484      2.55619695      9.10535995
H       2.86193001      2.38988173      9.41899553
H      10.38990935      6.96315709      9.09210995
O      10.37530170      6.61015505      9.99250323
H       3.52719597      1.89523607     11.42939233
O       6.69245197      1.97282113      9.82208413
O       4.90348024      5.28894404     11.86832631
H       4.29538112      4.52631154     11.72678364
H       7.87207422      5.58739151     10.73176449
H       5.81699397      8.59171971     13.19843772
H       7.53194838      2.21173002     10.31874567
H      10.43793262      7.37533733     10.62801747
H       6.87882800      8.88537718     11.02542187
H       6.68598130      9.97887146      9.90850251
O       6.89772551      8.99523625     10.04603558
O       6.65620703      8.39168730     12.66984831
H       4.26826599      5.93050027     12.29197043
H      10.77391690      3.38363981     12.89296867
H       7.13320039      8.05198659     13.43251095
H       7.97192871      9.62092953     12.63528058
H       9.82469879      9.24776653     12.21886965
H      11.22922970      4.20804651     11.55086375
O      -0.63036661      8.50486028     12.01336010
O       8.55435384      0.72738450     12.59018046
O      10.43767401      3.90038945     12.06998652
Cl      2.26644754      0.75265748     12.67149285
H       1.04904564      2.07774205     13.82667962
O      10.22869434      7.20266038     14.67850726
H      10.26955524      7.52649560     13.73906866
O       2.87628390      6.83367789     12.86363148
H       3.25404985      7.54800172     13.45331278
O       8.43068371      5.61113791     11.94567887
H       0.30665782      8.90600298     12.03993393
O       0.52899440      2.90279938     14.14476801
H      10.58453938      7.96794146     15.22321119
H       7.92762215      5.19439299     12.73312715
H       9.37038703      5.21920398     11.95805556
H       8.48278447      1.18416606     13.46695395
H       3.76225205     -0.13435746     13.81177143
O       6.64279203      4.59205220     13.58262785
H       2.05633818      6.52504548     13.27413630
H       5.90908046      4.78624426     12.84649810
H       3.41861526      8.21838371     17.55313757
H      -0.36145491      2.68743110     14.66394907
H       8.44589109      6.76084250     14.97475461
H       4.13664219      6.44046312     16.48816074
H       6.44761415      3.82936661     14.17076661
H       7.05244828      6.01630794     14.70323849
O       4.34885315     -0.89824692     14.13317910
H       4.26955442     -0.93049377     15.12983918
O       3.56912320      5.64709262     16.36268982
O       4.11060575      8.16653250     16.83881124
O       7.47591089      6.82295603     15.12058337
H       2.79538954      5.97540653     15.81168903
H       9.52027746      9.10552032     17.56919369
Cl     -2.18662617      2.38586599     15.60870181
O       0.58418267      9.24853245     15.85398035
O       8.97105462      9.85618129     17.87961250
H       1.31698546      9.60094596     15.24557203
H       1.29847560      4.88695537     14.64646141
O       1.39883006      5.82283449     14.71423863
H       4.81602276      8.78733513     17.13190359
H       2.20641552      2.47388214     15.48662228
H       3.42383574      3.39596517     15.88537924
H       1.07755786      8.69117760     16.54272024
H       0.46942715      6.16603004     14.63048863
H      -1.78734744      3.97775211     16.93706028
O       2.98310067      2.52438598     16.03793664
H       9.12455507     10.64599013     17.26481293
H       7.00855047      6.61681073     16.85420207
H       6.14621174      4.41926004     17.13893160
O      -1.53258579      4.66208512     17.59364521
O       6.13311804      3.42600272     16.93311995
O       2.19239328     -1.10246036     18.83954921
H       8.82425015      5.19647812     17.77462036
O       6.87270996      6.13323901     17.69746157
H       2.05245573     -0.11612515     18.86084272
H       7.08237098      3.16652500     17.03531414
H       1.37143307      7.99887256     18.73657666
H       5.49634067      2.72656852     18.49383917
H      -0.40188004      6.64421002     18.16467910
H       2.54082554      1.98551988     17.87214070
O       5.15984020      2.42362261     19.37934858
H       6.51717081      6.84881765     18.33276400
O      -0.42094833      7.53301631     18.54386728
O       2.58983756      1.55538468     18.75434966
H       1.91915914      1.82423824     19.49645419
H       4.24623669      2.07340968     19.25539842
O      -1.36179341      3.90508073     20.26761294
H      -0.78734579      7.46999190     19.45149435
H       0.30556312      3.73246010     20.46273689
H       2.95348274      7.56470016     20.10028701
O       6.19954751      7.70733431     19.96815926
H       9.66691956      4.09692986     19.24738244
H       1.86606157      4.05609890     19.91272611
O       1.27870130      3.48028700     20.45423002
H       6.23362658      8.64875637     20.29168372
H       3.31037179      5.11859527     17.94376968
H       3.49330828      6.11414867     19.96887883
H       5.30881915      7.39681930     20.28138966
H       9.46773646      4.81811839     20.56335327
O       3.52991571      6.92622022     20.52534852
O      -1.23764114      0.90826780     20.52739910
O       3.27901838      4.73274194     18.87123334
H       6.02106081      1.11134150     20.34670406
H       7.76317740      6.70434216     20.64771052
H      -1.56372504      0.60109870     19.71851826
O       9.11675780     10.84368300     23.02091426
H      -1.11845396     11.52092279     20.52907017
H       8.91952586     10.84529962     22.00567126
O       6.57216999      0.68950795     21.05630961
O       8.48025426      6.37630931     21.22175616
H       4.00363394      4.08489369     18.92950000
H       8.87110351      2.11980775     23.35153986
H       6.13848538     10.62008855     16.79558097
H       1.85596980      3.08127126     21.89534139
H       9.18631140      7.02417666     21.18591819
O       6.04333155      9.75000800     17.33430177
H       5.97356886      0.50624521     21.82840842
H       3.86003083      7.08528534     22.11010427
H       6.98954882      9.58609411     17.55410066
O       1.92463979      2.62731768     22.77328916
O      11.60740772     10.23764645     23.41100663
O       3.91228355      7.11026701     23.10123576
O       9.07939838      3.85312302     23.72186087
H       7.49708161      6.16942118     22.75655634
H       1.16947859      1.90869256     22.79641635
H       2.99409271      6.74194800     23.35110337
H      10.64189318     10.50066460     23.25768423
H       9.14576871      3.78543485     24.73213928
H       8.33351661      4.50673898     23.50134490
H       3.29513566      2.00022720     22.96672354
H      11.92915034      0.70959224     24.30968523
H       0.74671086      6.20454147     23.96384224
O      -0.69747676      8.04204734     21.30844669
H      -0.18077375      7.78439889     22.15436780
O       1.03581947      7.06457071     23.51417741
O       4.34298309      1.80441877     23.20031887
O       7.31543429      5.81435143     23.64643277
O      11.58205436      4.45208906     24.26873538
O       4.97008892      4.52428914     24.18525598
H       7.03054281      9.24012084     23.96188679
H       4.76062995      8.36907053     23.90878036
H      12.29125885      3.83653642     23.91630300
H       4.30636355      5.30697564     24.11975383
H      10.44167420      9.01666253     21.08740801
H       7.66258602      6.38631013     24.37131653
H       4.80202769      0.38973330     23.82993367
H       8.60639030      9.76720870     23.82681620
H       4.52947589      2.70858055     23.52347134
H       0.85598992      7.76707520     24.15617112
O       7.96687003      9.01535867     24.26232673
O       5.23559592     -0.47945817     24.29724866
H      -0.43830584      4.20351853     23.85170893
H       5.78615446      5.00844183     23.89920708
Pt      2.61863145      9.07436658     26.57619282
Pt      5.34262270      9.09711242     26.53073401
Pt      8.15613628      9.06257196     26.50502184
Pt     10.99659303      9.15128199     26.56087775
Pt      8.26550482      4.25566371     26.68715189
Pt      4.02635730      6.73819146     26.60077986
Pt      9.57344175      6.62672030     26.58845270
Pt      6.73355131      6.69199428     26.72442293
Pt     11.01879461      4.28356861     26.57121234
Pt      1.22374443      6.76374189     26.70413199
Pt      9.51282564      1.65195844     26.66484374
Pt      6.74975454      1.83872422     26.66504697
Pt      2.69095551      4.30281290     26.64167889
Pt      5.38690902      4.23198168     26.53500994
Pt      1.26889532      1.82471793     26.52989100
Pt      4.06440076      1.86604563     26.58956562
