   246
 Tv_1:  11.152900   0.000000   0.000000 Tv_2:   0.000000   9.658700   0.000000 Tv_3:   0.000000   0.000000  26.829700
Pt      6.09578121      7.67527126      2.19955117
Pt      7.64311273      0.35705508      2.30786067
Pt     11.53666170      7.69682105      2.06876551
Pt      8.86672324      7.62182181      2.40730401
Pt      8.87124128      2.88832303      2.18578050
Pt      3.22203341      7.64568186      2.15316559
Pt     10.00522251      5.25831222      2.02580071
Pt      7.36427900      5.14029372      2.28754714
Pt      6.00664405      2.69094683      2.01485575
Pt      4.56195322      5.18192173      2.18989773
Pt     10.27921901      0.49826121      2.14157600
Pt      1.74362464      5.27932642      2.16256739
Pt      1.74310352      0.37638460      2.05393319
Pt      3.32273005      2.82872302      2.10910675
Pt      4.60611045      0.32516400      2.24014414
Pt     11.63633115      2.99965998      2.18283822
Pt      5.70337363      6.27942919      4.41140391
Pt      8.35070185      6.22737868      4.58184279
Pt      7.09587681      8.67184243      4.62374166
Pt      7.05975243      3.77517204      4.53267093
Pt      8.61650603      1.49321149      4.58069265
Pt      5.68831222      1.43532401      4.50937668
Pt      9.83795413      4.03439137      4.54596281
Pt     10.04172618      8.86150334      4.41031236
Pt      1.61261531      8.65773927      4.31185686
Pt      0.00119882      6.33605377      4.38728713
Pt      3.01831896      1.44850197      4.39246228
Pt      2.96477369      6.31397260      4.43461183
Pt      4.41849851      8.59497803      4.64143035
Pt      4.24560315      3.85795876      4.47621357
Pt      0.27198675      1.51186865      4.45574519
Pt      1.43386682      3.91790591      4.42099329
Pt      6.99533645      2.52026070      6.83559367
Pt      9.63435333      7.30581399      6.74470456
Pt      8.27112145      4.86821428      7.10295376
Pt      8.39388285      0.04427673      6.93854531
Pt      5.70724406      0.03889169      6.94882966
Pt      2.73157743      4.94922994      6.82126126
Pt      2.67946611      0.13370328      6.75525747
Pt      6.94511770      7.19274667      6.85077419
Pt      4.07701626      2.42182638      6.88523534
Pt      1.43090212      2.48215452      6.79494651
Pt     -0.02167864      4.94867076      6.96823600
Pt      9.95418159      2.55759494      6.71490303
Pt      5.46056712      4.89180759      6.74557963
Pt     -0.05244275      0.06193928      6.87383639
Pt      1.43617754      7.39565507      6.68552220
Pt      4.17856417      7.39686112      7.04252255
O       6.52106782      4.91556831      9.46598074
H       9.93098945      2.36767069     10.10439097
O       1.87857855      7.25313396     10.01815383
O       0.16193859      5.48160144      9.25466840
H       3.13090052      4.30614443      9.26657899
H       5.09109408      7.76565943      9.59012252
H       8.41082170      5.94267115      9.46842293
O       1.90044034      0.29275433      9.86149391
H       1.88409613      8.28767009     10.03937303
H       5.99043793      5.68138433      9.17149864
O       8.56591451     -0.15407313      9.14736563
H      13.54464606     10.51830540      9.15671400
H      10.69442608      6.19790667      9.55459943
H       1.93804402      0.73765264     10.76566270
H       0.94679352      6.03254405      9.29774392
H       5.65403981      2.53863424      9.53448678
H       0.21820058      3.47541906      9.09103360
H       8.83760967      0.69311609      9.61082754
C       7.88052598      5.05294723      9.18399287
H       2.08344058      6.84947903     10.98600726
H       8.84686317      2.11957685     11.41858633
O       8.96298890      2.18039966     10.43736364
H       3.55484217      6.97869969      9.60115220
H       7.62696837      9.27776161      9.46561301
H       8.39211040      4.13662033      9.45543862
O       4.49400600      6.99525518      9.25804649
O       3.06736300      3.87234757     10.12568658
O       0.34624455      2.78849122      9.83263905
H       0.62614207      2.11398632      9.16951330
H       9.24102118      7.97597881      9.38676260
O       9.53870456      7.30685169     10.03799224
H       2.15395090      3.41325912     10.17935768
O       4.90871962      1.93256423      9.66146423
O       4.70319840      5.10331666     11.98558701
H       3.97870695      4.68919115     11.42730552
H       8.13353899      5.06840234     10.80365469
H       5.48742402      8.84816491     12.97478925
H       4.09349605      2.44108139      9.78164941
H       9.89628494      7.86279712     10.77392053
H       6.14337497      8.94638526     11.06767300
H       5.67470912      9.89459152      9.93964553
O       6.11748333      8.99159218     10.05971560
O       6.42278902      8.99685133     12.55691265
H       4.15336407      5.85721187     12.42833223
H      11.03410555      3.36062635     12.96765808
H       7.01010932      8.26353743     12.92573169
H       7.51556552     10.33997683     12.77525016
H       9.69169817      9.61296788     12.50690562
H      11.47312460      4.07546775     11.61452136
O      -0.62079679      8.99461108     12.12177498
O       8.43208603      1.12817603     12.96918815
O      10.90714530      4.14368725     12.40982735
Cl      1.55271414      1.01489343     13.11051944
H       0.77000782      2.55462892     15.03996435
O      10.10991174      7.94146213     14.58882846
H      10.38978435      8.09969406     13.64913046
O       2.71188152      6.81043013     12.60739026
H       3.14719816      7.68049266     12.83246606
O       8.26132154      5.10052660     11.83464661
H       0.28327846      9.32196090     12.29932870
O       0.02373845      3.18239513     15.15809406
H       9.83932751      8.73681002     15.00271798
H       7.25792912      4.10519675     12.69935061
H       9.16018650      4.73040291     12.10727633
H       8.45814584      1.28369089     13.92921045
H       3.44464941      0.19250738     13.35425763
O       6.42966178      3.57596824     12.99048146
H       2.14408462      6.58536990     13.44698528
H       5.59460765      4.24671770     12.64701141
H       3.49769458      9.17493262     16.68465552
H      -0.71775578      2.58239892     15.30591882
H       8.61318558      7.22927063     14.05261184
H       3.81218902      7.00772568     16.36364453
H       6.49915066      3.45895878     14.03436774
H       7.99766367      6.30447238     12.87880515
O       3.96676811     -0.67232234     13.57024783
H       4.25739423     -0.75831840     14.52807369
O       3.58459314      6.03748393     16.40232622
O       4.30484324      8.54555797     16.49845495
O       7.77530595      6.96247399     13.63331474
H       2.88583997      5.75611616     15.84944840
H      10.38616712      9.43896121     18.38321051
Cl     -2.61290945      1.07979895     15.88182162
O       2.14513416     10.40765323     16.85783280
O       9.85956198     10.23356543     18.57444508
H       2.26527456     10.80727254     17.74130469
H       0.65760464      5.17252441     14.18686786
O       1.28569521      5.84073922     14.56199552
H       5.05030199      8.78684170     17.14227150
H       4.35774680      4.88152521     17.09427377
H       5.24886744      3.60952404     16.67532812
H       1.33245172      9.79606468     16.93662435
H       0.65425867      6.48927922     15.02654383
H      -0.15997762      4.49456000     16.50936562
O       4.85897064      4.08158163     17.48437607
H       9.41177354     10.55933821     17.80343219
H       7.68354258      6.10098268     15.51642071
H       7.07551255      4.12722316     15.66588029
O      -0.43036545      5.11155487     17.22830672
O       6.64977193      3.21251121     15.45949117
O       2.64819018     -0.93633648     20.08000909
H       9.75851192      5.21752512     17.00863724
O       7.77811139      5.45886014     16.25900099
H       2.68768726     -0.01048581     19.75020352
H       7.36942475      2.59399519     15.67757557
H       1.78794537      8.67439029     20.59997592
H       6.74440680      2.20337942     20.43550948
H       0.42746453      7.09360518     17.93989988
H       3.74847937      2.79732397     18.43586196
O       7.06548394      3.05215949     20.81731615
H       7.64833442      5.87111592     17.12551260
O       0.54779093      8.08148126     18.00943051
O       3.21553912      2.19367055     19.05005473
H       2.76781263      2.81015068     19.70759831
H       8.07574975      2.88744942     20.78227333
O      -0.30890054      4.12577304     19.83963296
H       1.35413380      8.13571502     18.58449720
H       1.29012800      4.08606847     20.52644527
H       3.49136003      7.16235133     20.26191310
O       8.00587297      6.88483558     18.51873383
H      10.80037861      4.36235023     18.88707763
H       2.77287980      4.53548725     20.99926623
O       2.10911262      3.80481057     20.94763289
H       7.59591065      7.79898675     18.40454752
H       5.74470996      4.58705736     18.72335364
H       4.62318428      6.02154384     20.11261438
H       7.27812657      6.34862300     18.91534087
H      10.37908112      4.99974900     20.19003718
O       3.69944502      6.22956026     20.52064826
O      -1.57695289      2.00409377     20.81867995
O       6.10881824      5.17332118     19.48468986
H       5.21006902      0.33607403     20.74972368
H       8.94695491      6.60014603     19.81751617
H      -1.37301346      1.38240764     20.05318095
O       8.93078030     11.18455039     23.40274546
H      -1.15251189     12.54933478     20.60193651
H       8.99364278     11.23569996     22.38193256
O       5.36920893      0.97969828     20.06730856
O       9.53372723      6.24496798     20.55723145
H       6.47259980      4.46120488     20.10657830
H       8.37354893      0.67620250     23.55054727
H       6.16010826     10.02983472     18.54378249
H       2.07038928      2.82967291     22.42728648
H      10.11876063      6.98211314     20.79880477
O       6.52883409      9.41711067     17.86816086
H       4.50477559      1.43573534     19.88819922
H       4.16800829      6.43043058     22.25665540
H       7.05384462     10.03792420     17.29427370
O       2.09323994      2.18348801     23.24109842
O      11.34591047      9.94169014     23.23290477
O       4.42152957      6.57705762     23.24348328
O       9.09095536      3.93080997     24.18828877
H       8.37505787      5.78837641     21.91001431
H       1.42553007      1.42417751     23.01952522
H       3.52139328      6.46503925     23.70727132
H      10.62005888     10.59663381     23.15670322
H       8.66873792      4.70455853     23.62031409
H       8.75037227      2.98223418     24.00871695
H       3.59585275      2.03662643     24.04855730
H      11.18601291      0.02680281     24.16785252
H       1.14214454      5.68363801     23.70005803
O       0.33794643      7.87979410     21.39496205
H       0.78562167      7.42732719     22.20711369
O       1.50438564      6.61292546     23.46009154
O       4.52542285      1.81866988     24.25075273
O       7.85288156      5.42931965     22.73844605
O      11.62454717      4.15971974     24.24217323
O       5.17875575      3.68359082     22.64078232
H       6.93153966      8.86578653     23.46201995
H       4.90671426      8.48688034     23.09951229
H      12.17702842      3.32133404     24.03515293
H       5.35350813      4.54822968     23.04191296
H      11.33411486      8.69792456     21.88994131
H       7.69704104      6.26371004     23.30382040
H       5.22958647      0.22765574     23.61516178
H       7.95653058      8.51532688     24.62645457
H       4.97006726      2.63291328     23.65601941
H       1.34807135      7.06004887     24.32204744
O       7.93309342      8.80522860     23.65886878
O       5.43941718     -0.36132648     22.87811701
H      -0.52396118      3.85077400     24.15049683
H       5.92837849      3.51715351     21.98904749
Pt      3.43751712      9.14238276     26.62167678
Pt      6.40395646      9.18707660     26.70363702
Pt      9.03536945      9.08266702     26.66923961
Pt     11.87850049      9.14610941     26.54407243
Pt      8.93887935      4.19599951     26.40811049
Pt      4.80610090      6.77387495     26.66351848
Pt     10.48453656      6.86247694     26.65329525
Pt      7.56949903      6.70973370     26.75675245
Pt     11.81419509      4.33276543     26.49700103
Pt      2.13156309      6.68621464     26.62557080
Pt     10.55290655      1.90968011     26.65612486
Pt      7.73583061      1.80301796     26.60564321
Pt      3.31349952      4.33274719     26.63004604
Pt      6.16658718      4.34014333     26.81079204
Pt      2.15745532      1.87392767     26.64345089
Pt      4.92003412      1.87409738     26.46097949
