   246
 Tv_1:  11.152900   0.000000   0.000000 Tv_2:   0.000000   9.658700   0.000000 Tv_3:   0.000000   0.000000  26.829700
Pt      6.01335405      7.66450688      2.18037102
Pt      7.57775348      0.30630926      2.11077740
Pt      0.44867793      7.58080682      2.23094200
Pt      8.86274521      7.57581670      2.20543228
Pt      8.90154284      2.70371733      2.09063096
Pt      3.20747859      7.62229435      2.13323668
Pt     10.11965874      5.12537973      2.13598537
Pt      7.45501524      5.21227664      2.28162668
Pt      6.25885777      2.87489506      2.03980259
Pt      4.72158733      5.31921842      2.29520913
Pt     10.33948566      0.27273405      2.12703075
Pt      1.68324883      5.18324257      2.00149483
Pt      1.82404418      0.28242468      2.22942651
Pt      3.28035038      2.74005012      2.25102876
Pt      4.75456527      0.48569991      2.10764411
Pt      0.56136385      2.69727711      2.14182000
Pt      5.66046546      6.18775280      4.49673081
Pt      8.46661370      6.02329711      4.52896034
Pt      7.12441723      8.56259655      4.57731932
Pt      7.06186363      3.61960092      4.55330818
Pt      8.46885364      1.30099579      4.44722864
Pt      5.64277090      1.34809179      4.49434280
Pt      9.84417831      3.79698361      4.42747386
Pt      9.95842919      8.52570836      4.48227381
Pt      1.40643554      8.56023211      4.55377686
Pt      0.20168465      6.15413934      4.57176527
Pt      2.86771745      1.36149890      4.50060242
Pt      2.92126122      6.18407045      4.36514921
Pt      4.34652993      8.63195327      4.40958205
Pt      4.36043418      3.73397281      4.49856040
Pt      0.09949075      1.42927784      4.48621596
Pt      1.52011545      3.84449200      4.33333755
Pt      6.83262633      2.35128991      6.87449767
Pt      9.85320383      6.96462189      6.92869903
Pt      8.27545719      4.73343720      7.04677294
Pt      8.31440981     -0.15479408      6.88228942
Pt      5.45408469     -0.14926866      6.80885320
Pt      2.71754021      4.75064254      6.68201471
Pt      2.74790023     -0.13436099      6.82265507
Pt      6.92064685      7.15726321      6.85968054
Pt      3.99388451      2.28809609      6.93900234
Pt      1.21272416      2.34897729      6.85662032
Pt     -0.02609773      4.72994602      6.78913214
Pt      9.69232507      2.37013112      6.67767950
Pt      5.43785136      4.80036978      6.92661740
Pt     11.09354663      9.53005795      6.62963353
Pt      1.49372267      7.13583828      6.89186182
Pt      4.15196581      7.17414394      6.81382832
O       6.95797329      4.66904673      9.54581207
H      11.07813448      1.86811937      9.90893860
O       3.01333143      6.63063216     10.17659961
O       0.83110085      5.01460666      9.90357352
H       4.23502223      2.32959848     10.37992569
H       6.00758656      7.57402852     10.02524319
H       8.47549312      6.01124296      9.23711100
O       2.87530128      9.22712549      9.96552327
H       2.88039427      7.58030895      9.88391765
H       6.29122115      5.69718582      9.64413317
O       8.67529589      9.39840428      8.97957560
H       2.80172227     -0.10097351      9.03021163
H      11.29876254      5.76827042      9.91885392
H       3.66804908      0.08980535     10.19465285
H       1.64742964      5.60324563      9.85817600
H       5.66429953      1.81768854      8.92360888
H       1.12336926      3.72113156      9.32620364
H       9.37466976      0.26286877      9.56623402
C       8.18115816      4.94269229      9.13334262
H       2.89573425      6.46446500     11.16978030
H       9.52604988      2.06997531     10.33208757
O      10.25455541      1.37555338     10.23791005
H       4.74593200      6.57282691      9.76319776
H       7.85276941      9.26313289      9.60083080
H       9.01277820      4.39218850      9.48417953
O       5.66547868      6.77058591      9.53672515
O       3.46213411      2.80149089     10.71507002
O       1.31651576      2.73529548      9.06037872
H       2.16149551      2.63474550      9.58783200
H       9.99799441      7.79295505      9.61079547
O      10.56602107      7.32104117     10.34135656
H       3.11302778      2.41999214     11.52957733
O       5.65668890      1.57338427      9.92273146
O       4.81670774      4.75186204     12.40139010
H       4.40597566      4.05948911     11.84218438
H       7.62972849      3.53233282     10.44171611
H       5.54803712      8.71300020     13.62274204
H       6.52604049      1.91365367     10.22184027
H      11.08645344      7.98082322     10.88155389
H       6.49291717      8.81388483     11.73609063
H       6.03213449      0.04514013     10.43868351
O       6.47755698      8.87758771     10.67732989
O       6.49972079      8.66502479     13.23812064
H       4.00453577      5.25794118     12.71105595
H      -1.39311598      4.72535050     12.47299910
H       7.05124726      7.97061889     13.75509566
H       7.04079505      0.69494819     13.24413824
H      11.04180783      9.75452451     11.37357044
H       9.64883213      6.19562915     11.75569832
O       0.44454690      9.19429736     12.02187374
O       7.29264786      1.66839493     13.21618817
O       9.19750158      5.47242728     12.27333996
Cl      2.16956604      1.61904236     13.16203710
H       0.53310581      3.26056577     13.12668988
O      10.53798614      8.45660746     14.06355937
H      -0.26692574      8.82765023     13.19350979
O       2.85266329      6.55424651     13.18499645
H       3.14932131      7.46891578     13.40322525
O       8.08309114      2.60160315     10.81717689
H       1.12209036      9.83750697     12.40890868
O      -0.31562415      3.76901365     13.39057453
H      -0.87866912      9.12722565     14.66087271
H       6.27250509      2.71373392     13.80162410
H       8.02454621      2.50763586     11.79102987
H       7.91123136      1.81952310     14.00277823
H       3.58736308      9.80076014     13.63460252
O       5.56717635      3.30831629     14.31700364
H       1.93105120      6.41391165     13.55772345
H       5.13388131      3.90435368     13.56065711
H       2.96581576      9.17561634     17.01241064
H      -0.73829336      3.10584316     13.98934452
H       8.94769833      7.83092404     14.13109333
H       3.01757562      7.01665542     16.76080738
H       5.98064004      3.57505393     15.21832801
H       8.36286724      6.49379484     13.52132164
O       3.97656290      8.92829630     13.95444932
H       3.96521606      8.96566626     14.97004350
O       2.59610167      6.12011786     16.72777328
O       3.60756432      8.57826175     16.58349685
O       8.23809206      7.15245535     14.25802120
H       2.39735525      6.05486056     15.80037553
H       9.35049328      9.07217666     18.27278855
Cl      9.28902494      1.79605572     15.39512121
O       1.88500442      9.78064287     18.22572117
O       8.69401998      0.08690892     18.04116484
H       0.96565161      9.51896229     18.11655250
H       0.12344496      5.40434133     13.99809704
O       0.59860094      6.11676396     14.53321921
H       4.42086428      8.68115149     17.10026803
H       3.39800405      4.74153385     17.26572466
H       4.58805678      3.63364924     17.03383177
H       1.94734340      1.06680796     18.56269758
H       0.13903767      7.01084153     14.38579626
H      11.38784654      5.65713347     16.79679582
O       3.85178155      3.92919084     17.64697288
H       8.98319204      0.50405360     17.18039670
H       8.16159755      6.49606437     15.93932450
H       7.12309198      4.37756581     16.51380010
O      10.71117825      5.86714148     17.45836971
O       6.60105352      3.58826094     16.61060300
O       2.34059155      8.90837731     20.88576168
H       9.83025456      5.76137263     17.06836426
O       8.27784124      5.86442918     16.73406476
H       2.09615222      9.32738947     20.01923144
H       7.33428974      2.86232863     16.57476123
H       1.64771446      9.18369412     21.46472903
H       5.85249430      2.28865546     20.97696101
H      10.56530722      7.31031533     18.15482613
H       3.29113944      2.77628385     18.64741002
O       6.36104367      3.17170089     21.00832148
H       7.79318885      6.17847498     17.58303468
O      10.58406932      8.22304340     18.53851704
O       2.95150376      2.14442482     19.35223592
H       2.62259940      2.76163566     20.09763678
H       7.25383399      2.87760443     20.66456189
O      10.25127114      4.11390282     19.60607267
H      -0.27959143      8.08084940     19.48525942
H       0.88644765      4.00478625     20.75568599
H       2.63064958      7.13622810     20.90186953
O       6.81647748      6.94747138     18.78364325
H      10.46257608      4.39924143     18.68476055
H       2.21216912      4.81716944     21.12183479
O       1.80229811      3.86372020     21.10798003
H       6.46038927      7.85462259     18.80023133
H       4.65369706      4.61693896     19.00030880
H       3.86059265      6.04412709     20.41072441
H       6.11215977      6.41515063     19.15762881
H       9.75859737      4.95266994     19.96741135
O       2.98005063      6.19293689     20.92502032
O       8.82352347      1.83708432     20.28289902
O       5.16629879      5.08318831     19.69438898
H       4.80994179      0.17433361     21.16749133
H       8.04967012      6.51291597     19.92127393
H       8.63788378      1.23142653     19.49103384
O       9.21780973      0.76760682     22.96511422
H       9.38239326      2.58418329     19.99713414
H       8.92221991      1.00665281     22.09724787
O       5.00420056      0.80252234     20.48798792
O       8.76301874      6.15746760     20.50073754
H       5.63656871      4.33270673     20.19150883
H       8.66734401      0.01046490     23.29352653
H       5.59728910     10.02884253     18.63358111
H       1.95226582      2.66010438     22.22792028
H       9.36830279      6.83669583     20.96824535
O       5.88386933      9.45813889     17.93581546
H       4.16683907      1.10527281     20.04841941
H       3.56432139      6.42549405     22.56348854
H       6.91033279      9.46501108     17.86534784
O       2.18910107      2.25307118     23.12952557
O       0.61297268      0.09499656     23.33663434
O       3.81787306      6.57288092     23.54615274
O       9.22885458      3.50387583     23.93942603
H       8.08775817      5.67401749     21.88348314
H       1.60717263      1.37248112     23.24204447
H       3.06553983      6.72408245     24.02933907
H      10.83764053      0.43454213     23.20486795
H       8.73740822      4.19139897     23.30008484
H       9.19216482      2.58716257     23.51202395
H       3.60562308      2.09733607     24.01236540
H       0.60987570     -0.26403119     24.27902945
H       1.11708660      5.53778445     23.74201565
O      10.68854920      7.57525534     21.41564491
H       0.12234905      7.00827644     22.01550903
O       0.87990296      6.51261805     23.55308970
O       4.53756154      1.95842712     24.46566220
O       7.75722109      5.41356761     22.82773674
O       0.79347045      3.85241332     24.42589044
O       5.69739370      4.42065930     24.14963186
H       6.98933077      8.55245218     23.36269016
H       4.63011750      8.27734941     23.40624331
H       1.37769282      3.03448825     24.01730376
H       5.06112407      5.19164141     24.03285116
H      10.68006951      8.39039428     21.88338331
H       7.92176606      6.25281307     23.36442134
H       4.91519396      9.76345254     23.67401907
H       8.00227297      8.23681176     24.45505971
H       5.14730719      2.73234817     24.25564022
H       0.27449983      6.60293462     24.29083833
O       7.88642258      8.26130719     23.47175735
O       5.15496984      9.02428306     23.04867159
H      11.03452174      3.76114059     23.97970518
H       6.55509173      4.67934820     23.61202282
Pt      3.57932796      9.15318379     26.65747408
Pt      6.34506756      9.10229944     26.48150949
Pt      8.92712671      9.10673082     26.53724551
Pt      0.64606010      9.11580048     26.67233927
Pt      9.02060920      4.28970693     26.44690657
Pt      4.89689864      6.75182449     26.64789486
Pt     10.46457659      6.69456329     26.68571344
Pt      7.75166293      6.67967092     26.62648921
Pt      0.83661274      4.31689022     26.51726192
Pt      2.00659329      6.80217276     26.63560129
Pt     10.40307758      1.89846229     -0.07888536
Pt      7.67262331      1.98336514     26.58047969
Pt      3.64930561      4.28343325     26.88374566
Pt      6.33770688      4.39096496     26.70468442
Pt      2.03074252      1.93753475     26.73280491
Pt      4.76100499      1.86217599     26.61551659
