   246
 Tv_1:  11.152900   0.000000   0.000000 Tv_2:   0.000000   9.658700   0.000000 Tv_3:   0.000000   0.000000  26.829700
Pt      6.05305007      7.62009188      2.17436699
Pt      7.50011166      0.49557645      2.33223964
Pt     11.65820120      7.60396713      2.17829413
Pt      8.92195670      7.73079390      2.15556188
Pt      8.97293009      2.78785682      2.40250362
Pt      3.34054450      7.67531739      2.29886440
Pt     10.18978792      5.21158346      2.34014515
Pt      7.48143121      5.18114475      2.06649798
Pt      5.92347850      2.82506191      2.16905718
Pt      4.66104960      5.25545811      2.20767848
Pt     10.26227568      0.47679715      2.26677894
Pt      1.84599176      5.17612227      2.45243701
Pt      1.84211914      0.32583329      2.25957886
Pt      3.22452673      2.73317497      2.22006194
Pt      4.66213808      0.39564337      2.16978839
Pt     11.71779345      2.81559246      2.39156577
Pt      5.68814731      6.22455595      4.54193747
Pt      8.47518759      6.32019474      4.47361062
Pt      7.16494866      8.68952852      4.49345692
Pt      7.26003841      3.82708114      4.46349348
Pt      8.47778588      1.47503946      4.84807757
Pt      5.69933726      1.36958280      4.60907406
Pt      9.95234785      3.91238795      4.80463525
Pt      9.82175813      8.71734760      4.45419615
Pt      1.60193401      8.67621740      4.56485630
Pt      0.27103429      6.29492445      4.62006374
Pt      2.97462044      1.38527680      4.61643131
Pt      3.04439519      6.29427719      4.71670458
Pt      4.44478699      8.64045401      4.57029448
Pt      4.36612473      3.85533447      4.37552831
Pt      0.12841410      1.42613451      4.55915567
Pt      1.50391399      3.67256494      4.78869214
Pt      6.95345501      2.39072891      6.95244933
Pt      9.88050933      7.30627782      6.75984199
Pt      8.16494295      4.86455826      7.13273741
Pt      8.37627750      0.03036163      7.06709168
Pt      5.55178554     -0.05308274      7.03358681
Pt      2.88868036      4.83349824      6.95519034
Pt      2.87997157      0.05944874      6.81525452
Pt      7.02117125      7.27399037      6.73947077
Pt      4.23635876      2.45131738      6.85672067
Pt      1.35161528      2.51892753      7.18261390
Pt     -0.02150014      4.90363468      7.12023085
Pt      9.89643622      2.41793239      7.12398448
Pt      5.51492908      4.75534187      6.77177532
Pt      0.10484165     -0.04276336      6.76922508
Pt      1.49563044      7.13214795      6.94437664
Pt      4.18853944      7.25344346      7.13056884
O       6.67444951      5.31477596      9.56308900
H       8.89348234      2.19036345      9.16440415
O       2.36661574      6.80018682     10.58807941
O       0.09297122      5.52009038      9.68212389
H       2.97567806      2.14045464     11.32788374
H       4.98382474      7.86936652      9.60698817
H       8.33580610      6.41114898      9.11085064
O       1.24193044     -0.72898850      9.90895417
H       2.04088415      7.71419065     10.65472463
H       5.98894883      5.98313306      9.32656038
O       8.14321138     -0.33572858      9.75215572
H      11.48229036      9.04131573     10.27510124
H      10.49303025      6.12071879     10.12858004
H       1.23084473     -1.15006001      9.00208123
H       0.92369018      6.02225970      9.85178492
H       4.04235911      1.83947014      9.14961420
H       0.83259099      2.58281962      9.91351981
H       8.54940305      0.57000836     10.02482770
C       7.97075881      5.38393438      9.12730951
H       2.50564208      6.40120187     11.49771159
H       9.75046917      2.47907376     10.50942528
O       8.87900695      2.02526843     10.17062414
H       3.79037661      6.79454803      9.78487521
H       7.19115166      9.42645423      9.79658664
H       8.49567696      4.62384304      9.67245715
O       4.61058247      6.87926604      9.21705593
O       2.52336880      2.20878540     12.24066584
O       1.54275721      2.05401240      9.32195989
H       1.43265585      1.08797221      9.59264802
H       8.84579834      7.56492941     10.73400852
O       9.55674594      7.22257859     11.29828949
H       2.28877158      1.28044058     12.53185660
O       4.16702158      1.82866856     10.12497224
O       3.96372705      3.48139122     13.78202361
H       3.17187252      2.80948680     12.93113379
H       6.43019265      4.06246832     10.21536172
H       5.51645839      7.69152014     13.45862524
H       4.89720867      2.50253644     10.29328052
H      10.00498488      8.05503243     11.52154257
H       5.47153952      8.61923115     11.39390478
H       4.78184132      9.75601328     10.42113060
O       5.36789289      8.91949632     10.42648070
O       6.12298283      7.92403165     12.74462739
H       4.08639924      4.32584829     13.25178915
H      11.38713441      3.32573890     12.07840897
H       6.50286076      7.03994457     12.55344372
H       7.32133356      9.62258209     13.04081055
H       9.73646115     10.13017851     12.12354954
H      11.20068267      4.17108942     10.79573812
O      -0.52891611      9.84864959     11.78257810
O       7.97063006      0.72418422     13.14671144
O      10.95620155      3.23387260     11.13913741
Cl      1.87944720     -0.07313037     13.80766474
H       1.20370659      1.63506553     15.33178159
O       9.76201521      5.90214325     13.81304605
H       9.66228772      6.46689214     13.01248859
O       2.99525209      5.82203823     12.93417908
H       3.41791302      6.45202897     13.64337659
O       6.35179982      3.11616644     10.77644555
H       0.09425168      9.82875755     12.55240172
O       0.52840495      2.32381767     15.60516461
H      10.26295480      6.61955171     14.31581256
H       6.67891973      1.86415960     13.94557080
H       7.29551122      2.84581809     10.66101852
H       8.32709686      0.41038443     14.05393402
H       3.24846276     -1.41962627     14.49905486
O       6.20379782      2.56697872     14.42615729
H       2.26344173      5.39419417     13.43956954
H       4.95852510      3.08024749     14.00190521
H       3.65465666      7.17595827     17.86076043
H      -0.32173587      1.82869481     15.70595167
H       7.21406312      5.13721951     13.40185172
H       3.61442531      5.13814531     16.48730554
H       6.30819687      2.38495858     15.42377602
H       6.96042812      4.60784016     11.99842778
O       4.07302886     -2.02464592     14.56886176
H       4.25235876     -2.19979565     15.53128782
O       3.13175068      4.29386225     16.25089898
O       4.38736350      6.87296184     17.23959867
O       6.63419225      5.23131239     12.65505673
H       3.28594918      3.99682457     15.30777786
H       9.74097190      7.88756061     19.06078771
Cl     -1.96277810      0.39141495     16.14654079
O      -0.14455653      7.65070405     15.42014438
O       8.87044084      8.46781585     18.90815153
H       0.47621764      8.22568803     14.93040582
H       0.49545266      3.39303700     14.32412244
O       0.57388232      4.12967629     13.55100141
H       5.28975446      7.00437101     17.74392243
H       3.74869617      3.04798774     17.00673612
H       4.95839705      2.12724851     17.32820514
H      -0.79172298      8.33572613     15.73081966
H      -0.15319836      4.76375698     13.65532054
H       1.45088696      4.39697519     17.26639857
O       4.10671054      2.36291041     17.64940669
H       9.07555668      8.98755294     18.06018152
H       8.90324237      4.99160999     16.16461634
H       7.46149510      3.06444874     17.02122191
O       0.55706010      4.46007510     17.57145535
O       6.85758149      2.22340809     17.03707858
O       2.44537222     -1.50866235     18.80482828
H      11.21650343      4.27456630     16.78958113
O       8.62044246      4.49847627     16.95111481
H       2.44134269     -0.93501517     19.64358212
H       7.41963321      1.43347361     16.88797420
H       1.49332649      7.76572198     18.74629225
H       6.32753444      1.06812825     21.20790565
H       0.14548297      6.25321603     18.34092674
H       3.27529869      1.31645557     18.98547922
O       6.91233880      1.91816293     21.33574305
H       8.42528262      5.14934803     17.62408811
O      -0.06270769      6.96237505     18.92409073
O       2.94128391      0.93815773     19.84370362
H       2.74219100      1.78369862     20.32406719
H       7.82678758      1.67440619     20.97312567
O      -0.48127060      2.96300645     19.98594370
H       0.16301587      6.63875766     19.91336781
H       1.14990839      3.09923137     21.30139422
H       3.35374168      6.37573716     20.02599094
O       7.47467095      5.53180438     19.44216132
H      11.02294586      3.29871125     19.07948097
H       2.25236982      4.16904347     21.07417584
O       2.11089174      3.27091077     21.43043970
H       6.84961813      6.33581423     19.43031160
H       4.80781625      3.30040573     18.84165947
H       4.23043420      5.17226818     20.25030873
H       6.80914022      4.74940864     19.46348575
H       9.99366090      3.66077614     20.23703557
O       3.45924532      5.69437713     20.68962293
O      -1.76196786      0.90079759     20.83994304
O       5.17413109      3.84918113     19.64770879
H       5.10240776     -0.59471622     21.93300029
H       8.55185062      5.13454874     20.65556660
H      -2.11669282      0.25267967     20.21934607
O      11.03421970      8.92016042     22.09861046
H      -1.16892769     11.20423953     20.35708158
H      10.50188427      9.45609477     21.44781374
O       5.29778005     -0.25252596     21.02827200
O       9.12052577      4.85351146     21.43249028
H       5.57576893      3.09443311     20.17149435
H      10.65401200     -0.46989431     23.00304302
H       5.89496716      8.38617031     19.74338110
H       1.11895811      2.22744483     24.25667837
H       9.91874959      5.46462166     21.49895901
O       6.29940860      7.78484877     19.06779027
H       4.40964590      0.18618674     20.82337161
H       3.78561495      5.99122254     22.49889332
H       7.27702955      8.03462199     18.97140630
O       1.85975964      1.61853269     24.52712557
O      16.08434080      8.68709657     23.75403159
O       4.04087127      5.98239958     23.48535184
O       8.02686263      1.87709166     23.58475857
H       8.53742524      5.11153622     22.72352982
H       1.54992088      0.67084553     24.73962876
H       3.16142779      5.56749165     23.80599160
H      15.58585448      7.80523729     23.91173077
H       7.52455049      1.96104964     22.67359619
H       7.50837877      2.11835668     24.37068595
H       3.64734811      1.80943751     24.17543919
H      15.79464223     -0.27977178     24.40025626
H       0.49914556      5.05075195     23.79304628
O      -0.01529328      6.52700609     21.55184764
H       0.70727869      6.20903406     22.11472355
O       1.28887237      5.66459255     23.82518884
O       4.65050635      1.74353642     24.29391278
O       8.00323675      5.32220667     23.66338213
O      10.54207674      3.06836111     23.80805156
O       5.97883583      4.10255537     24.23825592
H       8.64143293      8.61657811     24.01974569
H       7.44098236      6.90395899     23.31126786
H      10.21134006      3.16331953     24.74592699
H       5.27292878      4.70370133     23.89395359
H      11.04316819      7.53012761     21.83085326
H       8.68885244      5.26097100     24.34573384
H       6.47487606     -1.51431321     23.42651874
H       8.88161146     10.11855123     23.92646727
H       5.10315501      2.55647345     24.09885966
H       1.15588535      6.20238322     24.65007763
O       9.31391366      9.27985027     24.35149008
O       7.37687096     -1.78598898     23.14010063
H      -1.49001432      2.63030161     23.47029642
H       6.96051519      4.53578595     23.90379777
Pt      3.38020424      8.99074143     26.77604423
Pt      6.31165188      9.05266345     26.76219540
Pt      9.22631708      9.10607434     26.60560417
Pt     11.94918917      9.06280000     26.76338372
Pt      8.98728726      4.17068234     26.66789189
Pt      4.95817704      6.69638495     26.74172968
Pt     10.31435881      6.61890851     26.68320240
Pt      7.67143307      6.61959447     26.62392479
Pt     11.83270972      4.34731842     26.90669734
Pt      2.05771603      6.70288765     26.87436966
Pt     10.44588968      1.85614539     26.92627532
Pt      7.77064810      1.82006994     26.84675221
Pt      3.36851848      4.31313000     26.86772243
Pt      6.30448178      4.17795281     26.52956531
Pt      2.15797594      1.95177381     26.77567576
Pt      4.89140823      1.84976715     26.62623752
