   246
 Tv_1:  11.152900   0.000000   0.000000 Tv_2:   0.000000   9.658700   0.000000 Tv_3:   0.000000   0.000000  26.829700
Pt      6.01886823      7.75313118      2.37251958
Pt      7.38671539      0.48105062      2.47709239
Pt     11.68736729      7.62029475      2.22122641
Pt      8.74736848      7.74807931      2.12634185
Pt      8.82306182      2.90209183      2.27943770
Pt      3.18010605      7.51816411      2.32882506
Pt     10.20266760      5.23947601      2.23473971
Pt      7.33510607      5.36461465      2.38569183
Pt      5.93949425      2.89873563      2.28830861
Pt      4.71985694      5.25068716      2.25003616
Pt     10.17874703      0.37506411      2.30756202
Pt      1.77096107      5.10925276      2.17764199
Pt      1.82369923      0.33496493      2.22819761
Pt      3.23587301      2.63602240      2.21485822
Pt      4.74403021      0.41343676      2.25150143
Pt     11.59916127      2.70559057      2.23581814
Pt      5.83453669      6.21304286      4.83285879
Pt      8.67918383      6.10822450      4.63641864
Pt      7.27798090      8.65424583      4.68955181
Pt      7.34194883      3.65487227      4.54868689
Pt      8.79750594      1.24930446      4.75639754
Pt      5.91736156      1.36349828      4.63097612
Pt     10.10985946      3.77745464      4.48069778
Pt     10.03573080      8.44422618      4.49908003
Pt      1.74719595      8.50524122      4.62712255
Pt      0.42760642      6.18215081      4.52641970
Pt      3.05049009      1.41622627      4.57716642
Pt      3.14511459      6.17590076      4.58624123
Pt      4.64786060      8.68113606      4.55432065
Pt      4.54059969      3.83904375      4.54313077
Pt      0.44339954      1.34791203      4.69318453
Pt      1.66125117      3.80409910      4.46736709
Pt      7.34569987      2.18828939      7.01884231
Pt     10.12891532      6.98936245      6.97554504
Pt      8.64062601      4.59187469      7.14269820
Pt      8.67353815     -0.25296040      7.03132465
Pt      5.91088296     -0.11163911      7.05018574
Pt      3.10719698      4.70734849      6.83894282
Pt      3.18096463     -0.09802467      6.82236910
Pt      7.28147124      7.06823065      6.97756284
Pt      4.45726049      2.21117032      6.83168265
Pt      1.63308712      2.16176486      7.10484485
Pt      0.34795383      4.74542958      6.76544821
Pt     10.07438704      2.23882930      7.00855698
Pt      5.91059959      4.53988103      6.90419627
Pt      0.33756766     -0.21510163      6.79602611
Pt      1.74735373      7.12201196      7.09765142
Pt      4.45656743      7.09739164      7.20339950
O       6.95250285      4.61172445      9.67386893
H       9.54731703      2.29440560      9.38162504
O       2.72273698      6.39915812     10.88146833
O       0.53303029      4.68553834     10.09849535
H       4.23823439      1.46368727     11.54270420
H       5.36541925      7.48122784      9.68987048
H       8.43682306      6.13592753      9.33570470
O       2.20450579      0.03126467     10.05571026
H       2.32844859      7.30929897     10.96003573
H       6.24072282      5.32394591      9.59683457
O       8.55134844     -0.64785074      9.19217170
H      12.58472582      9.13578741      9.86922750
H      11.47477629      4.99589566      9.17083329
H       2.89271308     -0.30189037      9.41178472
H       1.36286708      5.24074241     10.35623917
H       4.99033616      2.04221168      9.42622115
H       1.38971995      3.19765832      9.53763529
H       8.87506433      0.24544195      9.51821406
C       8.23155390      5.06148321      9.16746009
H       3.08709852      6.22728226     11.76538727
H       9.97191905      1.78713659     10.87746888
O       9.24980746      1.71153441     10.19017321
H       4.05645094      6.53906809      9.91817180
H       7.63474141      8.89946513      9.42303071
H       9.04697180      4.46632038      9.61396138
O       4.89013601      6.62671350      9.37393335
O       3.76969668      1.53766206     12.46361370
O       1.97874464      2.47474476      9.16517317
H       1.91390103      1.57887617      9.60579192
H      10.79705399      7.83005901      9.26281216
O      11.36480345      7.99000040     10.09006833
H       2.89038598      1.10704694     12.46954362
O       5.12691330      1.67362411     10.29867579
O       4.43692047      3.57028432     13.65125081
H       3.94180006      2.54278054     12.94163039
H       7.13923742      3.51430423     10.82434693
H       5.20120259      8.55188690     13.57761374
H       5.90225603      2.16221555     10.82379363
H      10.70484364      8.29130016     10.83521667
H       6.05138079      8.59874798     11.28758837
H       5.51905837      9.61474813     10.24310309
O       6.04097072      8.78987982     10.29721558
O       6.09773480      8.49674382     13.10505084
H       4.27362680      4.54013246     13.58882994
H      10.86805994      3.12622856     12.26120981
H       6.54951466      7.60214321     13.20137390
H       7.35787592      9.75297718     13.31913382
H       9.33303165      9.08724976     12.71699222
H      11.62717823      1.82320974     12.37272737
O      -0.96479201      8.53924920     12.59440365
O       8.25491088      0.58282786     13.28829022
O      11.16761766      2.39955790     11.74990049
Cl      1.37088617      0.42743625     13.87362346
H       0.61052416      2.13492481     15.61071124
O       9.94670559      5.82262440     12.30543751
H      10.34482245      5.72697510     11.38225374
O       3.49370226      5.96096319     13.38533094
H       3.74061851      6.85836982     13.74571866
O       7.18076258      2.68624292     11.41224757
H      -0.19499283      8.95058166     13.12955816
O       0.41102776      3.04943675     15.40591041
H       9.96072029      6.83502922     12.38563305
H       7.29147308      3.09282907     13.24263911
H       7.99303217      2.18931741     10.99379772
H       8.62959197      0.48247318     14.15530220
H       3.22382634     -0.53629134     14.59262450
O       6.99134889      3.50509774     14.08539276
H       2.46786694      5.86158941     13.59293946
H       5.41381182      3.44647260     13.90106893
H       4.26840819      7.23878562     17.72039037
H      -0.30820667      3.21720757     16.14035239
H       8.24339626      5.81854507     12.64283435
H       4.22812410      5.39981085     16.52359601
H       7.30796263      2.90224116     14.78613020
H       7.16717805      5.14040543     13.41179295
O       3.86229501     -1.31320816     14.62921294
H       4.09976718     -1.70105382     15.54467646
O       3.63620889      4.60278141     16.45886845
O       4.70902749      7.14087670     16.87820331
O       7.29920229      5.99420973     12.99928040
H       3.59015542      4.26980945     15.52234599
H      11.77768285      8.93873857     17.92169113
Cl     -2.53708244     -0.41755353     16.27125435
O      -0.34042992      6.86992107     16.31549609
O      11.46952301      9.85296617     17.63916916
H       0.27611097      6.55649732     15.56664471
H       0.84375350      4.42358629     14.39158127
O       1.00576861      5.25385052     13.86336136
H       5.66644350      7.18384009     17.04048855
H       4.58346407      3.17031097     17.18500756
H       6.03159410      2.57815285     17.13638038
H      -1.11860906      7.42894819     16.05391036
H       0.11264215      5.46601515     13.39184718
H       1.90003129      4.37604066     17.40024924
O       5.20395246      2.53799631     17.67724120
H      10.59330670      9.63722533     17.20103022
H      10.28786500      5.33858056     16.59001393
H       8.61846293      3.04879349     16.54449387
O       1.21585840      4.23032877     18.09761853
O       7.73716234      2.53533489     16.39290403
O       3.57805693     -2.27623284     19.18179097
H      11.44856231      4.25833905     17.61756990
O       9.75113200      4.50013410     17.00201802
H       3.98446559     -1.44019213     19.42492941
H       7.92742238      1.54228777     16.44345950
H       2.61753821      7.54927937     19.06742309
H       7.67172016      0.95851807     21.14992658
H       0.68251192      6.51858372     18.51209896
H       4.69511177      1.23960999     19.08685055
O       8.06287834      1.91020719     21.25867597
H       9.17982676      4.82663245     17.76806378
O       0.92814466      7.31985299     19.01476304
O       4.49462788      0.64223745     19.82433281
H       3.79752192      1.21653701     20.33320958
H       8.92178854      1.85877266     20.76145804
O       0.42773981      3.30741143     20.52362346
H       0.76561938      7.19695932     19.99356540
H       1.92683547      2.82434886     20.99095189
H       3.76166104      5.91051562     20.18019623
O       8.15389692      5.35752569     18.98902926
H      11.59098759      3.93348792     19.75119973
H       3.18851114      3.65518879     21.29692547
O       2.90221352      2.69291378     21.37853211
H       7.84021323      6.24569315     18.79137858
H       5.74467794      3.48148370     19.14319276
H       4.80484869      4.72195722     20.46556870
H       7.43611907      4.81881819     19.34647575
H      10.97328074      3.65606908     21.19801776
O       4.10920244      5.23843298     20.87234271
O      -0.79877295      0.88837618     20.11189091
O       6.12225476      3.93092478     19.96648102
H       6.37219930     -0.47037260     22.03139306
H       8.82032637      5.32440289     20.67546435
H      -0.53184490      0.56049324     19.19711419
O      10.75433131      9.14383355     22.49743812
H      -0.23459618     11.38008687     20.14594626
H      10.71066928      9.57416196     21.64615511
O       6.57219829     -0.32050412     21.06733616
O       9.23629841      5.10037912     21.54520097
H       6.55238980      3.24162212     20.51952801
H       9.78229228     -0.45919895     22.88803373
H       7.03973644      8.36077846     19.56347332
H       2.80526403      2.11729243     22.63363427
H      10.04549363      5.77043132     21.55201341
O       7.24029980      7.76454532     18.78000220
H       5.77410184      0.23304271     20.72090287
H       4.26007787      6.07439557     22.49486359
H       7.84359319      8.29184875     18.19224787
O       2.73914227      1.72704259     23.60486663
O      13.72568481      8.73042812     23.80772921
O       4.43139252      6.51241769     23.39370776
O       8.33351180      2.15696798     23.84351654
H       8.70881680      5.24630757     22.61166851
H       2.63849811      0.75023283     23.63916137
H       3.47854067      6.47119836     23.67374263
H      13.76973304      8.61257773     24.82148508
H       8.19806441      2.32695045     22.80571096
H       8.17336344      3.00627689     24.20130784
H       3.99292528      2.05688031     24.19474561
H      12.72018187     -0.91064880     23.76425188
H       0.86907648      4.83447140     23.48211174
O       0.03876113      6.86453708     21.46965604
H       0.61061643      6.39920456     22.17352980
O       1.28484898      5.76310758     23.43229614
O       4.98671458      2.01854860     24.50758651
O       8.31500163      5.28879788     23.71578341
O      11.49510383      3.11823922     23.46204404
O       6.05846310      4.55766213     24.56235723
H       7.74333990      9.18701561     24.07793305
H       5.32918495      8.45363334     23.95805497
H      12.06859317      2.49587526     23.93341161
H       5.46217610      5.38868153     24.48660467
H      10.89008373      7.80560981     21.86172383
H       8.17937401      6.18110077     24.03095808
H       5.48091415      0.34504228     24.10638167
H       8.66738489     10.40628799     24.20661662
H       5.36720426      2.91120810     24.34212569
H       1.05527935      6.22331725     24.26583751
O       8.72369553      9.40045349     24.26194408
O       5.87406601     -0.45855180     23.64631657
H      -0.33948984      3.26621268     24.13494960
H       7.02273218      4.82875450     24.15417952
Pt      3.34256389      9.01125718     26.87776650
Pt      6.17495236      8.97711789     26.82259479
Pt      8.89354956      8.99064133     26.51891290
Pt     11.66011835      9.11293237     26.70779781
Pt      9.01240396      4.30548362     26.62454917
Pt      4.81307222      6.73461877     26.75841014
Pt     10.48823942      6.64671310     26.84218157
Pt      7.63686752      6.60716329     26.80532755
Pt     11.85528010      4.30228627     26.52329765
Pt      1.97711099      6.69649482     26.65755115
Pt     10.43641206      1.84840247     26.82768532
Pt      7.64923909      1.74979160     27.01141126
Pt      3.40656339      4.29395831     26.86355536
Pt      6.35277784      4.21619919     26.72790317
Pt      1.96638761      1.78824131     26.77256261
Pt      4.83453742      1.77928696     26.71584165
